time zIndex S11 S22 S12 block gridPoints
f i f f f i l
 2.0000e+000 190120 -6.4626e+005 -2.3808e+006  2.3423e+005 189630 189993,190045,190019
 2.0000e+000 190097 -6.2576e+005 -2.5485e+006  1.6703e+005 189630 189993,190071,190045
 2.0000e+000 190319 -7.2295e+005 -2.1870e+006  8.4320e+004 189312 190169,190221,190195
 2.0000e+000 190296 -8.5712e+005 -2.0218e+006 -8.5031e+004 189312 190169,190247,190221
 2.0000e+000 190273 -6.6765e+005 -2.0040e+006 -1.2398e+005 189312 190143,190247,190169
 2.0000e+000 190518 -4.3466e+005 -2.1227e+006 -8.0666e+004 189124 190368,190446,190420
 2.0000e+000 190495 -3.6371e+005 -2.4240e+006 -3.1063e+005 189124 190342,190446,190368
 2.0000e+000 190472 -1.4592e+005 -1.9923e+006 -2.8827e+005 189124 190368,190420,190394
 2.0000e+000 190619 -4.7606e+005 -6.5525e+005 -3.8122e+004 188926 190541,190593,190567
 2.0000e+000 190771 -1.0522e+006 -2.0013e+006  6.6358e+003 188614 190670,190722,190696
 2.0000e+000 190748 -7.2771e+005 -3.0895e+006 -1.7757e+005 188614 190644,190722,190670
 2.0000e+000 190972 -5.2421e+005 -1.4348e+006  2.3067e+005 188324 190848,190900,190874
 2.0000e+000 190949 -4.9077e+005 -2.2409e+006 -2.2823e+005 188324 190796,190900,190848
 2.0000e+000 190926 -1.6614e+005 -1.9581e+006 -1.9167e+004 188324 190796,190848,190822
 2.0000e+000 191124 -1.7922e+005 -2.1210e+006 -4.7428e+004 188034 191023,191075,191049
 2.0000e+000 191101 -5.9372e+005 -1.8364e+006 -1.8903e+005 188034 190997,191075,191023
 2.0000e+000 191276 -2.7200e+005 -1.6765e+006  7.4297e+003 187836 191149,191201,191175
 2.0000e+000 191253 -4.0131e+005 -1.5712e+006  5.3106e+004 187836 191149,191227,191201
 2.0000e+000 191379 -4.6074e+005 -1.0377e+006 -1.7764e+004 187546 191301,191353,191327
 2.0000e+000 191531 -4.6761e+005 -2.4183e+006 -4.7885e+005 187256 191430,191482,191456
 2.0000e+000 191508 -6.9462e+005 -2.1332e+006 -4.1998e+004 187256 191404,191482,191430
 2.0000e+000 191634 -4.9149e+005 -1.6754e+006  7.9969e+004 187058 191556,191608,191582
 2.0000e+000 191835 -4.8558e+005 -1.7330e+006 -5.6030e+004 186860 191659,191711,191685
 2.0000e+000 191812 -6.1394e+005 -1.8675e+006 -1.3492e+005 186860 191659,191737,191711
 2.0000e+000 191789 -6.3624e+005 -1.7268e+006  1.0996e+004 186860 191659,191763,191737
 2.0000e+000 191987 -5.7672e+005 -1.8552e+006 -1.3332e+005 186662 191886,191938,191912
 2.0000e+000 191964 -5.5980e+005 -1.8426e+006 -1.4260e+005 186662 191860,191938,191886
 2.0000e+000 192090 -5.3712e+005 -1.6472e+006  4.0817e+004 186486 192012,192064,192038
 2.0000e+000 192242 -6.0301e+005 -2.4329e+006  9.0671e+004 186288 192115,192167,192141
 2.0000e+000 192219 -5.0748e+005 -2.3081e+006  1.5552e+005 186288 192115,192193,192167
 2.0000e+000 192394 -2.5793e+005 -2.2789e+006 -1.1539e+005 185935 192293,192345,192319
 2.0000e+000 192371 -4.0273e+005 -2.0471e+006 -1.4817e+005 185935 192267,192345,192293
 2.0000e+000 192546 -4.0299e+005 -2.1112e+006  4.3864e+004 185675 192419,192471,192445
 2.0000e+000 192523 -5.1172e+005 -2.1425e+006 -1.6267e+004 185675 192419,192497,192471
 2.0000e+000 192649 -4.9912e+005 -1.8134e+006  6.0000e+004 185499 192571,192623,192597
 2.0000e+000 192801 -6.9985e+005 -1.7654e+006  1.3637e+005 185301 192674,192726,192700
 2.0000e+000 192778 -5.0930e+005 -1.6854e+006  2.8887e+004 185301 192674,192752,192726
 2.0000e+000 193002 -3.2045e+005 -1.4576e+006 -4.8129e+005 185046 192852,192930,192878
 2.0000e+000 192979 -5.3211e+005 -2.3234e+006 -4.6077e+005 185046 192826,192930,192852
 2.0000e+000 192956 -1.5291e+005 -2.2150e+006 -2.4293e+005 185046 192878,192930,192904
 2.0000e+000 193203 -6.6883e+005 -1.9708e+006 -1.3341e+005 184798 193079,193131,193105
 2.0000e+000 193180 -6.6617e+005 -2.0302e+006 -1.3048e+005 184798 193027,193131,193079
 2.0000e+000 193157 -7.8884e+005 -2.0597e+006 -1.4454e+005 184798 193027,193079,193053
 2.0000e+000 193404 -4.0182e+005 -1.5948e+006 -1.8208e+005 184600 193254,193306,193280
 2.0000e+000 193381 -3.9899e+005 -1.7913e+006 -2.2573e+005 184600 193254,193332,193306
 2.0000e+000 193358 -5.8824e+005 -1.9174e+006 -1.3112e+005 184600 193228,193332,193254
 2.0000e+000 193556 -3.4901e+005 -2.0768e+006  4.4647e+004 184402 193429,193481,193455
 2.0000e+000 193533 -5.7209e+005 -2.3418e+006  2.4190e+005 184402 193429,193507,193481
 2.0000e+000 193708 -5.3796e+005 -1.8214e+006  3.3946e+003 184204 193607,193659,193633
 2.0000e+000 193685 -5.8793e+005 -2.1915e+006 -1.0462e+005 184204 193581,193659,193607
 2.0000e+000 193860 -5.5177e+005 -1.8575e+006  1.3314e+005 183908 193759,193811,193785
 2.0000e+000 193837 -3.3535e+005 -2.0195e+006  1.8804e+005 183908 193733,193811,193759
 2.0000e+000 194061 -1.9673e+005 -1.6019e+006 -9.1103e+004 183710 193911,193989,193937
 2.0000e+000 194038 -4.1792e+005 -1.7801e+006  1.7605e+005 183710 193885,193989,193911
 2.0000e+000 194015 -2.4575e+005 -1.9589e+006 -2.1909e+003 183710 193937,193989,193963
 2.0000e+000 194262 -6.9283e+005 -1.6796e+006 -1.9768e+005 183420 194086,194164,194112
 2.0000e+000 194239 -7.0186e+005 -1.6495e+006 -7.5449e+004 183420 194086,194190,194164
 2.0000e+000 194216 -2.9471e+005 -2.3048e+006  6.0285e+004 183420 194112,194164,194138
 2.0000e+000 194414 -4.4648e+005 -2.0074e+006  2.6455e+005 183222 194287,194339,194313
 2.0000e+000 194391 -4.6033e+005 -1.7941e+006  2.2914e+005 183222 194287,194365,194339
 2.0000e+000 194517 -3.2339e+005 -2.1538e+006  6.3716e+004 183024 194439,194491,194465
 2.0000e+000 194718 -3.4359e+005 -2.6935e+006  1.6260e+004 182734 194568,194620,194594
 2.0000e+000 194695 -6.7016e+005 -2.3010e+006 -1.2056e+005 182734 194542,194620,194568
 2.0000e+000 194672 -6.9850e+005 -2.0423e+006 -9.9293e+004 182734 194542,194646,194620
 2.0000e+000 194870 -7.8129e+005 -2.1076e+006 -6.1232e+004 182444 194769,194821,194795
 2.0000e+000 194847 -7.4175e+005 -1.7563e+006 -2.4760e+005 182444 194743,194821,194769
 2.0000e+000 195071 -8.0345e+005 -2.0085e+006  1.4155e+004 182154 194895,194947,194921
 2.0000e+000 195048 -6.6248e+005 -1.7466e+006  2.2539e+005 182154 194895,194999,194947
 2.0000e+000 195025 -4.7467e+005 -1.9761e+006  3.1564e+005 182154 194947,194999,194973
 2.0000e+000 195223 -7.2334e+005 -1.7095e+006  2.3954e+005 181814 195096,195148,195122
 2.0000e+000 195200 -7.4458e+005 -1.8376e+006  1.4610e+005 181814 195096,195174,195148
 2.0000e+000 195375 -9.2867e+004 -1.5416e+006 -4.2645e+004 181524 195248,195300,195274
 2.0000e+000 195352 -1.9754e+005 -1.7440e+006  4.2707e+004 181524 195248,195326,195300
 2.0000e+000 195527 -2.6157e+005 -1.0698e+006 -2.9393e+004 181326 195426,195478,195452
 2.0000e+000 195504 -6.3581e+005 -1.4577e+006  2.2607e+005 181326 195400,195478,195426
 2.0000e+000 195679 -1.8870e+005 -2.1675e+006  2.9672e+005 180936 195578,195630,195604
 2.0000e+000 195656 -1.8357e+005 -1.9783e+006  3.1823e+005 180936 195552,195630,195578
 2.0000e+000 195831 -6.7717e+005 -6.5019e+005 -3.6373e+005 180646 195704,195756,195730
 2.0000e+000 195808 -5.7382e+005 -2.1867e+005 -9.2723e+004 180646 195704,195782,195756
 2.0000e+000 196032 -4.4596e+005 -1.4973e+006  2.9769e+005 180306 195882,195960,195934
 2.0000e+000 196009 -6.0707e+005 -1.9265e+006  1.5922e+005 180306 195856,195960,195882
 2.0000e+000 195986 -3.3442e+005 -1.8951e+006 -1.2753e+005 180306 195882,195934,195908
 2.0000e+000 196233 -5.9930e+005 -1.3300e+006  2.2844e+005 179944 196057,196109,196083
 2.0000e+000 196210 -8.9845e+005 -2.6172e+006  4.3939e+005 179944 196057,196135,196109
 2.0000e+000 196187 -9.7644e+005 -1.2123e+006  6.6742e+004 179944 196057,196161,196135
 2.0000e+000 196385 -1.6189e+005 -8.3330e+005 -1.0079e+005 179604 196258,196310,196284
 2.0000e+000 196362 -2.2205e+005 -8.0867e+005 -3.1603e+005 179604 196258,196336,196310
 2.0000e+000 196586 -1.4714e+005 -1.3508e+006 -4.0576e+005 179114 196410,196488,196436
 2.0000e+000 196563 -3.5567e+005 -1.6879e+006 -2.5512e+005 179114 196410,196514,196488
 2.0000e+000 196540 -1.5851e+004 -1.3884e+006 -1.4830e+005 179114 196436,196488,196462
 2.0000e+000 196738 -6.3664e+005 -1.5764e+006 -1.5942e+005 178674 196611,196663,196637
 2.0000e+000 196715 -3.7118e+005 -1.7626e+006 -1.6250e+005 178674 196611,196689,196663
 2.0000e+000 196939 -6.3602e+005 -2.2460e+006 -3.4824e+005 178334 196789,196867,196841
 2.0000e+000 196916 -8.9526e+005 -2.3300e+006 -4.0576e+005 178334 196763,196867,196789
 2.0000e+000 196893 -1.0185e+006 -2.2248e+006 -4.6648e+005 178334 196789,196841,196815
 2.0000e+000 197091 -2.6350e+005 -1.6309e+006  2.7851e+005 177930 196990,197042,197016
 2.0000e+000 197068 -2.2885e+005 -1.5327e+006  2.1186e+005 177930 196964,197042,196990
 2.0000e+000 197194 -7.6625e+003 -6.3436e+005  2.2181e+004 177732 197116,197168,197142
 2.0000e+000 197346 -3.2178e+005 -2.6391e+006  9.2899e+004 177534 197219,197271,197245
 2.0000e+000 197323 -2.0999e+005 -3.0725e+006  3.2654e+005 177534 197219,197297,197271
 2.0000e+000 197547 -5.7613e+005 -1.9785e+006 -6.4469e+005 177130 197397,197449,197423
 2.0000e+000 197524 -5.1446e+005 -2.0717e+006 -1.1407e+005 177130 197397,197475,197449
 2.0000e+000 197501 -4.5383e+005 -2.5672e+006 -1.3820e+005 177130 197371,197475,197397
 2.0000e+000 197748 -9.0010e+005 -2.7552e+006  1.4710e+005 176790 197598,197676,197624
 2.0000e+000 197725 -4.6744e+005 -2.5372e+006  4.3082e+005 176790 197572,197676,197598
 2.0000e+000 197702 -8.3318e+005 -2.4688e+006  1.1629e+005 176790 197624,197676,197650
 2.0000e+000 197900 -2.2400e+005 -2.1874e+006 -4.9715e+005 176300 197773,197825,197799
 2.0000e+000 197877 -4.0869e+005 -2.1425e+006 -4.1916e+005 176300 197773,197851,197825
 2.0000e+000 198052 -5.0849e+005 -1.9885e+006 -3.7955e+005 176010 197925,197977,197951
 2.0000e+000 198029 -5.6149e+005 -2.0236e+006 -3.3647e+005 176010 197925,198003,197977
 2.0000e+000 198204 -1.0616e+006 -2.3751e+006  3.3933e+005 175670 198103,198155,198129
 2.0000e+000 198181 -8.6391e+005 -2.0617e+006  6.1167e+004 175670 198077,198155,198103
 2.0000e+000 198405 -7.0593e+005 -2.3493e+006  1.2966e+005 175266 198255,198307,198281
 2.0000e+000 198382 -3.6869e+005 -2.2960e+006  1.6231e+005 175266 198229,198307,198255
 2.0000e+000 198359 -4.6600e+005 -2.3379e+006  1.9374e+005 175266 198229,198333,198307
 2.0000e+000 198606 -4.5627e+005 -1.7204e+006 -4.4397e+004 174876 198430,198508,198482
 2.0000e+000 198583 -7.3491e+005 -1.8148e+006  1.7117e+005 174876 198430,198534,198508
 2.0000e+000 198560 -6.6966e+005 -1.9347e+006  8.5065e+004 174876 198430,198482,198456
 2.0000e+000 198758 -1.3775e+005 -1.0590e+006  3.6881e+005 174536 198657,198709,198683
 2.0000e+000 198735 -4.6109e+004 -8.7306e+005  2.4104e+005 174536 198631,198709,198657
 2.0000e+000 199008 -3.6792e+005 -3.0895e+006  1.1862e+005 174132 198835,198913,198887
 2.0000e+000 198985 -6.4846e+005 -2.1270e+006 -2.7404e+004 174132 198809,198913,198835
 2.0000e+000 198962 -5.3634e+005 -2.1097e+006 -1.0616e+005 174132 198783,198913,198809
 2.0000e+000 198939 -7.6390e+005 -2.7774e+006  1.1986e+005 174132 198835,198887,198861
 2.0000e+000 199160 -6.2495e+005 -2.2327e+006  3.7636e+005 173842 199059,199111,199085
 2.0000e+000 199137 -6.4745e+005 -1.8194e+006  2.8883e+005 173842 199033,199111,199059
 2.0000e+000 199361 -7.5088e+005 -2.4878e+006 -1.2376e+005 173438 199237,199289,199263
 2.0000e+000 199338 -7.2693e+005 -2.0623e+006 -1.9814e+004 173438 199211,199289,199237
 2.0000e+000 199315 -7.1425e+005 -2.3067e+006 -2.2643e+005 173438 199185,199289,199211
 2.0000e+000 199513 -8.5395e+005 -1.9369e+006  2.0180e+005 173190 199386,199438,199412
 2.0000e+000 199490 -8.4531e+005 -2.1229e+006  3.2848e+005 173190 199386,199464,199438
 2.0000e+000 199665 -1.8487e+005 -9.6126e+005  9.9575e+004 172750 199564,199616,199590
 2.0000e+000 199642 -2.2319e+005 -9.3174e+005  7.4028e+004 172750 199538,199616,199564
 2.0000e+000 199817 -5.6917e+005 -2.6620e+006 -3.7599e+005 172524 199690,199742,199716
 2.0000e+000 199794 -7.9057e+005 -2.0598e+006 -3.2119e+005 172524 199690,199768,199742
 2.0000e+000 199969 -1.0571e+006 -2.3693e+006 -3.0665e+005 172348 199842,199894,199868
 2.0000e+000 199946 -4.5930e+005 -2.2341e+006 -1.8072e+005 172348 199842,199920,199894
 2.0000e+000 200121 -1.5960e+005 -2.4783e+006 -4.2515e+005 172008 199994,200046,200020
 2.0000e+000 200098 -4.6766e+005 -1.9331e+006 -2.7125e+005 172008 199994,200072,200046
 2.0000e+000 200273 -5.2557e+005 -1.9537e+006  3.6001e+005 171668 200172,200224,200198
 2.0000e+000 200250 -4.2465e+005 -1.8442e+006  4.9627e+005 171668 200146,200224,200172
 2.0000e+000 200474 -3.6799e+005 -2.4471e+006 -1.3030e+005 171264 200350,200402,200376
 2.0000e+000 200451 -3.6390e+005 -2.1062e+006 -1.4873e+004 171264 200324,200402,200350
 2.0000e+000 200428 -3.9140e+005 -2.1822e+006 -1.0494e+005 171264 200298,200402,200324
 2.0000e+000 200626 -4.3422e+005 -2.6555e+006 -6.0512e+004 170832 200525,200577,200551
 2.0000e+000 200603 -1.2098e+005 -2.4372e+006  1.4299e+005 170832 200499,200577,200525
 2.0000e+000 200827 -4.1223e+005 -2.4718e+006  2.1215e+005 170492 200677,200729,200703
 2.0000e+000 200804 -3.8214e+005 -2.3800e+006  1.4074e+005 170492 200651,200729,200677
 2.0000e+000 200781 -4.2155e+005 -2.3388e+006  1.6984e+005 170492 200651,200755,200729
 2.0000e+000 201077 -1.3106e+005 -1.6755e+006 -9.6480e+004 170088 200878,200956,200904
 2.0000e+000 201054 -4.0863e+005 -1.9155e+006 -3.8224e+005 170088 200852,200956,200878
 2.0000e+000 201031 -1.8935e+005 -1.5713e+006  3.1763e+005 170088 200904,200956,200930
 2.0000e+000 201008  6.9211e+005 -3.3485e+006  6.1772e+005 170088 200852,200982,200956
 2.0000e+000 201278 -5.5921e+005 -1.6769e+006 -1.4467e+005 169798 201102,201154,201128
 2.0000e+000 201255 -6.6561e+005 -2.1169e+006 -1.0032e+004 169798 201102,201206,201154
 2.0000e+000 201232 -5.9877e+005 -1.9570e+006  5.0569e+004 169798 201154,201206,201180
 2.0000e+000 201430 -9.0711e+005 -2.7447e+006 -2.3185e+005 169337 201303,201355,201329
 2.0000e+000 201407 -8.9070e+005 -2.6626e+006 -2.3820e+005 169337 201303,201381,201355
 2.0000e+000 201631 -1.9877e+005 -1.8828e+006 -2.4399e+005 168883 201481,201559,201507
 2.0000e+000 201608 -1.2622e+005 -2.0190e+006 -3.2247e+005 168883 201455,201559,201481
 2.0000e+000 201585 -6.3050e+005 -2.0876e+006 -5.4411e+005 168883 201507,201559,201533
 2.0000e+000 201832 -2.7705e+005 -2.6367e+006  7.1808e+004 168479 201682,201734,201708
 2.0000e+000 201809 -6.3066e+005 -2.5604e+006 -1.5722e+003 168479 201656,201734,201682
 2.0000e+000 201786 -5.7031e+005 -2.2941e+006 -3.3028e+005 168479 201656,201760,201734
 2.0000e+000 202033 -4.2809e+005 -1.7143e+006  1.1608e+005 167825 201883,201935,201909
 2.0000e+000 202010 -2.2962e+005 -1.8354e+006 -2.6993e+005 167825 201857,201935,201883
 2.0000e+000 201987 -4.7197e+005 -2.1525e+006 -1.0559e+005 167825 201857,201961,201935
 2.0000e+000 202234 -6.7369e+005 -2.4262e+006 -3.0917e+005 167435 202058,202136,202084
 2.0000e+000 202211 -1.2381e+006 -2.6998e+006 -8.0332e+004 167435 202058,202162,202136
 2.0000e+000 202188 -8.4324e+005 -2.1602e+006 -1.2581e+005 167435 202084,202136,202110
 2.0000e+000 202386 -3.6571e+005 -2.4292e+006  1.2865e+005 167002 202285,202337,202311
 2.0000e+000 202363 -3.6757e+005 -2.8119e+006  7.1184e+004 167002 202259,202337,202285
 2.0000e+000 202538 -2.5337e+005 -2.4872e+006 -1.7661e+005 166662 202411,202463,202437
 2.0000e+000 202515 -5.7689e+005 -1.8979e+006  6.4071e+004 166662 202411,202489,202463
 2.0000e+000 202690 -4.2520e+005 -2.8042e+006 -2.7915e+005 166322 202589,202641,202615
 2.0000e+000 202667 -3.5383e+005 -2.4886e+006 -6.8240e+004 166322 202563,202641,202589
 2.0000e+000 202891 -1.1722e+006 -2.4317e+006 -2.2096e+004 165918 202715,202767,202741
 2.0000e+000 202868 -1.0310e+006 -1.8360e+006  8.9335e+004 165918 202715,202793,202767
 2.0000e+000 202845 -3.8992e+005 -2.2811e+006  1.9116e+005 165918 202715,202819,202793
 2.0000e+000 203092 -2.7275e+005 -3.1379e+006 -1.7629e+005 165628 202916,202968,202942
 2.0000e+000 203069 -6.7441e+005 -2.8547e+006 -9.2523e+004 165628 202916,202994,202968
 2.0000e+000 203046 -4.3866e+005 -2.8247e+006 -9.2028e+004 165628 202916,203020,202994
 2.0000e+000 203293 -6.5805e+005 -3.2900e+006  4.2914e+005 165266 203143,203195,203169
 2.0000e+000 203270 -7.7027e+005 -2.6565e+006  1.7312e+004 165266 203143,203221,203195
 2.0000e+000 203247 -4.8790e+005 -3.4106e+006 -7.8221e+005 165266 203117,203221,203143
 2.0000e+000 203445 -7.5409e+005 -2.5133e+006  2.8194e+005 164826 203318,203370,203344
 2.0000e+000 203422 -1.2749e+006 -2.3225e+006  1.4550e+005 164826 203318,203396,203370
 2.0000e+000 203597 -5.3938e+005 -1.7897e+006  1.1515e+005 164386 203470,203522,203496
 2.0000e+000 203574 -4.9382e+005 -1.8289e+006  2.4679e+005 164386 203470,203548,203522
 2.0000e+000 203798 -4.2690e+004 -1.9803e+006  1.1827e+004 163996 203622,203674,203648
 2.0000e+000 203775 -3.3807e+005 -2.0725e+006  1.3514e+005 163996 203622,203726,203674
 2.0000e+000 203752 -3.8827e+005 -2.2813e+006  1.2002e+005 163996 203674,203726,203700
 2.0000e+000 203901 -6.2538e+005 -1.7740e+006  2.6190e+005 163770 203823,203875,203849
 2.0000e+000 204053 -7.7811e+005 -2.0718e+006 -1.6820e+005 163474 203952,204004,203978
 2.0000e+000 204030 -6.5403e+005 -1.8926e+006  1.2822e+005 163474 203926,204004,203952
 2.0000e+000 204205 -6.7585e+005 -2.2458e+006 -3.0600e+005 163034 204104,204156,204130
 2.0000e+000 204182 -5.0686e+005 -2.4464e+006 -5.0923e+005 163034 204078,204156,204104
 2.0000e+000 204357 -5.5869e+005 -1.7137e+006  1.9712e+005 162624 204256,204308,204282
 2.0000e+000 204334 -4.3471e+005 -1.7213e+006  3.7569e+005 162624 204230,204308,204256
 2.0000e+000 204509 -2.2477e+005 -1.0524e+006 -1.4119e+005 162200 204382,204434,204408
 2.0000e+000 204486 -1.4520e+005 -8.1086e+005 -8.8945e+004 162200 204382,204460,204434
 2.0000e+000 204710 -4.2017e+005 -1.7909e+006 -1.2649e+004 161810 204560,204638,204586
 2.0000e+000 204687 -5.3541e+004 -2.0767e+006 -3.2721e+005 161810 204534,204638,204560
 2.0000e+000 204664 -6.1140e+005 -2.4018e+006 -1.3121e+005 161810 204586,204638,204612
 2.0000e+000 204862 -8.1412e+005 -1.9167e+006 -9.7184e+004 161406 204735,204787,204761
 2.0000e+000 204839 -8.1897e+005 -2.3091e+006  1.0522e+005 161406 204735,204813,204787
 2.0000e+000 205014 -5.3778e+005 -1.7987e+006  3.3323e+005 161180 204887,204939,204913
 2.0000e+000 204991 -5.8573e+005 -1.7178e+006  2.9721e+005 161180 204887,204965,204939
 2.0000e+000 205215 -4.6689e+005 -1.6730e+006 -4.3964e+005 160726 205039,205091,205065
 2.0000e+000 205192 -4.7643e+005 -1.9456e+006 -3.9417e+004 160726 205039,205143,205091
 2.0000e+000 205169 -5.6918e+005 -1.7204e+006 -9.1503e+004 160726 205091,205143,205117
 2.0000e+000 205416 -1.8002e+005 -1.8185e+006  4.4213e+005 160272 205292,205344,205318
 2.0000e+000 205393 -3.1453e+005 -1.3929e+006  3.6175e+005 160272 205240,205344,205292
 2.0000e+000 205370 -3.7590e+005 -1.8917e+006 -5.8196e+004 160272 205240,205292,205266
 2.0000e+000 205568 -2.7109e+005 -1.5489e+006 -1.3324e+004 159932 205441,205493,205467
 2.0000e+000 205545 -1.4108e+005 -1.8293e+006 -1.3582e+005 159932 205441,205519,205493
 2.0000e+000 205720 -5.7966e+005 -1.7505e+006 -5.1493e+005 159542 205593,205645,205619
 2.0000e+000 205697 -8.1273e+005 -1.3548e+006 -2.5207e+005 159542 205593,205671,205645
 2.0000e+000 205872 -3.1314e+005 -9.1369e+005  4.4122e+004 159252 205745,205797,205771
 2.0000e+000 205849 -3.0287e+005 -1.3300e+006 -3.7288e+005 159252 205745,205823,205797
 2.0000e+000 206024 -1.3786e+006 -2.1427e+006 -6.3495e+004 159004 205923,205975,205949
 2.0000e+000 206001 -5.7042e+005 -2.4525e+006  4.5076e+005 159004 205897,205975,205923
 2.0000e+000 206127 -8.4087e+001 -1.9107e+002  1.4366e+002 158364 206049,206101,206075
 2.0000e+000 206328 -5.2839e+005 -2.1529e+006 -2.3548e+005 157960 206178,206256,206204
 2.0000e+000 206305 -3.5851e+005 -1.9777e+006 -5.4512e+004 157960 206152,206256,206178
 2.0000e+000 206282 -3.6186e+005 -2.0024e+006 -1.2936e+005 157960 206204,206256,206230
 2.0000e+000 206529 -3.5164e+005 -1.9391e+006  2.3870e+005 157648 206405,206457,206431
 2.0000e+000 206506 -5.7909e+005 -2.3097e+006  7.4075e+004 157648 206379,206457,206405
 2.0000e+000 206483 -6.2036e+005 -2.6902e+006 -3.8045e+005 157648 206353,206457,206379
 2.0000e+000 206730 -4.2830e+005 -2.3503e+006  2.0062e+005 157208 206554,206606,206580
 2.0000e+000 206707 -5.8349e+005 -2.8715e+006  1.0592e+005 157208 206554,206632,206606
 2.0000e+000 206684 -7.6102e+005 -2.5475e+006  1.3607e+005 157208 206554,206658,206632
 2.0000e+000 206882 -5.6839e+005 -1.8706e+006  1.9036e+005 157010 206755,206807,206781
 2.0000e+000 206859 -3.0342e+005 -1.9819e+006  1.9856e+005 157010 206755,206833,206807
 2.0000e+000 207034 -1.7654e+004 -2.1624e+006 -1.1323e+004 156620 206907,206959,206933
 2.0000e+000 207011 -1.5367e+003 -2.4545e+006  8.2881e+003 156620 206907,206985,206959
 2.0000e+000 207186 -1.0162e+005 -1.6522e+006 -6.5436e+004 156330 207085,207137,207111
 2.0000e+000 207163 -1.3344e+005 -1.6579e+006  3.0406e+003 156330 207059,207137,207085
 2.0000e+000 207387 -6.1259e+005 -1.9789e+006  1.5513e+005 155890 207211,207289,207237
 2.0000e+000 207364 -8.3848e+005 -2.0354e+006 -6.8235e+004 155890 207211,207315,207289
 2.0000e+000 207341 -5.0273e+005 -1.8657e+006  2.3464e+005 155890 207237,207289,207263
 2.0000e+000 207588 -9.0272e+005 -2.4319e+006  2.5866e+005 155436 207438,207490,207464
 2.0000e+000 207565 -7.6838e+005 -2.5432e+006  4.2174e+005 155436 207412,207490,207438
 2.0000e+000 207542 -1.9980e+005 -2.8965e+006  1.3114e+005 155436 207412,207516,207490
 2.0000e+000 207789 -4.4478e+005 -3.0674e+006  6.6183e+004 155260 207639,207691,207665
 2.0000e+000 207766 -2.5165e+005 -2.5853e+006  3.0050e+005 155260 207613,207691,207639
 2.0000e+000 207743 -3.6139e+005 -2.6607e+006  4.1176e+005 155260 207613,207717,207691
 2.0000e+000 207990 -3.1690e+005 -1.5434e+006  2.3311e+004 154920 207840,207918,207892
 2.0000e+000 207967 -6.4608e+005 -1.6052e+006  6.5149e+004 154920 207814,207918,207840
 2.0000e+000 207944 -2.9752e+005 -1.7570e+006  1.5371e+005 154920 207840,207892,207866
 2.0000e+000 208191 -5.8381e+005 -2.6102e+006 -3.6208e+005 154630 208015,208093,208041
 2.0000e+000 208168 -7.4652e+005 -2.4670e+006 -2.6579e+005 154630 208015,208119,208093
 2.0000e+000 208145 -3.4992e+005 -2.5269e+006 -4.2199e+005 154630 208041,208093,208067
 2.0000e+000 208343 -9.6099e+004 -1.2422e+006 -4.7656e+005 154240 208216,208268,208242
 2.0000e+000 208320 -5.6243e+004 -8.8562e+005 -2.6808e+005 154240 208216,208294,208268
 2.0000e+000 208495 -7.9060e+005 -3.2711e+006 -6.3389e+005 153950 208394,208446,208420
 2.0000e+000 208472 -8.0433e+005 -2.9291e+006 -3.8037e+005 153950 208368,208446,208394
 2.0000e+000 208647 -8.8225e+005 -2.5753e+006  2.0485e+005 153603 208520,208572,208546
 2.0000e+000 208624 -9.1738e+005 -2.5496e+006  1.8102e+005 153603 208520,208598,208572
 2.0000e+000 208848 -5.1195e+005 -1.9755e+006  2.4134e+005 153149 208698,208776,208724
 2.0000e+000 208825 -3.4257e+005 -2.3403e+006  6.8127e+004 153149 208672,208776,208698
 2.0000e+000 208802 -5.1867e+005 -2.2387e+006  2.1004e+005 153149 208724,208776,208750
 2.0000e+000 209000 -3.4059e+005 -2.8972e+006  4.7825e+004 152859 208873,208925,208899
 2.0000e+000 208977 -4.5927e+005 -2.5984e+006  3.1368e+004 152859 208873,208951,208925
 2.0000e+000 209152 -4.5532e+005 -2.7526e+006 -3.3656e+005 152569 209051,209103,209077
 2.0000e+000 209129 -7.1716e+005 -2.4870e+006 -2.0075e+005 152569 209025,209103,209051
 2.0000e+000 209304 -5.2292e+005 -1.7340e+006  9.4689e+004 152065 209177,209229,209203
 2.0000e+000 209281 -4.4224e+005 -1.7493e+006  8.5809e+004 152065 209177,209255,209229
 2.0000e+000 209456 -6.0299e+005 -2.9818e+006 -2.0109e+004 151775 209355,209407,209381
 2.0000e+000 209433 -8.1051e+005 -2.8438e+006 -1.2255e+005 151775 209329,209407,209355
 2.0000e+000 209608 -6.8621e+005 -2.9531e+006  9.6214e+004 151371 209481,209533,209507
 2.0000e+000 209585 -7.4419e+004 -3.0807e+006 -1.3540e+004 151371 209481,209559,209533
 2.0000e+000 209760 -9.6948e+005 -2.8262e+006 -5.0238e+005 150981 209659,209711,209685
 2.0000e+000 209737 -7.4952e+005 -2.6536e+006 -3.5371e+005 150981 209633,209711,209659
 2.0000e+000 209912 -2.0621e+005 -2.8603e+006 -1.9933e+005 150619 209811,209863,209837
 2.0000e+000 209889 -9.5412e+004 -2.7277e+006 -1.2280e+005 150619 209785,209863,209811
 2.0000e+000 210064 -6.2009e+005 -2.9719e+006 -2.1151e+005 150279 209937,209989,209963
 2.0000e+000 210041 -5.8239e+005 -2.9503e+006 -2.3320e+005 150279 209937,210015,209989
 2.0000e+000 210265 -5.9910e+005 -2.8353e+006 -4.4089e+005 149989 210115,210167,210141
 2.0000e+000 210242 -6.7902e+005 -2.3080e+006  1.9744e+005 149989 210115,210193,210167
 2.0000e+000 210219 -5.5495e+005 -3.2672e+006  2.1907e+005 149989 210089,210193,210115
 2.0000e+000 210417 -3.6311e+005 -2.8549e+006 -4.0907e+005 149599 210316,210368,210342
 2.0000e+000 210394 -5.5544e+005 -2.4049e+006 -3.6655e+005 149599 210290,210368,210316
 2.0000e+000 210618 -1.1633e+006 -2.5258e+006  1.8598e+005 149095 210468,210520,210494
 2.0000e+000 210595 -9.2048e+005 -2.5069e+006  4.1905e+005 149095 210442,210520,210468
 2.0000e+000 210572 -4.4824e+005 -2.9797e+006  2.6606e+005 149095 210442,210546,210520
 2.0000e+000 210819 -4.5704e+005 -1.7199e+006  8.7272e+004 148748 210695,210747,210721
 2.0000e+000 210796 -4.5308e+005 -1.8298e+006  1.0822e+005 148748 210669,210747,210695
 2.0000e+000 210773 -1.7364e+005 -1.6914e+006  2.1617e+005 148748 210643,210747,210669
 2.0000e+000 210971 -3.1601e+005 -9.7783e+005  9.7665e+004 148408 210870,210922,210896
 2.0000e+000 210948 -3.5009e+005 -1.3588e+006  1.0992e+005 148408 210844,210922,210870
 2.0000e+000 211123 -1.0096e+006 -2.0905e+006  3.7851e+005 148118 210996,211048,211022
 2.0000e+000 211100 -9.5953e+005 -2.4039e+006  6.4905e+005 148118 210996,211074,211048
 2.0000e+000 211275 -5.7547e+005 -2.8712e+006  2.3174e+005 147778 211148,211200,211174
 2.0000e+000 211252 -7.7480e+005 -2.9342e+006  2.8377e+005 147778 211148,211226,211200
 2.0000e+000 211427 -4.7717e+005 -2.8125e+006 -3.3823e+005 147324 211326,211378,211352
 2.0000e+000 211404 -1.4705e+005 -2.7065e+006 -2.2685e+005 147324 211300,211378,211326
 2.0000e+000 211628 -1.9643e+005 -1.3684e+006 -6.0597e+004 147012 211452,211504,211478
 2.0000e+000 211605 -2.7361e+005 -9.3279e+005  1.2451e+005 147012 211452,211556,211504
 2.0000e+000 211582 -2.8669e+005 -1.0623e+006  1.4310e+005 147012 211504,211556,211530
 2.0000e+000 211829 -6.5149e+005 -2.6713e+006  5.0282e+004 146636 211679,211757,211731
 2.0000e+000 211806 -4.6791e+005 -3.0183e+006 -5.6933e+004 146636 211653,211757,211679
 2.0000e+000 211783 -3.4802e+005 -2.5425e+006 -4.8310e+004 146636 211679,211731,211705
 2.0000e+000 211981 -8.1076e+004 -1.5242e+006  1.7692e+005 146246 211880,211932,211906
 2.0000e+000 211958 -1.0029e+005 -1.3043e+006  1.6158e+005 146246 211854,211932,211880
 2.0000e+000 212133 -3.5749e+005 -1.0107e+006  1.5220e+005 145956 212006,212058,212032
 2.0000e+000 212110 -3.7185e+005 -1.2044e+006  2.6276e+005 145956 212006,212084,212058
 2.0000e+000 212285 -2.1135e+005 -1.3704e+006  8.7765e+004 145544 212184,212236,212210
 2.0000e+000 212262 -2.1808e+005 -1.5995e+006  9.8854e+004 145544 212158,212236,212184
 2.0000e+000 212486 -3.3760e+005 -2.7722e+006 -1.4430e+004 144990 212362,212414,212388
 2.0000e+000 212463 -2.9002e+004 -2.2793e+006  2.9717e+005 144990 212310,212414,212362
 2.0000e+000 212440 -6.1187e+005 -1.7943e+006 -8.0055e+004 144990 212310,212362,212336
 2.0000e+000 212638 -4.7848e+005 -1.3296e+006  3.8285e+005 144600 212537,212589,212563
 2.0000e+000 212615 -4.8901e+005 -1.3716e+006  4.0553e+005 144600 212511,212589,212537
 2.0000e+000 212839 -2.3994e+005 -1.6242e+006 -2.3941e+004 144210 212689,212741,212715
 2.0000e+000 212816 -4.5849e+005 -1.4582e+006 -1.4468e+005 144210 212663,212741,212689
 2.0000e+000 212793 -5.2176e+005 -1.2534e+006 -3.1423e+005 144210 212663,212767,212741
 2.0000e+000 212991 -4.9665e+005 -2.0028e+006 -1.3161e+004 143920 212890,212942,212916
 2.0000e+000 212968 -5.1808e+005 -2.1921e+006 -5.8918e+004 143920 212864,212942,212890
 2.0000e+000 213143 -4.0518e+005 -1.6725e+006 -2.6197e+005 143480 213016,213068,213042
 2.0000e+000 213120 -1.7825e+005 -1.9393e+006  1.1328e+004 143480 213016,213094,213068
 2.0000e+000 213295 -5.0542e+005 -1.5178e+006 -1.0799e+005 142990 213194,213246,213220
 2.0000e+000 213272 -6.4733e+005 -1.5907e+006 -3.0182e+005 142990 213168,213246,213194
 2.0000e+000 213447 -3.6413e+005 -1.8403e+006  2.6985e+005 142600 213320,213372,213346
 2.0000e+000 213424 -7.7705e+005 -1.5669e+006  8.2088e+004 142600 213320,213398,213372
 2.0000e+000 213599 -4.4663e+005 -1.5876e+006  2.3764e+005 142260 213472,213524,213498
 2.0000e+000 213576 -3.9277e+005 -1.6503e+006  4.1746e+005 142260 213472,213550,213524
 2.0000e+000 213751 -4.8441e+005 -2.0223e+006  1.7965e+005 141870 213624,213676,213650
 2.0000e+000 213728 -1.0131e+006 -1.9523e+006 -3.3193e+004 141870 213624,213702,213676
 2.0000e+000 213903 -5.8334e+005 -2.0712e+006 -4.9168e+005 141530 213776,213828,213802
 2.0000e+000 213880 -5.2840e+005 -2.3912e+006 -2.2518e+004 141530 213776,213854,213828
 2.0000e+000 214055 -1.7032e+005 -8.5980e+005  5.6484e+004 141218 213928,213980,213954
 2.0000e+000 214032 -1.1547e+005 -1.0493e+006  9.7331e+004 141218 213928,214006,213980
 2.0000e+000 214207 -8.9638e+005 -1.1824e+006  6.4779e+004 140928 214080,214132,214106
 2.0000e+000 214184 -5.7383e+005 -1.1330e+006  3.3852e+005 140928 214080,214158,214132
 2.0000e+000 214359 -4.2769e+005 -1.5391e+006  1.7928e+005 140538 214232,214284,214258
 2.0000e+000 214336 -3.3225e+005 -1.8993e+006  4.1928e+005 140538 214232,214310,214284
 2.0000e+000 214560 -2.7433e+005 -1.6444e+006  7.7860e+004 140248 214384,214462,214410
 2.0000e+000 214537 -5.0469e+005 -1.5085e+006 -2.2246e+005 140248 214384,214488,214462
 2.0000e+000 214514 -3.2967e+005 -1.2558e+006 -4.7293e+004 140248 214410,214462,214436
 2.0000e+000 214712 -2.9884e+005 -1.3485e+006  2.5827e+005 140000 214611,214663,214637
 2.0000e+000 214689 -4.1979e+005 -1.5745e+006  1.6675e+005 140000 214585,214663,214611
 2.0000e+000 214913 -4.4625e+005 -1.8608e+006 -4.0444e+005 139596 214737,214815,214763
 2.0000e+000 214890 -3.9087e+005 -1.3309e+006 -1.9136e+005 139596 214737,214841,214815
 2.0000e+000 214867 -1.5034e+005 -2.3732e+006 -3.2148e+005 139596 214763,214815,214789
 2.0000e+000 215016  3.7873e+001 -3.4471e+004  8.1725e+001 139420 214938,214990,214964
 2.0000e+000 215168 -1.0235e+006 -2.3157e+006  2.0251e+005 139130 215067,215119,215093
 2.0000e+000 215145 -9.0143e+005 -2.2830e+006  2.4552e+005 139130 215041,215119,215067
 2.0000e+000 215320 -2.5272e+005 -2.2750e+006  5.8432e+005 138790 215219,215271,215245
 2.0000e+000 215297 -3.0079e+005 -1.6775e+006  5.3645e+005 138790 215193,215271,215219
 2.0000e+000 215472 -2.6715e+005 -1.9889e+006  3.0322e+005 138514 215345,215397,215371
 2.0000e+000 215449 -6.1118e+005 -1.7917e+006  1.4593e+005 138514 215345,215423,215397
 2.0000e+000 215624 -3.7373e+005 -2.2628e+006 -4.4473e+004 138174 215497,215549,215523
 2.0000e+000 215601 -3.7647e+005 -2.1062e+006 -6.1356e+004 138174 215497,215575,215549
 2.0000e+000 215776 -9.5844e+005 -1.7243e+006  1.5041e+005 137734 215649,215701,215675
 2.0000e+000 215753 -8.6577e+005 -1.5298e+006 -1.8031e+005 137734 215649,215727,215701
 2.0000e+000 215977 -8.9848e+005 -2.4960e+006  3.2569e+005 137344 215801,215879,215827
 2.0000e+000 215954 -3.6037e+005 -2.4345e+006  2.9742e+005 137344 215801,215905,215879
 2.0000e+000 215931 -7.4912e+004 -3.4304e+006 -2.9929e+005 137344 215827,215879,215853
 2.0000e+000 216129 -6.5379e+005 -1.9287e+006 -4.1882e+005 136940 216028,216080,216054
 2.0000e+000 216106 -4.3759e+005 -2.0490e+006 -5.2993e+004 136940 216002,216080,216028
 2.0000e+000 216330 -8.4561e+005 -2.2416e+006  4.8842e+005 136600 216180,216232,216206
 2.0000e+000 216307 -5.2037e+005 -2.0636e+006  1.2986e+005 136600 216154,216232,216180
 2.0000e+000 216284 -1.0927e+006 -1.8191e+006  1.0085e+005 136600 216154,216258,216232
 2.0000e+000 216482 -6.9077e+005 -1.8370e+006 -2.3697e+005 136260 216381,216433,216407
 2.0000e+000 216459 -7.3304e+005 -2.0566e+006 -2.9897e+005 136260 216355,216433,216381
 2.0000e+000 216634 -3.0576e+005 -1.4893e+006  4.0847e+005 135970 216533,216585,216559
 2.0000e+000 216611 -2.9760e+005 -1.5705e+006  4.1022e+005 135970 216507,216585,216533
 2.0000e+000 216835 -4.3184e+005 -2.3654e+006  2.4890e+005 135608 216685,216763,216711
 2.0000e+000 216812 -1.1811e+005 -2.8568e+006 -5.3872e+005 135608 216659,216763,216685
 2.0000e+000 216789 -5.0405e+005 -2.3778e+006  1.6518e+005 135608 216711,216763,216737
 2.0000e+000 217036 -2.5784e+005 -1.1603e+006  1.1532e+005 135312 216912,216964,216938
 2.0000e+000 217013 -1.2658e+005 -1.4481e+006  4.0742e+005 135312 216886,216964,216912
 2.0000e+000 216990 -1.4433e+005 -2.1938e+006  1.2243e+005 135312 216860,216964,216886
 2.0000e+000 217237 -2.0933e+005 -1.6647e+006 -2.4533e+005 134908 217061,217139,217113
 2.0000e+000 217214 -5.7806e+005 -1.8179e+006  1.1782e+004 134908 217061,217165,217139
 2.0000e+000 217191 -6.4719e+005 -1.4078e+006 -2.6143e+005 134908 217061,217113,217087
 2.0000e+000 217438 -6.4427e+005 -2.7268e+006 -1.3556e+003 134568 217288,217366,217314
 2.0000e+000 217415 -2.5602e+005 -2.6506e+006  1.8117e+005 134568 217262,217366,217288
 2.0000e+000 217392 -7.1043e+005 -2.2942e+006  1.2105e+005 134568 217314,217366,217340
 2.0000e+000 217590 -6.5495e+005 -1.7801e+006 -5.0686e+003 134106 217463,217515,217489
 2.0000e+000 217567 -7.0288e+005 -1.7117e+006 -1.2203e+005 134106 217463,217541,217515
 2.0000e+000 217791 -1.4084e+006 -4.7692e+006 -2.2857e+006 133816 217641,217693,217667
 2.0000e+000 217768 -4.7324e+005 -5.6632e+006  8.1348e+005 133816 217641,217719,217693
 2.0000e+000 217745 -1.2946e+006 -2.6180e+006  7.0183e+005 133816 217615,217719,217641
 2.0000e+000 217992 -7.7026e+005 -2.0129e+006 -9.9828e+004 133355 217842,217920,217894
 2.0000e+000 217969 -5.1146e+005 -2.6168e+006 -4.1667e+005 133355 217816,217920,217842
 2.0000e+000 217946 -8.7833e+005 -2.2336e+006  2.4195e+005 133355 217842,217894,217868
 2.0000e+000 218193 -9.4037e+005 -2.4966e+006  4.4227e+005 132851 218017,218095,218069
 2.0000e+000 218170 -1.1332e+006 -2.2581e+006 -2.6070e+005 132851 218017,218121,218095
 2.0000e+000 218147 -9.7141e+004 -3.0826e+006  1.7373e+005 132851 218017,218069,218043
 2.0000e+000 218345 -5.2522e+005 -1.8799e+006  1.6394e+005 132511 218244,218296,218270
 2.0000e+000 218322 -6.8159e+005 -1.7723e+006 -1.1827e+004 132511 218218,218296,218244
 2.0000e+000 218497 -8.8132e+005 -3.0605e+006  5.9741e+004 132235 218396,218448,218422
 2.0000e+000 218474 -4.9302e+005 -2.5203e+006  3.2864e+005 132235 218370,218448,218396
 2.0000e+000 218698 -3.1853e+005 -1.5367e+006  3.8181e+005 131945 218574,218626,218600
 2.0000e+000 218675 -5.2263e+005 -2.1123e+006  1.7966e+005 131945 218522,218626,218574
 2.0000e+000 218652 -1.9060e+005 -2.2778e+006  1.1929e+005 131945 218522,218574,218548
 2.0000e+000 218850 -4.1444e+005 -2.6738e+006 -3.4326e+005 131655 218723,218775,218749
 2.0000e+000 218827 -6.9818e+005 -2.6173e+006 -1.8825e+004 131655 218723,218801,218775
 2.0000e+000 218953 -4.1188e+005 -1.7767e+006 -1.9375e+005 131215 218875,218927,218901
 2.0000e+000 219105 -5.7880e+005 -2.5294e+006 -2.3720e+005 130875 218978,219030,219004
 2.0000e+000 219082 -5.0194e+005 -2.0823e+006 -2.4606e+005 130875 218978,219056,219030
 2.0000e+000 219306 -6.4265e+005 -2.3088e+006  8.0272e+004 130429 219156,219234,219208
 2.0000e+000 219283 -6.5350e+005 -2.2364e+006  9.4979e+004 130429 219130,219234,219156
 2.0000e+000 219260 -8.9465e+005 -2.3927e+006  3.1850e+005 130429 219156,219208,219182
 2.0000e+000 219507 -5.1564e+005 -1.5601e+006  1.3547e+005 130025 219383,219435,219409
 2.0000e+000 219484 -5.3770e+005 -1.7944e+006  1.6786e+005 130025 219331,219435,219383
 2.0000e+000 219461 -3.9882e+005 -1.8650e+006  1.7451e+005 130025 219331,219383,219357
 2.0000e+000 219659 -8.6190e+005 -3.1586e+006 -6.3398e+005 129685 219558,219610,219584
 2.0000e+000 219636 -6.9556e+005 -3.1426e+006 -6.4370e+005 129685 219532,219610,219558
 2.0000e+000 219860 -7.3637e+005 -2.3945e+006  4.3972e+004 129395 219710,219788,219762
 2.0000e+000 219837 -6.3505e+005 -2.4584e+006  9.9045e+004 129395 219684,219788,219710
 2.0000e+000 219814 -5.4611e+005 -2.5335e+006 -5.9690e+004 129395 219710,219762,219736
 2.0000e+000 220061 -6.8001e+004 -1.6895e+006 -5.9000e+003 128991 219937,219989,219963
 2.0000e+000 220038 -3.1255e+005 -1.7426e+006 -1.1354e+005 128991 219885,219989,219937
 2.0000e+000 220015 -2.8800e+005 -1.5973e+006 -1.5081e+005 128991 219885,219937,219911
 2.0000e+000 220262 -2.1717e+005 -1.6825e+006 -2.0930e+005 128701 220086,220164,220112
 2.0000e+000 220239 -3.8381e+005 -1.7499e+006 -1.4885e+005 128701 220086,220190,220164
 2.0000e+000 220216 -2.8087e+005 -1.5035e+006  1.3053e+005 128701 220112,220164,220138
 2.0000e+000 220463 -2.9446e+005 -2.1354e+006  3.0902e+005 128297 220339,220391,220365
 2.0000e+000 220440 -2.7987e+005 -2.4152e+006  2.0367e+005 128297 220313,220391,220339
 2.0000e+000 220417 -1.8739e+005 -2.5050e+006 -1.2439e+004 128297 220287,220391,220313
 2.0000e+000 220615 -1.9952e+005 -3.4200e+006 -2.4522e+005 128007 220488,220540,220514
 2.0000e+000 220592 -7.1430e+005 -2.7643e+006 -2.3176e+005 128007 220488,220566,220540
 2.0000e+000 220767 -1.4331e+005 -1.5419e+006 -2.4942e+005 127567 220640,220692,220666
 2.0000e+000 220744 -2.2114e+005 -1.3626e+006 -2.1295e+005 127567 220640,220718,220692
 2.0000e+000 220919 -1.1056e+005 -2.1938e+006  1.2971e+005 127163 220792,220844,220818
 2.0000e+000 220896  3.4055e+004 -2.5128e+006  4.2745e+005 127163 220792,220870,220844
 2.0000e+000 221071 -4.8880e+005 -1.8854e+006  9.4560e+004 126915 220970,221022,220996
 2.0000e+000 221048 -4.5678e+005 -1.7727e+006  1.4655e+005 126915 220944,221022,220970
 2.0000e+000 221272 -1.1290e+006 -3.1118e+006 -1.7020e+005 126461 221122,221174,221148
 2.0000e+000 221249 -6.9751e+005 -3.0414e+006 -2.7024e+005 126461 221122,221200,221174
 2.0000e+000 221226 -5.5242e+005 -2.8544e+006 -1.5443e+005 126461 221096,221200,221122
 2.0000e+000 221375 -2.3853e+004 -3.4259e+005 -1.5377e+003 126213 221297,221349,221323
 2.0000e+000 221478 -1.1558e+001 -2.4832e+005 -1.8421e+001 125766 221400,221452,221426
 2.0000e+000 221679 -3.4189e+005 -1.5224e+006 -4.1452e+005 125212 221503,221555,221529
 2.0000e+000 221656 -4.1567e+005 -1.8830e+006 -4.2498e+005 125212 221503,221581,221555
 2.0000e+000 221633 -5.4002e+005 -1.9733e+006 -3.6269e+005 125212 221503,221607,221581
 2.0000e+000 221929 -3.2688e+005 -1.3912e+006 -1.2376e+004 124872 221782,221834,221808
 2.0000e+000 221906 -5.1210e+005 -1.3574e+006  2.3469e+005 124872 221756,221834,221782
 2.0000e+000 221883 -5.1436e+005 -1.6375e+006  2.7591e+005 124872 221704,221834,221756
 2.0000e+000 221860 -5.1074e+005 -1.5801e+006  2.9313e+005 124872 221704,221756,221730
 2.0000e+000 222130 -8.0599e+005 -2.3050e+006  1.2743e+005 124582 221980,222058,222006
 2.0000e+000 222107 -1.0414e+006 -2.6521e+006 -1.9862e+005 124582 221954,222058,221980
 2.0000e+000 222084 -9.4914e+005 -2.8346e+006 -5.8871e+004 124582 222006,222058,222032
 2.0000e+000 222282 -5.6920e+005 -3.4065e+006 -5.3068e+005 124192 222181,222233,222207
 2.0000e+000 222259 -5.7816e+005 -3.2937e+006 -3.8785e+005 124192 222155,222233,222181
 2.0000e+000 222483 -2.3171e+005 -1.9173e+006 -4.1474e+004 123702 222333,222385,222359
 2.0000e+000 222460 -1.6386e+005 -1.7797e+006  1.5849e+005 123702 222333,222411,222385
 2.0000e+000 222437 -1.4723e+005 -1.6291e+006  1.5545e+005 123702 222307,222411,222333
 2.0000e+000 222635 -1.5398e+005 -2.1496e+006 -3.0240e+005 123312 222508,222560,222534
 2.0000e+000 222612  6.8224e+004 -3.1304e+006 -2.8986e+005 123312 222508,222586,222560
 2.0000e+000 222787 -6.3537e+005 -3.2995e+006 -9.1823e+004 122858 222686,222738,222712
 2.0000e+000 222764 -4.2345e+005 -1.8708e+006 -5.5351e+005 122858 222660,222738,222686
 2.0000e+000 222939 -6.6046e+005 -2.7378e+006  4.1123e+005 122568 222812,222864,222838
 2.0000e+000 222916 -2.9445e+005 -1.5074e+006  1.5003e+005 122568 222812,222890,222864
 2.0000e+000 223091 -6.1329e+005 -2.1512e+006  1.0175e+004 122392 222964,223016,222990
 2.0000e+000 223068  5.0010e+004 -2.4993e+006  3.2608e+005 122392 222964,223042,223016
 2.0000e+000 223292 -4.9227e+005 -3.1235e+006 -7.3148e+004 121852 223142,223220,223194
 2.0000e+000 223269 -5.4325e+005 -3.2565e+006 -1.6242e+005 121852 223116,223220,223142
 2.0000e+000 223246 -2.7367e+005 -3.0594e+006 -1.0921e+005 121852 223142,223194,223168
 2.0000e+000 223493 -1.1039e+006 -2.7928e+006  2.4930e+005 121406 223343,223395,223369
 2.0000e+000 223470 -6.5087e+005 -2.7569e+006  2.3512e+005 121406 223343,223421,223395
 2.0000e+000 223447 -9.4499e+005 -2.7020e+006  4.5349e+005 121406 223317,223421,223343
 2.0000e+000 223645 -2.1345e+005 -2.8551e+006  7.7441e+004 121002 223544,223596,223570
 2.0000e+000 223622 -3.5686e+005 -2.2908e+006  1.2744e+005 121002 223518,223596,223544
 2.0000e+000 223846 -5.5208e+005 -2.1728e+006 -1.8669e+005 120662 223670,223748,223696
 2.0000e+000 223823 -4.4995e+005 -1.9810e+006 -4.8527e+005 120662 223670,223774,223748
 2.0000e+000 223800 -3.3597e+005 -2.2805e+006 -2.1336e+005 120662 223696,223748,223722
 2.0000e+000 224047 -6.9635e+005 -2.1331e+006 -2.7832e+005 120222 223897,223949,223923
 2.0000e+000 224024 -4.3058e+005 -1.9452e+006 -9.8897e+004 120222 223871,223949,223897
 2.0000e+000 224001 -7.8349e+004 -2.4451e+006 -2.8415e+004 120222 223871,223975,223949
 2.0000e+000 224248 -3.0890e+005 -1.8121e+006 -2.2626e+005 119875 224124,224176,224150
 2.0000e+000 224225 -4.9921e+005 -2.6553e+006 -2.7467e+005 119875 224098,224176,224124
 2.0000e+000 224202 -4.1181e+005 -2.2974e+006 -2.0508e+005 119875 224072,224176,224098
 2.0000e+000 224449 -5.9164e+005 -1.8775e+006  9.8870e+004 119677 224325,224377,224351
 2.0000e+000 224426 -6.5559e+005 -2.1291e+006  1.3059e+004 119677 224299,224377,224325
 2.0000e+000 224403 -6.3301e+005 -2.0119e+006  2.8747e+004 119677 224273,224377,224299
 2.0000e+000 224552 -7.2339e+005 -2.0087e+006  1.3961e+005 119273 224474,224526,224500
 2.0000e+000 224704 -1.2815e+006 -3.5916e+006 -3.9219e+005 118983 224603,224655,224629
 2.0000e+000 224681 -1.1519e+006 -3.5142e+006 -3.3551e+005 118983 224577,224655,224603
 2.0000e+000 224856 -2.2193e+005 -3.3182e+006 -1.6230e+005 118529 224755,224807,224781
 2.0000e+000 224833 -1.2349e+005 -3.6193e+006 -2.2587e+005 118529 224729,224807,224755
 2.0000e+000 225008 -1.6132e+005 -2.1334e+006  4.6003e+004 118353 224881,224933,224907
 2.0000e+000 224985 -2.0688e+005 -1.8237e+006  9.0721e+004 118353 224881,224959,224933
 2.0000e+000 225209 -7.0886e+005 -2.4683e+006  1.7229e+005 117949 225059,225137,225111
 2.0000e+000 225186 -9.0742e+005 -2.4464e+006  3.6265e+005 117949 225033,225137,225059
 2.0000e+000 225163 -8.1692e+005 -2.6076e+006  2.5172e+005 117949 225059,225111,225085
 2.0000e+000 225410 -6.6566e+005 -2.5368e+006 -1.1614e+005 117559 225260,225338,225312
 2.0000e+000 225387 -6.6084e+005 -2.5822e+006 -2.6157e+005 117559 225234,225338,225260
 2.0000e+000 225364 -4.5778e+005 -2.3574e+006 -2.8548e+005 117559 225260,225312,225286
 2.0000e+000 225611 -9.4880e+005 -3.8868e+006 -1.8131e+006 117361 225461,225513,225487
 2.0000e+000 225588  2.1841e+005 -3.8849e+006 -1.4459e+005 117361 225461,225539,225513
 2.0000e+000 225565 -1.3502e+006 -1.6965e+006  1.2339e+006 117361 225435,225539,225461
 2.0000e+000 225812 -4.4692e+005 -2.0389e+006  2.2409e+005 116900 225636,225714,225662
 2.0000e+000 225789 -9.6274e+004 -2.1548e+006  9.2100e+004 116900 225636,225740,225714
 2.0000e+000 225766 -5.6196e+005 -1.9851e+006 -9.6430e+004 116900 225662,225714,225688
 2.0000e+000 225964 -4.2155e+005 -2.5241e+006  2.7381e+005 116560 225837,225889,225863
 2.0000e+000 225941 -2.1852e+005 -2.4532e+006  1.7544e+005 116560 225837,225915,225889
 2.0000e+000 226165 -4.4624e+005 -1.8547e+006 -2.2625e+005 116106 226015,226093,226041
 2.0000e+000 226142 -9.8300e+004 -2.2504e+006 -5.5096e+005 116106 225989,226093,226015
 2.0000e+000 226119 -6.8052e+005 -1.8204e+006 -3.3490e+005 116106 226041,226093,226067
 2.0000e+000 226268 -7.4446e+005 -2.0497e+006  2.3458e+005 115716 226190,226242,226216
 2.0000e+000 226420 -6.2454e+005 -2.3098e+006  5.3514e+005 115376 226293,226345,226319
 2.0000e+000 226397 -6.0120e+005 -2.3065e+006  5.3747e+005 115376 226293,226371,226345
 2.0000e+000 226621 -1.2956e+005 -2.4443e+006 -1.6990e+005 114972 226497,226549,226523
 2.0000e+000 226598 -5.5936e+005 -2.9637e+006 -4.5617e+005 114972 226445,226549,226497
 2.0000e+000 226575 -5.2255e+005 -2.3840e+006 -1.6545e+005 114972 226445,226497,226471
 2.0000e+000 226773 -6.4118e+005 -2.6428e+006 -1.4591e+005 114670 226646,226698,226672
 2.0000e+000 226750 -1.7008e+005 -2.6717e+006 -2.2904e+005 114670 226646,226724,226698
 2.0000e+000 226974  1.0774e+004 -1.6312e+006  1.0540e+005 114082 226798,226850,226824
 2.0000e+000 226951 -1.4984e+005 -1.3034e+006  1.8944e+004 114082 226798,226902,226850
 2.0000e+000 226928 -2.5072e+005 -1.4730e+006  1.4879e+005 114082 226850,226902,226876
 2.0000e+000 227175 -5.4881e+005 -2.2241e+006  2.2149e+005 113678 226999,227051,227025
 2.0000e+000 227152 -5.8013e+005 -2.3976e+006  2.3374e+005 113678 226999,227077,227051
 2.0000e+000 227129 -4.5467e+005 -2.7533e+006  1.0052e+005 113678 226999,227103,227077
 2.0000e+000 227425 -1.7496e+005 -2.0216e+006 -1.6124e+005 113274 227226,227278,227252
 2.0000e+000 227402 -6.3520e+005 -2.1496e+006  9.1928e+004 113274 227226,227330,227278
 2.0000e+000 227379 -6.5814e+004 -2.9426e+006  5.3228e+004 113274 227200,227330,227226
 2.0000e+000 227356 -6.5279e+005 -2.7352e+006  1.5006e+005 113274 227278,227330,227304
 2.0000e+000 227626 -4.8961e+004 -1.9857e+006 -3.7384e+005 112934 227502,227554,227528
 2.0000e+000 227603 -1.4405e+005 -1.4922e+006 -1.6272e+005 112934 227450,227554,227502
 2.0000e+000 227580 -6.1999e+005 -1.9922e+006 -5.6682e+005 112934 227450,227502,227476
 2.0000e+000 227876 -3.6219e+005 -1.6421e+006  1.0821e+005 112437 227677,227755,227703
 2.0000e+000 227853 -4.9304e+005 -1.7013e+006  2.8733e+005 112437 227677,227781,227755
 2.0000e+000 227830 -3.3727e+005 -1.5096e+006  1.9089e+005 112437 227703,227755,227729
 2.0000e+000 227807 -4.1475e+005 -1.8028e+006  2.6342e+005 112437 227651,227781,227677
 2.0000e+000 228126 -3.3780e+005 -2.4579e+006  6.8184e+004 112041 227927,228005,227953
 2.0000e+000 228103 -2.4559e+005 -2.8407e+006 -1.5247e+005 112041 227927,228031,228005
 2.0000e+000 228080 -3.9058e+005 -2.7681e+006  2.2750e+004 112041 227953,228005,227979
 2.0000e+000 228057 -1.5568e+005 -2.2213e+006 -7.2832e+004 112041 227901,228031,227927
 2.0000e+000 228327 -7.4896e+005 -2.8237e+006 -4.1076e+005 111693 228151,228203,228177
 2.0000e+000 228304 -7.0325e+005 -2.0292e+006 -4.9688e+005 111693 228151,228229,228203
 2.0000e+000 228281 -2.3621e+005 -2.4464e+006 -1.9311e+005 111693 228151,228255,228229
 2.0000e+000 228479 -7.8304e+005 -2.2749e+006 -6.0780e+005 111253 228352,228404,228378
 2.0000e+000 228456 -8.0862e+005 -2.1942e+006 -5.2003e+005 111253 228352,228430,228404
 2.0000e+000 228582 -3.1294e+001 -1.7357e+004  6.8888e+002 110906 228504,228556,228530
 2.0000e+000 228783 -5.6402e+005 -2.2972e+006  1.4970e+005 110416 228633,228711,228659
 2.0000e+000 228760 -4.9670e+005 -1.8660e+006  1.1649e+005 110416 228607,228711,228633
 2.0000e+000 228737 -4.6645e+005 -2.1841e+006  6.5648e+004 110416 228659,228711,228685
 2.0000e+000 228935 -6.7921e+004 -2.1850e+006 -3.4893e+005 110012 228808,228860,228834
 2.0000e+000 228912 -7.0664e+004 -2.2693e+006 -3.5610e+005 110012 228808,228886,228860
 2.0000e+000 229087 -7.6507e+005 -2.9851e+006 -5.3643e+004 109672 228960,229012,228986
 2.0000e+000 229064 -9.4207e+005 -2.5215e+006 -1.8991e+005 109672 228960,229038,229012
 2.0000e+000 229190 -3.3404e+005 -1.7183e+006  3.1295e+005 109332 229112,229164,229138
 2.0000e+000 229391 -1.4738e+005 -1.0688e+006  1.1639e+005 109156 229267,229319,229293
 2.0000e+000 229368 -2.3738e+005 -1.4964e+006  6.9821e+004 109156 229215,229319,229267
 2.0000e+000 229345 -2.6092e+005 -1.4019e+006  3.0655e+005 109156 229215,229267,229241
 2.0000e+000 229543 -4.5313e+005 -2.8224e+006  2.6093e+005 108752 229416,229468,229442
 2.0000e+000 229520 -4.2814e+005 -2.9624e+006  3.0992e+005 108752 229416,229494,229468
 2.0000e+000 229744 -8.6196e+005 -2.8799e+006 -1.4816e+005 108198 229594,229646,229620
 2.0000e+000 229721 -8.6003e+005 -2.8901e+006 -2.1034e+004 108198 229594,229672,229646
 2.0000e+000 229698 -9.0372e+005 -3.3753e+006 -3.0782e+005 108198 229568,229672,229594
 2.0000e+000 229847 -4.9065e+005 -1.2677e+006 -2.6511e+005 107758 229769,229821,229795
 2.0000e+000 230048 -8.0607e+005 -2.4026e+006 -3.9332e+005 107468 229898,229950,229924
 2.0000e+000 230025 -4.4140e+005 -2.1432e+006 -2.4432e+004 107468 229872,229950,229898
 2.0000e+000 230002 -4.6479e+005 -2.1797e+006  6.7239e+003 107468 229872,229976,229950
 2.0000e+000 230298 -5.5327e+005 -1.9815e+006  1.2515e+005 107121 230099,230203,230177
 2.0000e+000 230275 -8.2815e+005 -1.8908e+006 -2.8002e+004 107121 230073,230203,230099
 2.0000e+000 230252 -6.4989e+005 -2.0190e+006  7.5822e+004 107121 230099,230177,230151
 2.0000e+000 230229 -6.5042e+005 -1.8796e+006 -3.7666e+004 107121 230099,230151,230125
 2.0000e+000 230450  1.4561e+005 -2.2048e+006 -1.4586e+005 106823 230349,230401,230375
 2.0000e+000 230427 -1.0756e+005 -1.0279e+006  1.0286e+005 106823 230323,230401,230349
 2.0000e+000 230602 -8.2738e+005 -2.0049e+006 -1.7587e+005 106533 230501,230553,230527
 2.0000e+000 230579 -8.9516e+005 -2.0850e+006 -2.6061e+005 106533 230475,230553,230501
 2.0000e+000 230803 -6.6597e+005 -1.7651e+006  1.1230e+005 106029 230679,230731,230705
 2.0000e+000 230780 -8.2561e+005 -2.3440e+006 -6.7459e+002 106029 230653,230731,230679
 2.0000e+000 230757 -6.0002e+005 -2.4262e+006  7.3737e+004 106029 230627,230731,230653
 2.0000e+000 231004 -3.6254e+005 -1.9601e+006 -2.3877e+005 105689 230854,230906,230880
 2.0000e+000 230981 -2.2138e+005 -1.8647e+006 -1.5605e+005 105689 230828,230906,230854
 2.0000e+000 230958 -5.9193e+005 -1.9337e+006 -1.0822e+005 105689 230828,230932,230906
 2.0000e+000 231156 -4.7412e+005 -1.3812e+006  2.5439e+005 105377 231055,231107,231081
 2.0000e+000 231133  1.3198e+005 -3.9654e+006 -4.6258e+005 105377 231029,231107,231055
 2.0000e+000 231406 -1.3016e+005 -2.2803e+006  6.6638e+004 104858 231207,231259,231233
 2.0000e+000 231383 -7.0282e+005 -2.2244e+006 -1.6936e+005 104858 231207,231311,231259
 2.0000e+000 231360 -4.3068e+005 -3.1490e+006 -4.3031e+005 104858 231259,231311,231285
 2.0000e+000 231337 -5.0820e+005 -2.7246e+006 -2.7744e+005 104858 231181,231311,231207
 2.0000e+000 231558 -4.4634e+005 -1.1009e+006  2.4419e+005 104418 231457,231509,231483
 2.0000e+000 231535 -3.8974e+005 -1.0839e+006  4.3787e+005 104418 231431,231509,231457
 2.0000e+000 231710 -7.6434e+005 -1.6641e+006 -5.4845e+004 103978 231583,231635,231609
 2.0000e+000 231687 -6.1680e+005 -1.4820e+006 -1.5618e+005 103978 231583,231661,231635
 2.0000e+000 231862 -1.9997e+005 -6.9578e+005  6.5321e+004 103588 231761,231813,231787
 2.0000e+000 231839 -3.0211e+005 -9.6903e+005 -2.2135e+004 103588 231735,231813,231761
 2.0000e+000 232014 -3.6768e+005 -2.1250e+006 -4.1632e+005 103248 231887,231939,231913
 2.0000e+000 231991 -9.7606e+004 -2.5728e+006 -5.4386e+005 103248 231887,231965,231939
 2.0000e+000 232215 -5.3419e+005 -1.9619e+006 -3.7158e+003 102844 232039,232117,232065
 2.0000e+000 232192 -3.8149e+005 -2.1579e+006 -3.7693e+005 102844 232039,232143,232117
 2.0000e+000 232169 -4.6459e+005 -1.9415e+006 -1.9747e+004 102844 232065,232117,232091
 2.0000e+000 232416 -7.8642e+005 -2.6457e+006  2.0148e+005 102554 232240,232318,232292
 2.0000e+000 232393 -2.3267e+005 -2.9562e+006  3.8104e+005 102554 232240,232344,232318
 2.0000e+000 232370 -6.9410e+005 -2.7947e+006  4.1471e+004 102554 232240,232292,232266
 2.0000e+000 232568 -7.4116e+005 -2.0579e+006  3.2230e+005 102100 232441,232493,232467
 2.0000e+000 232545 -3.7684e+005 -1.9616e+006  2.8450e+005 102100 232441,232519,232493
 2.0000e+000 232769 -4.7949e+005 -9.3103e+005  2.1344e+005 101596 232645,232697,232671
 2.0000e+000 232746 -6.0518e+005 -1.3643e+006 -3.6197e+004 101596 232593,232697,232645
 2.0000e+000 232723 -3.5915e+005 -1.5729e+006 -1.8403e+005 101596 232593,232645,232619
 2.0000e+000 232921 -6.0732e+004 -1.1691e+006 -2.0198e+004 101420 232794,232846,232820
 2.0000e+000 232898 -4.8868e+004 -9.5004e+005  4.5798e+003 101420 232794,232872,232846
 2.0000e+000 233073 -4.7382e+005 -1.9443e+006 -1.0518e+004 101023 232946,232998,232972
 2.0000e+000 233050 -2.4584e+005 -2.1455e+006  1.3644e+005 101023 232946,233024,232998
 2.0000e+000 233225 -3.8923e+005 -2.8532e+006 -1.2057e+005 100661 233098,233150,233124
 2.0000e+000 233202 -4.2998e+005 -2.6057e+006 -1.4063e+005 100661 233098,233176,233150
 2.0000e+000 233426 -7.3654e+005 -2.3223e+006 -4.0157e+005 100265 233276,233328,233302
 2.0000e+000 233403 -6.5325e+005 -2.1762e+006 -7.7647e+004 100265 233276,233354,233328
 2.0000e+000 233380 -6.2823e+005 -2.5380e+006 -1.3921e+005 100265 233250,233354,233276
 2.0000e+000 233578 -6.8572e+005 -1.2116e+006 -5.9793e+005 100032 233451,233503,233477
 2.0000e+000 233555 -5.2708e+005 -1.2053e+006 -2.6791e+005 100032 233451,233529,233503
 2.0000e+000 233681 -4.5522e+005 -1.1648e+006 -2.1521e+004 99742 233603,233655,233629
 2.0000e+000 233784 -7.2195e+005 -1.7194e+006 -3.8889e+004 99402 233706,233758,233732
 2.0000e+000 233936 -4.3923e+005 -1.4839e+006  2.0173e+005 99062 233835,233887,233861
 2.0000e+000 233913 -4.1505e+005 -1.3440e+006  2.6186e+004 99062 233809,233887,233835
 2.0000e+000 234088 -5.4103e+005 -1.4880e+006  1.2297e+005 98772 233987,234039,234013
 2.0000e+000 234065 -3.9299e+005 -1.4515e+006  3.5548e+005 98772 233961,234039,233987
 2.0000e+000 234240 -3.6352e+005 -1.0489e+006  3.1007e+005 98160 234139,234191,234165
 2.0000e+000 234217 -3.9197e+005 -1.1906e+006  3.2749e+005 98160 234113,234191,234139
 2.0000e+000 234441 -3.2083e+005 -1.4539e+006  1.3398e+005 97820 234317,234369,234343
 2.0000e+000 234418 -4.2075e+005 -1.8372e+006  6.3318e+004 97820 234291,234369,234317
 2.0000e+000 234395 -4.9656e+005 -1.8196e+006  3.4978e+004 97820 234265,234369,234291
 2.0000e+000 234593 -4.2225e+005 -1.8121e+006 -1.4897e+005 97366 234466,234518,234492
 2.0000e+000 234570 -3.6112e+005 -2.1964e+006 -1.4679e+005 97366 234466,234544,234518
 2.0000e+000 234794 -6.7882e+005 -1.8362e+006 -5.0006e+004 96976 234618,234670,234644
 2.0000e+000 234771 -5.8475e+005 -2.2629e+006  3.2580e+004 96976 234618,234722,234670
 2.0000e+000 234748 -5.8285e+005 -1.8536e+006 -8.4935e+004 96976 234670,234722,234696
 2.0000e+000 234946 -4.8105e+005 -1.4108e+006  2.4720e+005 96568 234845,234897,234871
 2.0000e+000 234923 -5.4695e+005 -1.6063e+006  1.7789e+005 96568 234819,234897,234845
 2.0000e+000 235196 -5.1329e+005 -1.6100e+006 -2.2598e+005 96216 234997,235075,235049
 2.0000e+000 235173 -1.4576e+005 -1.9009e+006 -1.9274e+005 96216 234997,235101,235075
 2.0000e+000 235150 -5.4755e+005 -1.7732e+006 -2.2893e+005 96216 234997,235049,235023
 2.0000e+000 235127 -1.4409e+005 -1.7050e+006  2.9563e+005 96216 234971,235101,234997
 2.0000e+000 235348 -2.3921e+005 -1.0776e+006 -1.6364e+005 95863 235247,235299,235273
 2.0000e+000 235325 -2.2216e+005 -1.0668e+006 -1.3956e+005 95863 235221,235299,235247
 2.0000e+000 235500 -8.3105e+005 -1.8576e+006 -2.1889e+005 95339 235373,235425,235399
 2.0000e+000 235477 -8.0899e+005 -2.0014e+006 -1.3976e+004 95339 235373,235451,235425
 2.0000e+000 235701 -2.8677e+005 -1.8568e+006  2.4550e+005 95023 235525,235577,235551
 2.0000e+000 235678 -4.3202e+005 -1.4998e+006 -2.8435e+004 95023 235525,235629,235577
 2.0000e+000 235655 -4.7133e+005 -2.0409e+006  9.3257e+004 95023 235577,235629,235603
 2.0000e+000 235853 -2.8862e+005 -2.4720e+006  4.7788e+005 94671 235726,235778,235752
 2.0000e+000 235830 -4.9142e+005 -1.8792e+006  3.2973e+004 94671 235726,235804,235778
 2.0000e+000 236005 -1.0440e+006 -1.9137e+006 -1.6941e+005 94261 235904,235956,235930
 2.0000e+000 235982 -1.0793e+006 -2.0769e+006 -3.1914e+005 94261 235878,235956,235904
 2.0000e+000 236206 -9.1159e+005 -1.3202e+006  2.6822e+005 93853 236056,236134,236082
 2.0000e+000 236183 -6.1168e+005 -1.2642e+006 -1.3502e+005 93853 236030,236134,236056
 2.0000e+000 236160 -5.4298e+005 -2.0138e+006  2.2591e+005 93853 236082,236134,236108
 2.0000e+000 236407 -1.0596e+006 -1.9347e+006 -3.0474e+004 93557 236257,236309,236283
 2.0000e+000 236384 -8.3580e+005 -1.8738e+006 -5.8696e+002 93557 236231,236309,236257
 2.0000e+000 236361 -5.3817e+005 -2.2608e+006  8.6136e+004 93557 236231,236335,236309
 2.0000e+000 236559 -5.3525e+005 -1.2989e+006 -5.1720e+003 93149 236432,236484,236458
 2.0000e+000 236536 -4.6480e+005 -1.2261e+006  6.8454e+004 93149 236432,236510,236484
 2.0000e+000 236711 -4.2056e+005 -1.6879e+006  2.3584e+005 92853 236584,236636,236610
 2.0000e+000 236688 -2.2666e+005 -1.6464e+006  1.5088e+005 92853 236584,236662,236636
 2.0000e+000 236912 -1.7203e+005 -1.8707e+006  2.3717e+005 92501 236736,236788,236762
 2.0000e+000 236889 -3.5063e+005 -1.8744e+006  2.5527e+005 92501 236736,236840,236788
 2.0000e+000 236866 -2.1894e+005 -1.4484e+006  1.6455e+005 92501 236788,236840,236814
 2.0000e+000 237113 -2.1574e+005 -1.1717e+006  3.1752e+005 92291 236963,237041,237015
 2.0000e+000 237090 -2.3319e+005 -1.1624e+006  2.9149e+005 92291 236937,237041,236963
 2.0000e+000 237067 -5.3175e+004 -1.2303e+006  1.6245e+005 92291 236963,237015,236989
 2.0000e+000 237265 -8.8036e+005 -1.6063e+006 -2.8624e+005 91871 237138,237190,237164
 2.0000e+000 237242 -6.9915e+005 -1.4814e+006 -1.0896e+005 91871 237138,237216,237190
 2.0000e+000 237368  1.4134e+003 -1.3399e+006 -1.0190e+003 91581 237290,237342,237316
 2.0000e+000 237520 -1.4243e+005 -1.3695e+006  8.1760e+004 91184 237419,237471,237445
 2.0000e+000 237497 -3.9088e+005 -1.4191e+006  5.2733e+004 91184 237393,237471,237419
 2.0000e+000 237672 -7.2293e+005 -1.6960e+006 -2.3246e+004 90894 237545,237597,237571
 2.0000e+000 237649 -6.8965e+005 -1.7733e+006  5.4954e+003 90894 237545,237623,237597
 2.0000e+000 237873 -2.9656e+005 -1.6895e+006 -4.8476e+004 90490 237749,237801,237775
 2.0000e+000 237850 -1.9826e+005 -1.8411e+006  5.2005e+004 90490 237723,237801,237749
 2.0000e+000 237827 -5.5047e+005 -1.9304e+006 -1.0983e+005 90490 237697,237801,237723
 2.0000e+000 238074 -5.0862e+005 -2.1504e+006 -7.2953e+004 90100 237898,237976,237950
 2.0000e+000 238051 -5.9815e+005 -2.2555e+006  6.4380e+004 90100 237898,238002,237976
 2.0000e+000 238028 -2.8230e+005 -2.1418e+006 -2.4793e+005 90100 237898,237950,237924
 2.0000e+000 238275 -8.4270e+005 -2.3306e+006  1.1714e+005 89696 238125,238177,238151
 2.0000e+000 238252 -7.4929e+005 -2.1659e+006 -1.5781e+005 89696 238099,238177,238125
 2.0000e+000 238229 -8.1828e+005 -2.3867e+006 -9.9601e+004 89696 238099,238203,238177
 2.0000e+000 238427 -2.1683e+005 -1.6083e+006  5.1543e+004 89206 238326,238378,238352
 2.0000e+000 238404 -4.3660e+005 -1.6436e+006 -9.1935e+004 89206 238300,238378,238326
 2.0000e+000 238579 -1.0459e+006 -2.6022e+006  4.7806e+005 88908 238452,238504,238478
 2.0000e+000 238556 -6.9757e+005 -2.5803e+006  5.9616e+005 88908 238452,238530,238504
 2.0000e+000 238682 -4.1288e+001 -9.6204e+004 -1.0531e+002 88568 238604,238656,238630
 2.0000e+000 238883 -3.6864e+005 -1.6099e+006  1.5224e+005 88278 238733,238811,238785
 2.0000e+000 238860 -1.1961e+005 -1.8290e+006  2.6245e+005 88278 238707,238811,238733
 2.0000e+000 238837 -2.1536e+005 -1.6009e+006  1.0087e+005 88278 238733,238785,238759
 2.0000e+000 239035 -2.3296e+005 -2.6001e+006 -6.8323e+004 87988 238908,238960,238934
 2.0000e+000 239012 -5.6176e+005 -2.1554e+006  4.7147e+005 87988 238908,238986,238960
 2.0000e+000 239138 -8.0516e+005 -1.7638e+006 -1.5486e+005 87648 239060,239112,239086
 2.0000e+000 239339 -8.2006e+005 -2.1729e+006 -3.4626e+005 87358 239163,239215,239189
 2.0000e+000 239316 -9.4767e+005 -2.2553e+006  1.9165e+005 87358 239163,239241,239215
 2.0000e+000 239293 -4.0772e+005 -1.8385e+006 -8.9033e+004 87358 239163,239267,239241
 2.0000e+000 239589 -4.1727e+005 -1.8444e+006  1.5544e+005 86961 239390,239468,239416
 2.0000e+000 239566 -2.9248e+005 -1.9483e+006 -5.4467e+004 86961 239390,239494,239468
 2.0000e+000 239543 -2.7811e+005 -1.8170e+006  2.6843e+005 86961 239416,239468,239442
 2.0000e+000 239520 -6.6717e+005 -1.5534e+006 -5.3876e+004 86961 239364,239494,239390
 2.0000e+000 239741 -4.9783e+005 -1.9746e+006 -3.8615e+005 86621 239640,239692,239666
 2.0000e+000 239718 -4.3884e+005 -1.9453e+006 -3.6421e+005 86621 239614,239692,239640
 2.0000e+000 239893 -3.2156e+005 -1.5004e+006  1.7665e+005 86217 239792,239844,239818
 2.0000e+000 239870 -3.3699e+005 -2.2094e+006  3.7577e+005 86217 239766,239844,239792
 2.0000e+000 240045 -6.3262e+005 -1.6214e+006  1.7795e+005 85827 239918,239970,239944
 2.0000e+000 240022 -3.9125e+005 -1.5628e+006  2.2809e+005 85827 239918,239996,239970
 2.0000e+000 240197 -4.2813e+005 -2.1430e+006  1.1526e+005 85437 240096,240148,240122
 2.0000e+000 240174 -7.0781e+005 -1.6728e+006 -2.0485e+005 85437 240070,240148,240096
 2.0000e+000 240349 -7.2136e+005 -1.7524e+006  6.0901e+004 85147 240222,240274,240248
 2.0000e+000 240326 -7.5565e+005 -1.8362e+006  1.3515e+005 85147 240222,240300,240274
 2.0000e+000 240501 -6.2713e+005 -1.7383e+006 -1.2391e+005 84807 240374,240426,240400
 2.0000e+000 240478 -5.2147e+005 -1.8628e+006  1.0922e+004 84807 240374,240452,240426
 2.0000e+000 240653 -3.9569e+004 -9.0242e+005  2.7482e+005 84303 240552,240604,240578
 2.0000e+000 240630 -1.2838e+005 -8.0480e+005  8.0761e+004 84303 240526,240604,240552
 2.0000e+000 240854 -5.0012e+005 -2.8181e+006 -6.8677e+005 83929 240704,240756,240730
 2.0000e+000 240831 -2.2609e+005 -2.5276e+006  3.0156e+005 83929 240704,240782,240756
 2.0000e+000 240808 -4.8296e+005 -1.5730e+006  4.0060e+005 83929 240678,240782,240704
 2.0000e+000 241055 -3.3969e+005 -1.4479e+006 -1.6610e+005 83539 240879,240957,240931
 2.0000e+000 241032 -5.0343e+005 -1.7414e+006  2.4478e+005 83539 240879,240983,240957
 2.0000e+000 241009 -3.2379e+005 -1.8206e+006 -1.0632e+005 83539 240879,240931,240905
 2.0000e+000 241207 -3.4740e+005 -1.5794e+006  2.0678e+005 83079 241106,241158,241132
 2.0000e+000 241184 -4.5081e+005 -1.2954e+006  2.0692e+005 83079 241080,241158,241106
 2.0000e+000 241408 -7.4162e+004 -1.8233e+006 -1.7860e+005 82665 241232,241284,241258
 2.0000e+000 241385 -5.6338e+005 -3.4727e+006 -7.7032e+005 82665 241232,241336,241284
 2.0000e+000 241362 -8.6384e+005  7.3559e+002  1.3191e+006 82665 241284,241336,241310
 2.0000e+000 241658 -1.6533e+005 -1.2396e+006 -1.0640e+005 82375 241485,241563,241511
 2.0000e+000 241635 -8.2511e+004 -1.3691e+006  1.3662e+005 82375 241433,241563,241485
 2.0000e+000 241612 -9.9637e+004 -1.3821e+006  1.8666e+005 82375 241433,241485,241459
 2.0000e+000 241589 -2.4558e+005 -1.5518e+006  1.2179e+003 82375 241511,241563,241537
 2.0000e+000 241810 -4.6497e+005 -1.6900e+006  4.6428e+003 82035 241683,241735,241709
 2.0000e+000 241787 -5.8368e+005 -1.7648e+006  7.7217e+004 82035 241683,241761,241735
 2.0000e+000 241962 -6.2770e+005 -1.9219e+006 -2.6943e+004 81695 241861,241913,241887
 2.0000e+000 241939 -6.7928e+005 -1.8110e+006  1.7436e+005 81695 241835,241913,241861
 2.0000e+000 242114 -9.2241e+005 -2.0580e+006  9.8271e+004 81355 242013,242065,242039
 2.0000e+000 242091 -8.7254e+005 -1.8585e+006  9.3825e+004 81355 241987,242065,242013
 2.0000e+000 242266 -4.1220e+005 -1.5506e+006 -1.9214e+005 80951 242139,242191,242165
 2.0000e+000 242243 -5.3113e+005 -1.9403e+006 -3.9771e+005 80951 242139,242217,242191
 2.0000e+000 242467 -1.7824e+005 -1.4356e+006  1.5613e+005 80311 242291,242369,242343
 2.0000e+000 242444 -4.3737e+004 -1.5382e+006 -1.3095e+005 80311 242291,242395,242369
 2.0000e+000 242421 -2.1769e+005 -1.5919e+006  1.3670e+005 80311 242291,242343,242317
 2.0000e+000 242619 -7.9676e+005 -1.6397e+006 -1.4848e+005 80021 242492,242544,242518
 2.0000e+000 242596 -8.0210e+005 -1.6883e+006  1.2189e+004 80021 242492,242570,242544
 2.0000e+000 242869 -5.5238e+005 -1.8223e+006 -1.1380e+005 79631 242644,242722,242696
 2.0000e+000 242846 -3.7255e+005 -1.8759e+006 -1.6027e+005 79631 242644,242774,242722
 2.0000e+000 242823 -4.2760e+005 -1.8202e+006  1.7152e+005 79631 242722,242774,242748
 2.0000e+000 242800 -4.6788e+005 -1.6575e+006  4.5095e+004 79631 242644,242696,242670
 2.0000e+000 243070 -7.7410e+005 -3.2204e+006  2.7374e+005 79341 242920,242972,242946
 2.0000e+000 243047 -5.7370e+005 -2.5334e+006 -1.0053e+005 79341 242920,242998,242972
 2.0000e+000 243024 -5.0588e+005 -2.1222e+006  2.6961e+005 79341 242894,242998,242920
 2.0000e+000 243222 -5.5339e+005 -1.5875e+006 -8.6115e+004 78801 243121,243173,243147
 2.0000e+000 243199 -6.7840e+005 -1.7261e+006  4.5829e+005 78801 243095,243173,243121
 2.0000e+000 243423 -3.8042e+005 -2.3400e+006  6.5823e+004 78511 243273,243325,243299
 2.0000e+000 243400 -2.6426e+005 -2.0547e+006 -1.0411e+005 78511 243273,243351,243325
 2.0000e+000 243377 -9.7224e+002 -1.9803e+006  4.6655e+004 78511 243247,243351,243273
 2.0000e+000 243624 -4.7539e+005 -1.6036e+006 -2.1787e+005 78107 243474,243552,243526
 2.0000e+000 243601 -3.6214e+005 -1.6493e+006 -5.6339e+004 78107 243448,243552,243474
 2.0000e+000 243578 -3.4349e+005 -1.6051e+006 -2.3320e+005 78107 243474,243526,243500
 2.0000e+000 243776 -4.2002e+005 -1.8159e+006 -4.1326e+005 77653 243649,243701,243675
 2.0000e+000 243753 -6.2744e+005 -2.1085e+006 -1.8652e+005 77653 243649,243727,243701
 2.0000e+000 243977 -3.6770e+005 -1.7233e+006 -2.5757e+005 77093 243801,243853,243827
 2.0000e+000 243954 -3.6756e+005 -1.8846e+006  1.2689e+004 77093 243801,243879,243853
 2.0000e+000 243931 -3.8921e+005 -1.7196e+006 -3.4032e+004 77093 243801,243905,243879
 2.0000e+000 244080 -9.3998e+005 -1.8278e+006  9.8875e+004 76791 244002,244054,244028
 2.0000e+000 244232 -5.6720e+005 -2.0596e+006  1.8181e+004 76311 244131,244183,244157
 2.0000e+000 244209 -5.2093e+005 -2.1594e+006  6.9608e+004 76311 244105,244183,244131
 2.0000e+000 244433 -5.6091e+005 -2.9356e+006  3.0759e+005 75903 244283,244335,244309
 2.0000e+000 244410 -2.9918e+005 -2.8467e+006  2.3941e+005 75903 244283,244361,244335
 2.0000e+000 244387 -9.4562e+005 -2.6153e+006  4.1912e+005 75903 244257,244361,244283
 2.0000e+000 244585 -4.2544e+005 -2.9932e+006  7.5895e+004 75419 244458,244510,244484
 2.0000e+000 244562 -2.2768e+005 -2.7666e+006 -5.0635e+004 75419 244458,244536,244510
 2.0000e+000 244737 -1.9834e+005 -1.1847e+006 -4.7087e+004 75215 244636,244688,244662
 2.0000e+000 244714 -1.7364e+005 -2.0326e+006 -5.5512e+004 75215 244610,244688,244636
 2.0000e+000 244889 -9.3512e+005 -1.8528e+006  5.3754e+004 74857 244788,244840,244814
 2.0000e+000 244866 -9.5779e+005 -1.9393e+006  4.5454e+004 74857 244762,244840,244788
 2.0000e+000 245041 -1.7116e+005 -8.8928e+005 -2.7810e+005 74653 244940,244992,244966
 2.0000e+000 245018 -1.8580e+005 -5.6301e+005  1.4430e+005 74653 244914,244992,244940
 2.0000e+000 245144 -3.8180e+005 -1.8975e+006 -5.2018e+004 74359 245066,245118,245092
 2.0000e+000 245296 -5.3829e+005 -1.4425e+006 -1.0703e+005 74007 245169,245221,245195
 2.0000e+000 245273 -6.2254e+005 -1.4805e+006 -1.9292e+005 74007 245169,245247,245221
 2.0000e+000 245448 -6.0590e+005 -1.7997e+006  6.0198e+004 73711 245321,245373,245347
 2.0000e+000 245425 -6.0651e+005 -1.7999e+006 -1.8881e+005 73711 245321,245399,245373
 2.0000e+000 245600 -6.1394e+005 -3.0795e+006 -3.8610e+005 73301 245499,245551,245525
 2.0000e+000 245577 -1.0192e+006 -2.4878e+006  9.3439e+004 73301 245473,245551,245499
 2.0000e+000 245752 -2.8756e+005 -1.9634e+006 -2.7645e+005 72995 245625,245677,245651
 2.0000e+000 245729 -3.6644e+005 -1.8787e+006 -2.5013e+005 72995 245625,245703,245677
 2.0000e+000 245953 -8.8920e+005 -2.6248e+006  2.4793e+005 72585 245777,245829,245803
 2.0000e+000 245930 -7.0891e+005 -3.1047e+006  5.3208e+005 72585 245777,245855,245829
 2.0000e+000 245907 -5.9962e+005 -2.7494e+006  3.9555e+005 72585 245777,245881,245855
 2.0000e+000 246154 -7.5536e+005 -1.8929e+006 -5.2416e+004 72127 246030,246082,246056
 2.0000e+000 246131 -7.0449e+005 -2.2633e+006  2.0226e+005 72127 245978,246082,246030
 2.0000e+000 246108 -3.1094e+005 -2.3556e+006 -7.0316e+003 72127 245978,246030,246004
 2.0000e+000 246257 -7.5437e+005 -1.5961e+006 -8.0873e+004 71737 246179,246231,246205
 2.0000e+000 246360 -3.9642e+005 -1.0253e+006  1.0031e+005 71447 246282,246334,246308
 2.0000e+000 246512 -3.6114e+005 -1.9937e+006  3.7989e+005 71157 246385,246437,246411
 2.0000e+000 246489 -2.2724e+005 -2.0657e+006  5.6871e+005 71157 246385,246463,246437
 2.0000e+000 246664 -3.9709e+005 -1.7705e+006 -2.8490e+005 70753 246537,246589,246563
 2.0000e+000 246641 -5.7674e+005 -1.7849e+006 -1.7325e+005 70753 246537,246615,246589
 2.0000e+000 246865 -6.9839e+005 -2.6191e+006  3.6272e+005 70249 246715,246767,246741
 2.0000e+000 246842 -7.3540e+005 -2.5235e+006 -8.7818e+004 70249 246715,246793,246767
 2.0000e+000 246819 -5.7178e+005 -2.6133e+006 -1.4369e+005 70249 246689,246793,246715
 2.0000e+000 247066 -2.4131e+005 -2.1253e+006  1.7293e+005 70023 246916,246994,246942
 2.0000e+000 247043 -1.6787e+005 -2.3786e+006  6.3629e+004 70023 246890,246994,246916
 2.0000e+000 247020 -2.2573e+005 -1.8412e+006 -2.5403e+004 70023 246942,246994,246968
 2.0000e+000 247267 -4.8910e+005 -2.1167e+006  9.5973e+003 69633 247091,247143,247117
 2.0000e+000 247244 -5.6233e+005 -2.1065e+006 -5.7027e+004 69633 247091,247169,247143
 2.0000e+000 247221 -4.1478e+005 -2.1293e+006 -2.4290e+005 69633 247091,247195,247169
 2.0000e+000 247419 -3.9069e+005 -1.9469e+006  4.4021e+004 69457 247318,247370,247344
 2.0000e+000 247396 -4.9526e+005 -2.0805e+006 -2.6983e+004 69457 247292,247370,247318
 2.0000e+000 247522  2.0033e+001 -2.3148e+004 -8.6111e+001 69209 247444,247496,247470
 2.0000e+000 247625 -8.1636e+005 -1.9601e+006 -1.4523e+005 68919 247547,247599,247573
 2.0000e+000 247777 -5.1104e+005 -2.0078e+006 -1.7962e+005 68579 247650,247702,247676
 2.0000e+000 247754 -6.3299e+005 -1.9497e+006 -9.5146e+004 68579 247650,247728,247702
 2.0000e+000 247929 -6.1877e+005 -1.3900e+006  4.9736e+005 68289 247802,247854,247828
 2.0000e+000 247906 -4.7904e+005 -1.2502e+006  3.8155e+005 68289 247802,247880,247854
 2.0000e+000 248081 -4.4719e+005 -1.6896e+006  2.6805e+005 67949 247980,248032,248006
 2.0000e+000 248058 -5.2786e+005 -1.7610e+006  1.7377e+005 67949 247954,248032,247980
 2.0000e+000 248233 -8.4808e+005 -2.2771e+006 -1.9127e+005 67616 248132,248184,248158
 2.0000e+000 248210 -8.1661e+005 -2.2621e+006 -1.7632e+005 67616 248106,248184,248132
 2.0000e+000 248434 -6.8196e+005 -1.8630e+006 -1.4461e+005 67212 248284,248336,248310
 2.0000e+000 248411 -6.3054e+005 -1.9342e+006 -4.3271e+005 67212 248258,248336,248284
 2.0000e+000 248388 -1.0272e+006 -2.0715e+006 -2.8127e+005 67212 248258,248362,248336
 2.0000e+000 248586 -1.1901e+005 -1.9291e+006  2.6508e+005 66872 248485,248537,248511
 2.0000e+000 248563 -2.2873e+005 -1.6238e+006  1.7133e+005 66872 248459,248537,248485
 2.0000e+000 248738 -1.1642e+005 -1.8959e+006  5.0844e+004 66510 248637,248689,248663
 2.0000e+000 248715 -1.5717e+005 -3.0223e+006  7.8040e+004 66510 248611,248689,248637
 2.0000e+000 248890 -1.5513e+005 -1.4139e+006 -1.1586e+004 66220 248789,248841,248815
 2.0000e+000 248867 -3.2769e+005 -1.4796e+006 -6.8424e+004 66220 248763,248841,248789
 2.0000e+000 249091 -3.7268e+005 -1.3070e+006  4.8755e+005 65759 248915,248967,248941
 2.0000e+000 249068 -4.7573e+005 -1.7186e+006  4.9372e+005 65759 248915,248993,248967
 2.0000e+000 249045 -3.2690e+005 -1.5213e+006  3.6124e+005 65759 248915,249019,248993
 2.0000e+000 249243 -1.9628e+005 -2.2316e+006  5.2855e+005 65419 249142,249194,249168
 2.0000e+000 249220 -3.0519e+005 -2.0319e+006  3.0328e+005 65419 249116,249194,249142
 2.0000e+000 249395 -4.1920e+005 -1.8761e+006 -3.0742e+005 65079 249268,249320,249294
 2.0000e+000 249372 -5.2115e+005 -2.0360e+006 -1.9377e+005 65079 249268,249346,249320
 2.0000e+000 249547 -5.1164e+005 -1.3843e+006  2.3624e+005 64739 249420,249472,249446
 2.0000e+000 249524 -6.1496e+005 -1.4281e+006  2.8666e+005 64739 249420,249498,249472
 2.0000e+000 249650 -7.4602e+005 -1.7143e+006 -1.4879e+005 64342 249572,249624,249598
 2.0000e+000 249851 -4.5193e+005 -2.8191e+006 -4.7849e+005 63938 249701,249779,249753
 2.0000e+000 249828 -6.2657e+005 -3.0600e+006  7.0271e+005 63938 249675,249779,249701
 2.0000e+000 249805 -6.2644e+005 -2.8419e+006 -3.6860e+005 63938 249701,249753,249727
 2.0000e+000 250052 -7.0209e+005 -2.0530e+006 -1.2794e+004 63341 249876,249954,249902
 2.0000e+000 250029 -4.2001e+005 -1.9521e+006 -3.1357e+005 63341 249876,249980,249954
 2.0000e+000 250006 -5.8556e+005 -1.8072e+006 -2.0633e+005 63341 249902,249954,249928
 2.0000e+000 250253 -6.5921e+005 -2.6510e+006 -2.2267e+005 63058 250077,250129,250103
 2.0000e+000 250230 -6.7980e+005 -2.3359e+006 -1.8335e+005 63058 250077,250155,250129
 2.0000e+000 250207 -4.9028e+005 -2.3348e+006 -1.2071e+005 63058 250077,250181,250155
 2.0000e+000 250454 -4.9389e+005 -2.0704e+006  2.0865e+005 62832 250304,250382,250330
 2.0000e+000 250431 -1.2171e+005 -2.4179e+006 -5.4852e+005 62832 250278,250382,250304
 2.0000e+000 250408 -7.5432e+005 -1.6612e+006  1.2894e+004 62832 250330,250382,250356
 2.0000e+000 250606 -4.0907e+005 -2.7081e+006 -9.7508e+004 62428 250479,250531,250505
 2.0000e+000 250583 -3.0337e+005 -2.1420e+006 -2.7934e+005 62428 250479,250557,250531
 2.0000e+000 250758 -5.4647e+005 -2.1777e+006  2.3432e+005 62202 250631,250683,250657
 2.0000e+000 250735 -6.7752e+005 -2.3531e+006  4.5552e+005 62202 250631,250709,250683
 2.0000e+000 250861 -5.4874e+005 -1.5198e+006 -1.7817e+004 61954 250783,250835,250809
 2.0000e+000 251062 -6.3391e+005 -2.6609e+006 -3.0757e+005 61557 250912,250990,250938
 2.0000e+000 251039 -4.5361e+005 -1.7932e+006  4.2008e+002 61557 250886,250990,250912
 2.0000e+000 251016 -8.2137e+005 -2.4108e+006  1.1383e+004 61557 250938,250990,250964
 2.0000e+000 251263 -9.5896e+005 -2.4589e+006 -1.3577e+004 61167 251113,251165,251139
 2.0000e+000 251240 -6.9355e+005 -2.4367e+006 -1.4425e+005 61167 251113,251191,251165
 2.0000e+000 251217 -8.5461e+005 -2.3621e+006  5.2687e+005 61167 251087,251191,251113
 2.0000e+000 251415 -8.0800e+005 -2.0592e+006  3.1061e+005 60827 251288,251340,251314
 2.0000e+000 251392 -1.0580e+006 -1.4688e+006  5.4456e+004 60827 251288,251366,251340
 2.0000e+000 251567 -3.8385e+005 -1.6912e+006  1.4776e+005 60487 251466,251518,251492
 2.0000e+000 251544 -4.3471e+005 -1.5242e+006  3.2774e+003 60487 251440,251518,251466
 2.0000e+000 251719 -4.1968e+005 -2.7604e+006 -9.5234e+003 59983 251592,251644,251618
 2.0000e+000 251696 -4.3036e+005 -2.3493e+006 -5.6217e+004 59983 251592,251670,251644
 2.0000e+000 251920 -1.0531e+003 -1.1794e+006  4.3552e+004 59807 251770,251848,251796
 2.0000e+000 251897  3.1483e+002 -1.1678e+006  4.2536e+004 59807 251744,251848,251770
 2.0000e+000 251874 -3.5651e+004 -1.3576e+006  2.5902e+004 59807 251796,251848,251822
 2.0000e+000 252023 -6.6326e+005 -1.9606e+006 -8.7645e+004 59517 251945,251997,251971
 2.0000e+000 252175  3.3556e+005 -3.7257e+006 -2.1649e+005 59269 252074,252126,252100
 2.0000e+000 252152 -3.6734e+005 -6.2183e+004  3.0985e+005 59269 252048,252126,252074
 2.0000e+000 252278 -5.1384e+005 -1.9633e+006  1.2987e+005 58979 252200,252252,252226
 2.0000e+000 252381 -9.9486e+005 -1.3477e+006  3.7165e+004 58689 252303,252355,252329
 2.0000e+000 252533 -3.5244e+005 -1.6669e+006  1.6032e+005 58249 252432,252484,252458
 2.0000e+000 252510 -2.8628e+005 -1.5374e+006  4.1435e+004 58249 252406,252484,252432
 2.0000e+000 252734 -5.4346e+005 -1.3442e+006  2.2702e+005 57902 252584,252662,252610
 2.0000e+000 252711 -3.6770e+005 -1.8319e+006 -3.2061e+003 57902 252558,252662,252584
 2.0000e+000 252688 -5.1910e+005 -1.1540e+006  1.7312e+005 57902 252610,252662,252636
 2.0000e+000 252886 -3.8665e+005 -1.5213e+006 -1.3160e+005 57540 252785,252837,252811
 2.0000e+000 252863 -3.2427e+005 -1.6937e+006 -1.6413e+005 57540 252759,252837,252785
 2.0000e+000 253038 -6.6089e+005 -1.8095e+006 -1.8157e+004 57086 252937,252989,252963
 2.0000e+000 253015 -5.0709e+005 -1.4113e+006  1.4282e+005 57086 252911,252989,252937
 2.0000e+000 253239 -4.7216e+005 -1.8087e+006  1.7907e+005 56796 253063,253141,253115
 2.0000e+000 253216 -1.4387e+005 -1.8607e+006  2.8060e+005 56796 253063,253167,253141
 2.0000e+000 253193 -4.3631e+005 -2.2687e+006  1.6901e+005 56796 253063,253115,253089
 2.0000e+000 253342 -5.1877e+005 -1.9917e+006 -1.2828e+005 56349 253264,253316,253290
 2.0000e+000 253543 -5.7219e+005 -1.9830e+006 -1.1186e+005 56009 253367,253419,253393
 2.0000e+000 253520 -6.4454e+005 -1.8788e+006  1.9337e+002 56009 253367,253445,253419
 2.0000e+000 253497 -8.4990e+005 -1.7417e+006 -3.7626e+004 56009 253367,253471,253445
 2.0000e+000 253695 -3.6877e+005 -1.9830e+006  1.4977e+004 55733 253594,253646,253620
 2.0000e+000 253672 -4.8582e+005 -1.8588e+006 -3.3586e+004 55733 253568,253646,253594
 2.0000e+000 253798 -5.0446e+005 -1.2273e+006  1.6382e+004 55557 253720,253772,253746
 2.0000e+000 253950 -4.6891e+005 -1.7112e+006 -2.3041e+005 55153 253849,253901,253875
 2.0000e+000 253927 -1.0200e+005 -1.8270e+006 -4.0455e+005 55153 253823,253901,253849
 2.0000e+000 254151 -7.1617e+005 -2.1873e+006  3.6789e+004 54863 253975,254053,254001
 2.0000e+000 254128 -5.9853e+005 -1.9987e+006 -7.1779e+004 54863 253975,254079,254053
 2.0000e+000 254105 -5.2301e+005 -2.0811e+006 -4.4291e+004 54863 254001,254053,254027
 2.0000e+000 254303 -3.0013e+005 -2.2527e+006  1.9239e+004 54373 254176,254228,254202
 2.0000e+000 254280 -5.2166e+005 -2.1635e+006  7.9088e+004 54373 254176,254254,254228
 2.0000e+000 254455 -5.7767e+005 -1.9775e+006 -5.6992e+004 53975 254354,254406,254380
 2.0000e+000 254432 -4.6658e+005 -1.9882e+006 -1.2417e+004 53975 254328,254406,254354
 2.0000e+000 254607 -6.4761e+005 -1.9012e+006 -1.0073e+005 53585 254480,254532,254506
 2.0000e+000 254584 -3.7195e+005 -1.8839e+006 -2.2072e+005 53585 254480,254558,254532
 2.0000e+000 254808 -6.0841e+005 -1.5465e+006 -4.0972e+004 53245 254658,254736,254684
 2.0000e+000 254785 -5.9396e+005 -1.4114e+006 -4.2728e+004 53245 254632,254736,254658
 2.0000e+000 254762 -4.5917e+005 -1.3546e+006 -2.2990e+005 53245 254684,254736,254710
 2.0000e+000 254911 -4.5813e+005 -2.0787e+006 -2.6069e+005 52955 254833,254885,254859
 2.0000e+000 255063 -5.1274e+005 -1.8855e+006 -6.5585e+004 52551 254962,255014,254988
 2.0000e+000 255040 -4.2047e+005 -1.9956e+006 -9.6625e+004 52551 254936,255014,254962
 2.0000e+000 255264 -9.0778e+005 -1.3408e+006 -8.3208e+004 52261 255114,255166,255140
 2.0000e+000 255241 -7.1935e+005 -2.0726e+006  6.8259e+004 52261 255114,255192,255166
 2.0000e+000 255218 -9.6885e+005 -2.5310e+006 -3.2372e+005 52261 255088,255192,255114
 2.0000e+000 255416 -1.9897e+005 -1.5809e+006  3.7166e+005 51971 255289,255341,255315
 2.0000e+000 255393 -4.6420e+005 -1.5842e+006  9.7519e+004 51971 255289,255367,255341
 2.0000e+000 255568 -4.9711e+005 -1.5637e+006 -8.1786e+004 51681 255441,255493,255467
 2.0000e+000 255545 -1.1902e+005 -2.5381e+006  4.2700e+003 51681 255441,255519,255493
 2.0000e+000 255769 -5.2772e+005 -1.8953e+006  3.7800e+004 51291 255619,255697,255671
 2.0000e+000 255746 -4.6439e+005 -1.5819e+006 -1.8549e+004 51291 255593,255697,255619
 2.0000e+000 255723 -5.7628e+005 -1.8714e+006  2.6468e+004 51291 255619,255671,255645
 2.0000e+000 255921 -5.5344e+005 -1.4965e+006  1.7563e+005 50951 255820,255872,255846
 2.0000e+000 255898 -5.6356e+005 -1.5712e+006  7.1217e+004 50951 255794,255872,255820
 2.0000e+000 256171 -6.0076e+005 -1.8280e+006  9.0144e+004 50547 256024,256076,256050
 2.0000e+000 256148 -5.9509e+005 -1.8070e+006  9.2894e+004 50547 255972,256076,256024
 2.0000e+000 256125 -3.4318e+005 -2.0133e+006 -6.0296e+004 50547 255946,256076,255972
 2.0000e+000 256102 -7.0027e+005 -1.7852e+006  1.1560e+005 50547 255972,256024,255998
 2.0000e+000 256323 -3.0809e+005 -2.3824e+006  4.2427e+005 50093 256196,256248,256222
 2.0000e+000 256300 -9.1177e+005 -1.7543e+006 -6.9033e+004 50093 256196,256274,256248
 2.0000e+000 256426  7.9478e+001 -6.5955e+004  1.4751e+002 49845 256348,256400,256374
 2.0000e+000 256627 -4.3146e+005 -1.8420e+006  2.2423e+004 49555 256477,256555,256503
 2.0000e+000 256604 -4.4613e+005 -1.9254e+006  6.9311e+003 49555 256451,256555,256477
 2.0000e+000 256581 -5.0467e+005 -1.6718e+006  6.6123e+004 49555 256503,256555,256529
 2.0000e+000 256828 -4.7414e+005 -1.7077e+006 -9.1699e+004 49056 256652,256730,256678
 2.0000e+000 256805 -5.2353e+005 -1.6178e+006 -5.6313e+004 49056 256652,256756,256730
 2.0000e+000 256782 -6.1415e+005 -1.7277e+006 -7.2693e+004 49056 256678,256730,256704
 2.0000e+000 256931 -7.2583e+005 -1.6600e+006 -8.4878e+004 48766 256853,256905,256879
 2.0000e+000 257083 -4.3814e+005 -1.9277e+006  1.3188e+004 48568 256982,257034,257008
 2.0000e+000 257060 -3.8938e+005 -1.7153e+006 -9.0217e+004 48568 256956,257034,256982
 2.0000e+000 257186 -4.5084e+003 -1.0212e+006  2.5422e+003 48228 257108,257160,257134
 2.0000e+000 257338 -3.7592e+005 -1.3253e+006  2.8606e+005 47888 257237,257289,257263
 2.0000e+000 257315 -5.2120e+005 -1.6247e+006  1.3796e+005 47888 257211,257289,257237
 2.0000e+000 257539 -4.9591e+005 -1.9774e+006  1.3942e+005 47548 257363,257441,257415
 2.0000e+000 257516 -5.7182e+005 -2.0104e+006  1.6793e+005 47548 257363,257467,257441
 2.0000e+000 257493 -4.2133e+005 -1.8220e+006  6.9250e+004 47548 257363,257415,257389
 2.0000e+000 257740 -3.2306e+005 -1.8876e+006  6.7502e+004 46994 257564,257642,257616
 2.0000e+000 257717 -3.2923e+005 -1.6130e+006 -4.5694e+004 46994 257564,257668,257642
 2.0000e+000 257694 -5.7900e+005 -1.6337e+006 -1.4474e+005 46994 257564,257616,257590
 2.0000e+000 257843 -6.4778e+005 -1.7062e+006  1.1386e+005 46654 257765,257817,257791
 2.0000e+000 257995 -5.6979e+005 -2.0485e+006  9.9512e+004 46364 257894,257946,257920
 2.0000e+000 257972 -5.5532e+005 -2.3289e+006 -5.9375e+004 46364 257868,257946,257894
 2.0000e+000 258147 -2.9332e+005 -1.8852e+006 -5.5518e+004 46024 258046,258098,258072
 2.0000e+000 258124 -6.1518e+005 -2.0806e+006 -2.0116e+005 46024 258020,258098,258046
 2.0000e+000 258250 -8.1582e+005 -1.5841e+006  2.1728e+005 45741 258172,258224,258198
 2.0000e+000 258402 -3.2653e+005 -1.6712e+006  1.6466e+005 45401 258301,258353,258327
 2.0000e+000 258379 -4.4693e+005 -1.4625e+006  1.3287e+005 45401 258275,258353,258301
 2.0000e+000 258603 -5.8534e+005 -1.1524e+006  4.6359e+004 45071 258427,258505,258479
 2.0000e+000 258580 -3.9445e+005 -2.5183e+006  1.9103e+005 45071 258427,258531,258505
 2.0000e+000 258557 -3.5465e+005 -1.2149e+006  1.7769e+005 45071 258427,258479,258453
 2.0000e+000 258755 -3.5682e+005 -1.4904e+006  9.7620e+004 44681 258654,258706,258680
 2.0000e+000 258732 -3.0221e+005 -1.5925e+006  1.1923e+005 44681 258628,258706,258654
 2.0000e+000 258907 -3.6961e+005 -1.5858e+006 -6.5976e+003 44157 258806,258858,258832
 2.0000e+000 258884 -6.2901e+005 -1.6608e+006 -1.0129e+005 44157 258780,258858,258806
 2.0000e+000 259010 -4.1283e+005 -1.3828e+006  5.6375e+004 43705 258932,258984,258958
 2.0000e+000 259113 -2.3903e+005 -2.1985e+006  4.0693e+005 43284 259035,259087,259061
 2.0000e+000 259216 -4.9999e+005 -1.9233e+006 -5.8877e+004 42954 259138,259190,259164
 2.0000e+000 259319 -6.4716e+005 -1.3877e+006 -2.5029e+004 42116 259241,259293,259267
 2.0000e+000 259422 -4.0655e+005 -1.8551e+006 -1.8006e+005 41804 259344,259396,259370
 2.0000e+000 259525 -5.1911e+005 -2.2434e+006  2.2232e+004 41219 259447,259499,259473
 2.0000e+000 259628 -5.8687e+005 -1.5682e+006 -6.0650e+004 385 259550,259602,259576
 2.0000e+001 190120 -1.0404e+006 -2.0591e+006  2.4173e+005 189630 189993,190045,190019
 2.0000e+001 190097 -4.4637e+005 -2.1663e+006  3.1406e+005 189630 189993,190071,190045
 2.0000e+001 190319 -9.6782e+005 -5.1646e+006  1.8965e+004 189312 190169,190221,190195
 2.0000e+001 190296 -5.0941e+005 -4.5503e+006 -5.2541e+005 189312 190169,190247,190221
 2.0000e+001 190273 -7.6438e+005 -4.3019e+006  2.8764e+004 189312 190143,190247,190169
 2.0000e+001 190518 -4.3925e+005 -3.0922e+006 -5.8021e+005 189124 190368,190446,190420
 2.0000e+001 190495 -8.7084e+005 -1.7401e+006  4.4747e+005 189124 190342,190446,190368
 2.0000e+001 190472 -1.8678e+006 -3.1760e+006 -1.4420e+006 189124 190368,190420,190394
 2.0000e+001 190619 -4.9209e+005 -3.1177e+005 -1.7050e+004 188926 190541,190593,190567
 2.0000e+001 190771 -3.6569e+005 -3.8561e+006 -4.0137e+005 188614 190670,190722,190696
 2.0000e+001 190748 -3.9942e+004 -2.1615e+006  1.6198e+005 188614 190644,190722,190670
 2.0000e+001 190972 -3.9498e+004 -3.6613e+006 -3.7528e+005 188324 190848,190900,190874
 2.0000e+001 190949 -1.7292e+005 -2.9342e+006  2.2453e+004 188324 190796,190900,190848
 2.0000e+001 190926 -7.5729e+005 -4.2287e+006 -4.3453e+005 188324 190796,190848,190822
 2.0000e+001 191124 -4.7104e+005 -2.2705e+006 -1.5037e+005 188034 191023,191075,191049
 2.0000e+001 191101 -3.7579e+005 -2.1937e+006 -2.0414e+005 188034 190997,191075,191023
 2.0000e+001 191276 -2.0247e+005 -2.7391e+006 -1.3856e+005 187836 191149,191201,191175
 2.0000e+001 191253 -4.4276e+005 -2.1901e+006  1.4522e+005 187836 191149,191227,191201
 2.0000e+001 191379 -3.8477e+005 -1.6818e+006 -1.4871e+005 187546 191301,191353,191327
 2.0000e+001 191531 -5.2675e+004 -7.0826e+006 -2.0261e+006 187256 191430,191482,191456
 2.0000e+001 191508 -5.1275e+005 -5.5985e+006  9.8956e+004 187256 191404,191482,191430
 2.0000e+001 191634 -2.6599e+005 -3.7534e+006 -3.3312e+005 187058 191556,191608,191582
 2.0000e+001 191835 -3.7269e+004 -2.8090e+006  2.4682e+005 186860 191659,191711,191685
 2.0000e+001 191812 -3.3279e+005 -1.5955e+006  4.6202e+005 186860 191659,191737,191711
 2.0000e+001 191789 -1.0107e+005 -1.1606e+006  1.0199e+005 186860 191659,191763,191737
 2.0000e+001 191987 -5.0882e+005 -2.5957e+006 -3.3607e+005 186662 191886,191938,191912
 2.0000e+001 191964 -3.2331e+005 -2.6514e+006 -2.9886e+005 186662 191860,191938,191886
 2.0000e+001 192090 -8.0440e+005 -1.8803e+006 -4.3542e+004 186486 192012,192064,192038
 2.0000e+001 192242 -5.0524e+005 -6.6488e+006  4.2481e+003 186288 192115,192167,192141
 2.0000e+001 192219 -4.6677e+005 -5.8762e+006  2.0606e+005 186288 192115,192193,192167
 2.0000e+001 192394 -1.0515e+005 -5.8379e+006 -2.9816e+005 185935 192293,192345,192319
 2.0000e+001 192371 -4.2575e+005 -4.9380e+006 -4.9461e+005 185935 192267,192345,192293
 2.0000e+001 192546 -6.8165e+005 -2.2370e+006 -1.4877e+005 185675 192419,192471,192445
 2.0000e+001 192523 -2.9559e+005 -2.7316e+006 -5.2092e+003 185675 192419,192497,192471
 2.0000e+001 192649 -4.2821e+005 -1.7351e+006  1.0297e+005 185499 192571,192623,192597
 2.0000e+001 192801 -1.2167e+006 -2.0575e+006  1.8189e+004 185301 192674,192726,192700
 2.0000e+001 192778 -6.6638e+005 -1.8574e+006 -2.0837e+005 185301 192674,192752,192726
 2.0000e+001 193002 -1.5281e+005 -3.1102e+006 -5.3014e+005 185046 192852,192930,192878
 2.0000e+001 192979 -4.4460e+005 -4.2208e+006 -4.3322e+005 185046 192826,192930,192852
 2.0000e+001 192956  3.9004e+005 -5.2208e+006  1.1434e+005 185046 192878,192930,192904
 2.0000e+001 193203 -1.8101e+006 -4.0191e+006 -5.4302e+005 184798 193079,193131,193105
 2.0000e+001 193180  3.3561e+004 -6.4989e+006 -1.4566e+006 184798 193027,193131,193079
 2.0000e+001 193157 -2.3295e+005 -6.7786e+006  1.3942e+006 184798 193027,193079,193053
 2.0000e+001 193404 -2.7637e+005 -4.8937e+006 -1.0784e+006 184600 193254,193306,193280
 2.0000e+001 193381 -9.7329e+005 -3.1507e+006  1.8602e+005 184600 193254,193332,193306
 2.0000e+001 193358 -1.1284e+006 -2.5139e+006  4.4277e+004 184600 193228,193332,193254
 2.0000e+001 193556  8.1451e+004 -4.1581e+006  7.1396e+004 184402 193429,193481,193455
 2.0000e+001 193533 -1.0146e+006 -2.3480e+006 -1.2898e+006 184402 193429,193507,193481
 2.0000e+001 193708 -7.5510e+005 -4.8594e+006 -3.9016e+005 184204 193607,193659,193633
 2.0000e+001 193685 -9.7058e+005 -6.2761e+006 -8.1354e+005 184204 193581,193659,193607
 2.0000e+001 193860 -2.6798e+005 -2.7389e+006  1.2388e+005 183908 193759,193811,193785
 2.0000e+001 193837 -1.8619e+005 -2.5098e+006  2.0331e+005 183908 193733,193811,193759
 2.0000e+001 194061 -2.4337e+005 -1.8008e+006 -2.7283e+005 183710 193911,193989,193937
 2.0000e+001 194038 -5.9725e+005 -1.9134e+006  1.8111e+005 183710 193885,193989,193911
 2.0000e+001 194015 -1.4656e+005 -3.0078e+006 -7.2756e+004 183710 193937,193989,193963
 2.0000e+001 194262 -1.1483e+006 -4.8715e+006 -1.3263e+006 183420 194086,194164,194112
 2.0000e+001 194239 -1.0438e+006 -3.7316e+006  2.8190e+004 183420 194086,194190,194164
 2.0000e+001 194216 -1.8959e+006 -9.2345e+006  9.5243e+005 183420 194112,194164,194138
 2.0000e+001 194414 -3.2356e+004 -5.7298e+006  3.8377e+005 183222 194287,194339,194313
 2.0000e+001 194391 -4.7815e+005 -3.0357e+006 -3.2216e+005 183222 194287,194365,194339
 2.0000e+001 194517 -1.4212e+006 -3.3344e+006 -9.5197e+004 183024 194439,194491,194465
 2.0000e+001 194718  2.6699e+005 -1.5251e+007  1.0847e+006 182734 194568,194620,194594
 2.0000e+001 194695 -7.9492e+005 -5.7504e+006 -3.1923e+006 182734 194542,194620,194568
 2.0000e+001 194672 -2.7984e+006 -2.6716e+006 -1.6400e+006 182734 194542,194646,194620
 2.0000e+001 194870 -7.8596e+005 -3.9458e+006 -3.2502e+004 182444 194769,194821,194795
 2.0000e+001 194847 -3.4904e+005 -1.8719e+006 -3.3721e+005 182444 194743,194821,194769
 2.0000e+001 195071 -1.7835e+006 -3.9065e+006 -7.0614e+005 182154 194895,194947,194921
 2.0000e+001 195048 -9.9956e+005 -2.4878e+006  5.4014e+005 182154 194895,194999,194947
 2.0000e+001 195025  9.9143e+004 -7.8532e+006  7.6835e+005 182154 194947,194999,194973
 2.0000e+001 195223 -8.1997e+005 -4.0388e+006  1.5680e+005 181814 195096,195148,195122
 2.0000e+001 195200 -4.9626e+005 -2.5442e+006  5.2230e+005 181814 195096,195174,195148
 2.0000e+001 195375 -5.6191e+004 -5.4536e+006  6.2342e+005 181524 195248,195300,195274
 2.0000e+001 195352 -1.7186e+005 -4.1161e+006  3.6340e+005 181524 195248,195326,195300
 2.0000e+001 195527 -4.5389e+004 -4.2115e+005  1.7957e+005 181326 195426,195478,195452
 2.0000e+001 195504 -4.2734e+005 -1.0862e+006  4.5996e+005 181326 195400,195478,195426
 2.0000e+001 195679  5.8004e+005 -1.0928e+007  1.0348e+005 180936 195578,195630,195604
 2.0000e+001 195656 -7.7015e+005 -4.8706e+006 -3.4140e+004 180936 195552,195630,195578
 2.0000e+001 195831 -6.0015e+005 -3.3570e+005 -1.8818e+005 180646 195704,195756,195730
 2.0000e+001 195808 -5.2100e+005 -1.1014e+005 -4.4448e+004 180646 195704,195782,195756
 2.0000e+001 196032 -3.3015e+005 -2.8865e+006  1.2390e+006 180306 195882,195960,195934
 2.0000e+001 196009 -8.5545e+005 -2.3313e+006 -8.8566e+003 180306 195856,195960,195882
 2.0000e+001 195986  4.6743e+005 -4.4431e+006 -4.8703e+005 180306 195882,195934,195908
 2.0000e+001 196233  6.0330e+003 -1.5660e+006 -1.5689e+006 179944 196057,196109,196083
 2.0000e+001 196210 -1.8329e+006 -1.0136e+007  1.4074e+006 179944 196057,196135,196109
 2.0000e+001 196187 -4.0439e+006  8.4086e+006 -3.1394e+006 179944 196057,196161,196135
 2.0000e+001 196385 -5.9024e+004 -5.3214e+005 -2.0080e+005 179604 196258,196310,196284
 2.0000e+001 196362 -1.6529e+005 -8.3685e+005 -3.1691e+005 179604 196258,196336,196310
 2.0000e+001 196586  1.8831e+005 -2.6063e+006 -2.5894e+005 179114 196410,196488,196436
 2.0000e+001 196563 -3.0903e+004 -2.0901e+006 -1.8916e+005 179114 196410,196514,196488
 2.0000e+001 196540 -2.6959e+004 -2.6551e+006 -2.7032e+005 179114 196436,196488,196462
 2.0000e+001 196738 -7.3062e+005 -2.9875e+006 -4.6451e+005 178674 196611,196663,196637
 2.0000e+001 196715 -1.0701e+005 -4.3062e+006 -1.6784e+005 178674 196611,196689,196663
 2.0000e+001 196939  1.4065e+006 -9.5268e+006 -1.6309e+006 178334 196789,196867,196841
 2.0000e+001 196916 -1.0040e+006 -9.0691e+006  6.7520e+005 178334 196763,196867,196789
 2.0000e+001 196893 -1.5641e+006 -7.9293e+006 -4.1562e+006 178334 196789,196841,196815
 2.0000e+001 197091 -2.4739e+005 -3.9862e+006 -4.1396e+005 177930 196990,197042,197016
 2.0000e+001 197068 -2.5883e+005 -3.9371e+006 -2.8474e+005 177930 196964,197042,196990
 2.0000e+001 197194 -2.6817e+002 -1.3832e+006 -4.0175e+002 177732 197116,197168,197142
 2.0000e+001 197346 -4.6345e+005 -7.3724e+006 -2.6519e+005 177534 197219,197271,197245
 2.0000e+001 197323  1.5062e+005 -9.4910e+006  8.7067e+005 177534 197219,197297,197271
 2.0000e+001 197547 -1.0762e+006 -3.3267e+006 -2.1615e+006 177130 197397,197449,197423
 2.0000e+001 197524 -5.8883e+005 -3.5152e+006 -4.7421e+005 177130 197397,197475,197449
 2.0000e+001 197501 -1.2203e+006 -9.2912e+006 -1.4375e+006 177130 197371,197475,197397
 2.0000e+001 197748 -3.3727e+005 -7.8082e+006  2.7722e+005 176790 197598,197676,197624
 2.0000e+001 197725 -2.0853e+005 -6.1430e+006  4.6413e+005 176790 197572,197676,197598
 2.0000e+001 197702 -5.6468e+005 -6.2876e+006  7.8558e+005 176790 197624,197676,197650
 2.0000e+001 197900 -1.8177e+005 -4.6473e+006 -8.0741e+005 176300 197773,197825,197799
 2.0000e+001 197877  1.9909e+005 -5.2102e+006 -8.9318e+005 176300 197773,197851,197825
 2.0000e+001 198052 -3.6880e+004 -1.0886e+007 -1.9444e+006 176010 197925,197977,197951
 2.0000e+001 198029 -9.7023e+005 -5.3747e+006 -9.9028e+005 176010 197925,198003,197977
 2.0000e+001 198204 -2.4133e+006 -7.0039e+006  2.1701e+006 175670 198103,198155,198129
 2.0000e+001 198181 -1.0754e+006 -5.6428e+006  3.9283e+004 175670 198077,198155,198103
 2.0000e+001 198405 -8.6474e+005 -8.0557e+006 -9.1380e+005 175266 198255,198307,198281
 2.0000e+001 198382 -2.2334e+005 -6.8755e+006  2.7244e+004 175266 198229,198307,198255
 2.0000e+001 198359 -3.5189e+005 -5.4619e+006 -1.0507e+006 175266 198229,198333,198307
 2.0000e+001 198606 -1.2319e+005 -3.7974e+006 -3.1536e+005 174876 198430,198508,198482
 2.0000e+001 198583 -4.9770e+005 -3.9285e+006  5.0821e+004 174876 198430,198534,198508
 2.0000e+001 198560 -4.0506e+005 -2.6770e+006 -6.6993e+005 174876 198430,198482,198456
 2.0000e+001 198758 -2.5195e+004 -1.1277e+005 -5.3805e+004 174536 198657,198709,198683
 2.0000e+001 198735 -2.5329e+004 -1.1140e+005 -5.2878e+004 174536 198631,198709,198657
 2.0000e+001 199008  1.3428e+005 -1.3057e+007  3.8763e+005 174132 198835,198913,198887
 2.0000e+001 198985 -2.3280e+005 -7.7828e+006  3.3823e+005 174132 198809,198913,198835
 2.0000e+001 198962 -7.6672e+004 -7.9841e+006 -1.3121e+006 174132 198783,198913,198809
 2.0000e+001 198939  1.9316e+005 -1.1702e+007  8.5496e+005 174132 198835,198887,198861
 2.0000e+001 199160 -7.1781e+005 -7.4907e+006  3.6990e+005 173842 199059,199111,199085
 2.0000e+001 199137 -9.8984e+005 -4.8731e+006 -3.5621e+005 173842 199033,199111,199059
 2.0000e+001 199361 -6.5009e+005 -8.6983e+006  1.0814e+006 173438 199237,199289,199263
 2.0000e+001 199338 -7.6401e+005 -6.5565e+006  1.5164e+006 173438 199211,199289,199237
 2.0000e+001 199315 -8.4255e+005 -8.5291e+006 -1.4870e+005 173438 199185,199289,199211
 2.0000e+001 199513  3.9666e+005 -1.0703e+007  1.6656e+006 173190 199386,199438,199412
 2.0000e+001 199490 -8.7482e+004 -8.2401e+006  1.6249e+003 173190 199386,199464,199438
 2.0000e+001 199665 -3.2441e+005 -4.2970e+006  1.7504e+005 172750 199564,199616,199590
 2.0000e+001 199642 -8.8204e+005 -2.6647e+006 -1.6136e+005 172750 199538,199616,199564
 2.0000e+001 199817 -6.6609e+005 -7.7868e+006 -2.5793e+006 172524 199690,199742,199716
 2.0000e+001 199794 -3.2404e+006 -4.4291e+006 -1.5330e+006 172524 199690,199768,199742
 2.0000e+001 199969 -1.5023e+004 -7.6658e+006 -3.4364e+005 172348 199842,199894,199868
 2.0000e+001 199946  6.8073e+005 -7.5490e+006  1.5387e+005 172348 199842,199920,199894
 2.0000e+001 200121  4.3876e+005 -9.2962e+006 -6.7486e+005 172008 199994,200046,200020
 2.0000e+001 200098 -6.1026e+005 -4.3700e+006 -2.2857e+005 172008 199994,200072,200046
 2.0000e+001 200273 -1.0319e+006 -1.1728e+007  1.0129e+006 171668 200172,200224,200198
 2.0000e+001 200250 -3.0711e+005 -9.3980e+006  1.4619e+006 171668 200146,200224,200172
 2.0000e+001 200474 -5.5691e+005 -1.2328e+007 -7.6672e+005 171264 200350,200402,200376
 2.0000e+001 200451 -8.2468e+005 -9.2471e+006  1.7430e+005 171264 200324,200402,200350
 2.0000e+001 200428 -9.4536e+005 -9.2413e+006  2.0407e+005 171264 200298,200402,200324
 2.0000e+001 200626  4.6972e+005 -1.1916e+007  5.1059e+005 170832 200525,200577,200551
 2.0000e+001 200603 -1.9006e+005 -9.7473e+006  2.7872e+005 170832 200499,200577,200525
 2.0000e+001 200827  3.2379e+005 -1.1038e+007  1.9586e+006 170492 200677,200729,200703
 2.0000e+001 200804 -1.4565e+006 -4.6589e+006 -3.0166e+006 170492 200651,200729,200677
 2.0000e+001 200781 -3.0429e+006 -3.8442e+006 -1.8302e+006 170492 200651,200755,200729
 2.0000e+001 201077  7.0580e+005 -3.8760e+006  1.3509e+005 170088 200878,200956,200904
 2.0000e+001 201054 -4.4756e+005 -3.8651e+006 -1.2239e+006 170088 200852,200956,200878
 2.0000e+001 201031  2.4858e+005 -3.6451e+006  2.6765e+006 170088 200904,200956,200930
 2.0000e+001 201008  3.2818e+006 -8.4577e+006  1.9778e+006 170088 200852,200982,200956
 2.0000e+001 201278  9.4181e+005 -5.0765e+006  6.3475e+005 169798 201102,201154,201128
 2.0000e+001 201255 -1.6529e+006 -1.5134e+007 -7.6083e+005 169798 201102,201206,201154
 2.0000e+001 201232 -2.4850e+006 -3.7613e+006  1.4899e+006 169798 201154,201206,201180
 2.0000e+001 201430 -1.0064e+006 -1.6077e+007 -1.3425e+006 169337 201303,201355,201329
 2.0000e+001 201407 -5.4268e+005 -6.1240e+006 -2.0822e+005 169337 201303,201381,201355
 2.0000e+001 201631 -3.3636e+005 -6.7788e+006 -7.6726e+004 168883 201481,201559,201507
 2.0000e+001 201608  5.0411e+005 -6.4565e+006  1.7864e+005 168883 201455,201559,201481
 2.0000e+001 201585 -8.5530e+005 -7.4696e+006 -4.5195e+005 168883 201507,201559,201533
 2.0000e+001 201832 -4.9107e+005 -1.4201e+007  4.1573e+005 168479 201682,201734,201708
 2.0000e+001 201809 -1.8512e+006 -1.2537e+007 -1.0159e+006 168479 201656,201734,201682
 2.0000e+001 201786 -1.3665e+006 -1.0618e+007 -1.6615e+005 168479 201656,201760,201734
 2.0000e+001 202033 -2.4581e+005 -8.0591e+006  1.4085e+006 167825 201883,201935,201909
 2.0000e+001 202010 -8.2322e+004 -8.8543e+006 -4.7980e+005 167825 201857,201935,201883
 2.0000e+001 201987  1.5532e+005 -1.2621e+007  3.3673e+005 167825 201857,201961,201935
 2.0000e+001 202234 -1.3017e+006 -1.0701e+007 -3.1937e+006 167435 202058,202136,202084
 2.0000e+001 202211 -1.8194e+006 -1.5893e+007  3.2225e+006 167435 202058,202162,202136
 2.0000e+001 202188 -9.6417e+005 -5.4192e+006  4.4169e+005 167435 202084,202136,202110
 2.0000e+001 202386  4.5143e+005 -8.9202e+006  4.1415e+005 167002 202285,202337,202311
 2.0000e+001 202363 -8.9563e+005 -1.9807e+006  7.9567e+005 167002 202259,202337,202285
 2.0000e+001 202538  5.5086e+004 -8.1312e+006 -4.3752e+005 166662 202411,202463,202437
 2.0000e+001 202515 -5.1927e+005 -4.4367e+006 -7.5445e+004 166662 202411,202489,202463
 2.0000e+001 202690 -1.1549e+005 -7.8172e+006 -4.0380e+005 166322 202589,202641,202615
 2.0000e+001 202667  5.6512e+005 -8.2734e+006 -7.0392e+005 166322 202563,202641,202589
 2.0000e+001 202891 -1.4875e+006 -4.2897e+006  4.3028e+004 165918 202715,202767,202741
 2.0000e+001 202868 -1.7441e+006 -5.4663e+006 -3.0450e+005 165918 202715,202793,202767
 2.0000e+001 202845 -1.4764e+005 -5.4224e+006 -5.6471e+005 165918 202715,202819,202793
 2.0000e+001 203092 -1.7211e+006 -7.6233e+006 -8.2261e+005 165628 202916,202968,202942
 2.0000e+001 203069 -1.1176e+005 -1.2893e+007 -2.8213e+005 165628 202916,202994,202968
 2.0000e+001 203046 -9.5356e+005 -1.3595e+007  3.5037e+005 165628 202916,203020,202994
 2.0000e+001 203293 -3.2204e+006 -1.3036e+007  2.1488e+006 165266 203143,203195,203169
 2.0000e+001 203270 -3.6858e+006 -9.3465e+006 -2.5863e+005 165266 203143,203221,203195
 2.0000e+001 203247  2.1474e+005 -1.3205e+007 -4.6263e+006 165266 203117,203221,203143
 2.0000e+001 203445 -8.2805e+003 -6.4432e+006  1.3373e+006 164826 203318,203370,203344
 2.0000e+001 203422 -4.5238e+005 -3.8561e+006 -6.4860e+005 164826 203318,203396,203370
 2.0000e+001 203597 -1.0482e+006 -8.4948e+006 -3.8360e+005 164386 203470,203522,203496
 2.0000e+001 203574 -2.4188e+005 -5.9105e+006  1.9274e+005 164386 203470,203548,203522
 2.0000e+001 203798  6.8562e+004 -8.0121e+006  9.4999e+005 163996 203622,203674,203648
 2.0000e+001 203775 -8.2756e+005 -2.9973e+006 -1.7129e+005 163996 203622,203726,203674
 2.0000e+001 203752 -2.2203e+006 -7.1503e+006  2.4083e+006 163996 203674,203726,203700
 2.0000e+001 203901 -4.9378e+005 -4.4273e+006 -6.6475e+005 163770 203823,203875,203849
 2.0000e+001 204053 -1.3300e+006 -7.7399e+006  1.2786e+006 163474 203952,204004,203978
 2.0000e+001 204030 -5.8554e+005 -8.6184e+006 -6.0303e+005 163474 203926,204004,203952
 2.0000e+001 204205 -1.7338e+005 -5.4469e+006 -1.4043e+005 163034 204104,204156,204130
 2.0000e+001 204182 -4.9398e+005 -8.8575e+006 -3.1975e+006 163034 204078,204156,204104
 2.0000e+001 204357 -2.6340e+005 -7.5165e+006  7.9298e+005 162624 204256,204308,204282
 2.0000e+001 204334 -7.4428e+004 -3.5484e+006 -3.7548e+004 162624 204230,204308,204256
 2.0000e+001 204509 -2.7527e+003 -9.3582e+004  1.6518e+004 162200 204382,204434,204408
 2.0000e+001 204486 -3.0403e+003 -9.4606e+004  1.6367e+004 162200 204382,204460,204434
 2.0000e+001 204710 -2.3342e+005 -2.0544e+006  5.6928e+005 161810 204560,204638,204586
 2.0000e+001 204687 -5.2975e+004 -3.3085e+006 -6.7394e+005 161810 204534,204638,204560
 2.0000e+001 204664 -2.9522e+005 -8.6897e+005  6.8914e+004 161810 204586,204638,204612
 2.0000e+001 204862 -1.0836e+006 -6.0248e+006 -1.4356e+006 161406 204735,204787,204761
 2.0000e+001 204839 -1.6380e+006 -6.1902e+006 -1.2832e+006 161406 204735,204813,204787
 2.0000e+001 205014 -5.7678e+004 -2.8085e+006  6.5779e+005 161180 204887,204939,204913
 2.0000e+001 204991 -1.0399e+005 -1.5628e+006  2.3254e+004 161180 204887,204965,204939
 2.0000e+001 205215  6.7985e+005 -3.2621e+006 -2.2021e+005 160726 205039,205091,205065
 2.0000e+001 205192 -8.3507e+005 -9.1504e+006 -7.0059e+005 160726 205039,205143,205091
 2.0000e+001 205169 -2.2684e+005 -2.2842e+006 -7.5067e+004 160726 205091,205143,205117
 2.0000e+001 205416 -3.9014e+005 -4.6720e+006  1.2368e+006 160272 205292,205344,205318
 2.0000e+001 205393 -6.3217e+005 -3.8885e+006  1.0785e+006 160272 205240,205344,205292
 2.0000e+001 205370 -7.0063e+005 -4.6262e+006  4.3892e+005 160272 205240,205292,205266
 2.0000e+001 205568 -3.1863e+005 -3.6861e+006  7.1350e+005 159932 205441,205493,205467
 2.0000e+001 205545 -2.9821e+005 -3.6840e+006  6.9579e+005 159932 205441,205519,205493
 2.0000e+001 205720 -1.2712e+004 -1.6407e+006 -3.3063e+005 159542 205593,205645,205619
 2.0000e+001 205697 -1.2245e+005 -2.2916e+005 -9.0111e+004 159542 205593,205671,205645
 2.0000e+001 205872  2.9496e+005 -1.0041e+006  6.8982e+004 159252 205745,205797,205771
 2.0000e+001 205849 -3.4200e+005 -3.7490e+006 -3.6619e+004 159252 205745,205823,205797
 2.0000e+001 206024 -2.4096e+006 -3.1338e+006 -7.2547e+005 159004 205923,205975,205949
 2.0000e+001 206001 -8.5562e+005 -4.8416e+006  2.7675e+005 159004 205897,205975,205923
 2.0000e+001 206127 -5.2169e+002 -1.2672e+002 -7.9823e+001 158364 206049,206101,206075
 2.0000e+001 206328 -5.5596e+004 -3.2662e+006  1.9866e+005 157960 206178,206256,206204
 2.0000e+001 206305 -3.0848e+005 -2.8184e+006  7.9769e+005 157960 206152,206256,206178
 2.0000e+001 206282 -2.9538e+004 -2.0712e+006  3.6004e+005 157960 206204,206256,206230
 2.0000e+001 206529 -1.0107e+005 -8.9389e+006  6.8888e+004 157648 206405,206457,206431
 2.0000e+001 206506 -2.6395e+006 -7.1069e+006 -1.0286e+006 157648 206379,206457,206405
 2.0000e+001 206483 -7.6274e+005 -5.8950e+006  9.9158e+004 157648 206353,206457,206379
 2.0000e+001 206730  1.2315e+006 -1.7952e+007 -5.7789e+004 157208 206554,206606,206580
 2.0000e+001 206707  9.0754e+005 -2.0386e+007  3.5108e+004 157208 206554,206632,206606
 2.0000e+001 206684 -3.9616e+006 -6.5862e+006 -5.4221e+005 157208 206554,206658,206632
 2.0000e+001 206882 -1.4012e+005 -1.6663e+006  1.6360e+005 157010 206755,206807,206781
 2.0000e+001 206859 -3.4172e+004 -2.5572e+006  5.5377e+005 157010 206755,206833,206807
 2.0000e+001 207034 -2.5078e+005 -8.9572e+006 -1.5984e+005 156620 206907,206959,206933
 2.0000e+001 207011  2.0370e+005 -1.4312e+007  1.1015e+005 156620 206907,206985,206959
 2.0000e+001 207186 -6.8250e+004 -4.3819e+006  2.2178e+005 156330 207085,207137,207111
 2.0000e+001 207163 -1.3473e+005 -4.4515e+006 -4.9000e+005 156330 207059,207137,207085
 2.0000e+001 207387 -1.1809e+005 -7.9417e+006  3.3148e+005 155890 207211,207289,207237
 2.0000e+001 207364 -3.4180e+005 -8.0135e+006 -6.9989e+004 155890 207211,207315,207289
 2.0000e+001 207341 -1.2665e+006 -5.1618e+006  2.0156e+006 155890 207237,207289,207263
 2.0000e+001 207588  1.3016e+006 -2.1090e+007  4.1596e+006 155436 207438,207490,207464
 2.0000e+001 207565 -2.0818e+005 -1.8196e+007 -1.0509e+005 155436 207412,207490,207438
 2.0000e+001 207542 -8.0314e+005 -1.2224e+007 -4.8320e+005 155436 207412,207516,207490
 2.0000e+001 207789  8.7367e+005 -3.1770e+007 -2.2868e+006 155260 207639,207691,207665
 2.0000e+001 207766 -3.1076e+006 -1.3375e+007  3.8646e+006 155260 207613,207691,207639
 2.0000e+001 207743 -5.7077e+005 -1.0923e+007 -6.4725e+005 155260 207613,207717,207691
 2.0000e+001 207990 -5.1267e+004 -3.3382e+005  3.7380e+004 154920 207840,207918,207892
 2.0000e+001 207967 -4.7504e+005 -5.7886e+005 -3.9365e+005 154920 207814,207918,207840
 2.0000e+001 207944 -3.8768e+004 -1.6623e+005 -6.5961e+004 154920 207840,207892,207866
 2.0000e+001 208191  7.8247e+004 -1.4649e+007 -1.0746e+006 154630 208015,208093,208041
 2.0000e+001 208168 -1.8178e+005 -9.3607e+006 -1.1595e+006 154630 208015,208119,208093
 2.0000e+001 208145 -2.0804e+006 -1.0553e+007 -4.6859e+006 154630 208041,208093,208067
 2.0000e+001 208343  8.9383e+003 -1.4107e+005  1.2967e+002 154240 208216,208268,208242
 2.0000e+001 208320  2.4514e+004 -9.5760e+004 -2.3464e+004 154240 208216,208294,208268
 2.0000e+001 208495  1.0064e+006 -2.5107e+007 -5.3667e+006 153950 208394,208446,208420
 2.0000e+001 208472 -1.3811e+006 -1.2852e+007  3.3914e+006 153950 208368,208446,208394
 2.0000e+001 208647 -6.6092e+005 -1.5103e+007  6.5522e+006 153603 208520,208572,208546
 2.0000e+001 208624 -5.1892e+006 -6.1191e+006 -1.9493e+006 153603 208520,208598,208572
 2.0000e+001 208848 -7.3144e+005 -8.1138e+006  1.9149e+006 153149 208698,208776,208724
 2.0000e+001 208825  4.3418e+005 -1.4916e+007 -1.5473e+006 153149 208672,208776,208698
 2.0000e+001 208802 -2.8668e+006 -7.6720e+006  7.7963e+005 153149 208724,208776,208750
 2.0000e+001 209000 -8.7921e+005 -1.2020e+007  6.5636e+004 152859 208873,208925,208899
 2.0000e+001 208977 -4.3187e+004 -1.6297e+007  6.6942e+005 152859 208873,208951,208925
 2.0000e+001 209152  3.7729e+005 -1.4545e+007 -2.1310e+005 152569 209051,209103,209077
 2.0000e+001 209129  1.1895e+005 -1.4278e+007 -7.9663e+004 152569 209025,209103,209051
 2.0000e+001 209304 -3.1466e+004 -1.0343e+005  4.0677e+002 152065 209177,209229,209203
 2.0000e+001 209281  2.0438e+004 -1.8482e+005  2.3225e+004 152065 209177,209255,209229
 2.0000e+001 209456  6.4685e+005 -1.3215e+007  2.7235e+005 151775 209355,209407,209381
 2.0000e+001 209433  9.8000e+005 -1.7054e+007  1.0319e+005 151775 209329,209407,209355
 2.0000e+001 209608 -9.6846e+005 -1.6509e+007 -2.3169e+005 151371 209481,209533,209507
 2.0000e+001 209585  5.2710e+005 -1.9701e+007  5.4773e+005 151371 209481,209559,209533
 2.0000e+001 209760 -2.0822e+006 -9.7053e+006 -1.4808e+006 150981 209659,209711,209685
 2.0000e+001 209737 -1.3048e+006 -1.0323e+007 -2.1978e+006 150981 209633,209711,209659
 2.0000e+001 209912  1.9315e+006 -3.2114e+007 -2.3411e+006 150619 209811,209863,209837
 2.0000e+001 209889 -3.9565e+005 -1.9334e+007  2.3204e+006 150619 209785,209863,209811
 2.0000e+001 210064 -4.1284e+005 -1.2823e+007 -1.4157e+006 150279 209937,209989,209963
 2.0000e+001 210041 -8.4518e+003 -1.3006e+007 -1.5949e+006 150279 209937,210015,209989
 2.0000e+001 210265  7.2353e+004 -1.6886e+007 -2.1643e+006 149989 210115,210167,210141
 2.0000e+001 210242 -1.2207e+006 -1.4697e+007  4.9991e+005 149989 210115,210193,210167
 2.0000e+001 210219 -9.9356e+005 -1.9268e+007  4.3919e+005 149989 210089,210193,210115
 2.0000e+001 210417 -2.1308e+006 -1.2215e+007 -1.0498e+006 149599 210316,210368,210342
 2.0000e+001 210394 -1.1960e+006 -1.1159e+007 -4.5555e+005 149599 210290,210368,210316
 2.0000e+001 210618 -2.6198e+006 -1.1334e+007  6.8202e+005 149095 210468,210520,210494
 2.0000e+001 210595 -3.3446e+006 -1.1617e+007  1.4712e+006 149095 210442,210520,210468
 2.0000e+001 210572 -1.3225e+006 -2.4274e+007  2.6892e+006 149095 210442,210546,210520
 2.0000e+001 210819 -1.7243e+005 -2.0763e+006  3.1340e+005 148748 210695,210747,210721
 2.0000e+001 210796 -5.9211e+004 -4.2553e+006  7.8035e+005 148748 210669,210747,210695
 2.0000e+001 210773 -5.8162e+005 -3.6052e+006  1.4478e+006 148748 210643,210747,210669
 2.0000e+001 210971  1.6273e+004 -1.5047e+005 -4.5046e+003 148408 210870,210922,210896
 2.0000e+001 210948  6.3205e+004 -8.1253e+004  3.7409e+004 148408 210844,210922,210870
 2.0000e+001 211123 -2.2293e+004 -1.1429e+007  1.7434e+006 148118 210996,211048,211022
 2.0000e+001 211100 -1.8475e+005 -1.4635e+007  4.6447e+006 148118 210996,211074,211048
 2.0000e+001 211275 -3.5693e+006 -1.2791e+007  5.8230e+005 147778 211148,211200,211174
 2.0000e+001 211252 -1.7253e+006 -2.3248e+007  6.9778e+006 147778 211148,211226,211200
 2.0000e+001 211427 -2.1724e+006 -1.1091e+007  5.5037e+005 147324 211326,211378,211352
 2.0000e+001 211404  4.7743e+005 -1.4398e+007 -2.9452e+005 147324 211300,211378,211326
 2.0000e+001 211628  9.4641e+003 -5.8109e+004  3.0038e+003 147012 211452,211504,211478
 2.0000e+001 211605 -7.5419e+002 -1.4909e+005 -2.3239e+003 147012 211452,211556,211504
 2.0000e+001 211582 -4.9324e+003 -1.8440e+005  1.7753e+003 147012 211504,211556,211530
 2.0000e+001 211829 -1.1713e+006 -9.4724e+006  2.8075e+006 146636 211679,211757,211731
 2.0000e+001 211806  3.1038e+006 -2.0472e+007 -9.6154e+005 146636 211653,211757,211679
 2.0000e+001 211783  8.2013e+005 -8.4131e+006  1.9269e+006 146636 211679,211731,211705
 2.0000e+001 211981 -3.1467e+004 -2.0613e+005 -4.5213e+004 146246 211880,211932,211906
 2.0000e+001 211958  1.1904e+004 -1.9219e+004 -1.3025e+004 146246 211854,211932,211880
 2.0000e+001 212133 -2.3939e+004 -9.1449e+004 -3.8504e+004 145956 212006,212058,212032
 2.0000e+001 212110 -7.2157e+004 -1.3800e+005 -7.1220e+003 145956 212006,212084,212058
 2.0000e+001 212285 -6.5503e+003 -1.7733e+005  2.9924e+003 145544 212184,212236,212210
 2.0000e+001 212262  1.7446e+003 -1.8095e+004 -1.3708e+003 145544 212158,212236,212184
 2.0000e+001 212486  2.0795e+004 -9.1327e+006  1.2178e+006 144990 212362,212414,212388
 2.0000e+001 212463  6.4956e+004 -7.5680e+006  2.0864e+006 144990 212310,212414,212362
 2.0000e+001 212440 -1.1757e+006 -3.6442e+006  1.2949e+006 144990 212310,212362,212336
 2.0000e+001 212638 -1.0450e+006 -4.3463e+006  1.5191e+006 144600 212537,212589,212563
 2.0000e+001 212615 -3.3668e+005 -1.7365e+006 -2.6247e+002 144600 212511,212589,212537
 2.0000e+001 212839 -9.7955e+004 -1.1041e+006 -2.5729e+005 144210 212689,212741,212715
 2.0000e+001 212816 -1.4729e+004 -1.3452e+006 -6.9596e+004 144210 212663,212741,212689
 2.0000e+001 212793  7.5088e+004 -8.3082e+005 -9.6201e+004 144210 212663,212767,212741
 2.0000e+001 212991 -1.0270e+006 -1.6057e+006  8.2647e+005 143920 212890,212942,212916
 2.0000e+001 212968 -1.5153e+005 -6.8059e+006  1.9754e+005 143920 212864,212942,212890
 2.0000e+001 213143 -1.1492e+004 -1.5771e+005 -4.2707e+004 143480 213016,213068,213042
 2.0000e+001 213120 -1.1349e+004 -1.5814e+005 -4.2288e+004 143480 213016,213094,213068
 2.0000e+001 213295 -1.0383e+006 -3.6271e+006  2.4911e+006 142990 213194,213246,213220
 2.0000e+001 213272 -1.7913e+006 -1.0072e+006  5.3974e+005 142990 213168,213246,213194
 2.0000e+001 213447 -1.5239e+006 -5.3354e+006  1.4932e+006 142600 213320,213372,213346
 2.0000e+001 213424 -2.5120e+006 -2.6708e+006 -3.7952e+005 142600 213320,213398,213372
 2.0000e+001 213599 -6.5489e+005 -3.8683e+006  3.6992e+005 142260 213472,213524,213498
 2.0000e+001 213576  1.0415e+005 -3.8301e+006  7.3062e+005 142260 213472,213550,213524
 2.0000e+001 213751 -1.2879e+006 -3.5454e+006  3.0738e+005 141870 213624,213676,213650
 2.0000e+001 213728 -1.2275e+006 -4.6574e+006  1.8073e+006 141870 213624,213702,213676
 2.0000e+001 213903 -1.4275e+006 -3.5095e+006 -1.9971e+006 141530 213776,213828,213802
 2.0000e+001 213880 -5.7767e+005 -3.8317e+006 -1.3251e+006 141530 213776,213854,213828
 2.0000e+001 214055 -1.5301e+002 -1.6851e+003 -1.6411e+002 141218 213928,213980,213954
 2.0000e+001 214032  7.2693e+002 -5.1996e+003  6.3429e+002 141218 213928,214006,213980
 2.0000e+001 214207 -1.8807e+001 -1.5282e+004  1.4253e+001 140928 214080,214132,214106
 2.0000e+001 214184 -1.0694e+002 -1.5300e+004 -4.4377e+000 140928 214080,214158,214132
 2.0000e+001 214359 -7.3868e+005 -3.6798e+006 -1.2488e+006 140538 214232,214284,214258
 2.0000e+001 214336  5.4622e+005 -7.4693e+006  1.3896e+006 140538 214232,214310,214284
 2.0000e+001 214560 -5.3349e+004 -1.6111e+006  3.2873e+004 140248 214384,214462,214410
 2.0000e+001 214537  8.3884e+004 -2.6960e+005 -5.1177e+004 140248 214384,214488,214462
 2.0000e+001 214514 -1.8950e+005 -8.3053e+005 -2.1914e+005 140248 214410,214462,214436
 2.0000e+001 214712 -2.2829e+005 -8.5139e+006  8.7007e+005 140000 214611,214663,214637
 2.0000e+001 214689 -1.2459e+006 -3.5041e+006 -1.3497e+005 140000 214585,214663,214611
 2.0000e+001 214913 -5.8559e+005 -3.0184e+006 -1.3159e+006 139596 214737,214815,214763
 2.0000e+001 214890 -4.8395e+005 -1.0990e+006 -2.4677e+005 139596 214737,214841,214815
 2.0000e+001 214867  4.1164e+005 -4.6469e+006 -1.0657e+006 139596 214763,214815,214789
 2.0000e+001 215016 -6.1725e+002 -9.0022e+001 -1.3844e+002 139420 214938,214990,214964
 2.0000e+001 215168 -3.2211e+005 -6.8148e+006  1.1924e+006 139130 215067,215119,215093
 2.0000e+001 215145 -8.0797e+005 -6.8171e+006  2.4090e+006 139130 215041,215119,215067
 2.0000e+001 215320 -1.1205e+006 -1.5379e+006  8.6358e+005 138790 215219,215271,215245
 2.0000e+001 215297  3.2182e+005 -8.4703e+006  2.1926e+006 138790 215193,215271,215219
 2.0000e+001 215472 -1.9354e+005 -1.2693e+006  4.2702e+005 138514 215345,215397,215371
 2.0000e+001 215449 -7.9613e+004 -6.3909e+005 -6.1115e+004 138514 215345,215423,215397
 2.0000e+001 215624 -5.2616e+005 -7.4165e+006  3.1751e+004 138174 215497,215549,215523
 2.0000e+001 215601 -2.4153e+005 -6.0538e+006 -2.7783e+005 138174 215497,215575,215549
 2.0000e+001 215776 -1.1763e+006 -4.4704e+006  1.2056e+006 137734 215649,215701,215675
 2.0000e+001 215753 -1.4144e+006 -4.5207e+006  1.2071e+006 137734 215649,215727,215701
 2.0000e+001 215977 -3.1665e+006 -1.2775e+007  2.7605e+006 137344 215801,215879,215827
 2.0000e+001 215954  1.0201e+006 -1.1650e+007  1.9877e+006 137344 215801,215905,215879
 2.0000e+001 215931  4.1052e+006 -2.2440e+007 -3.7997e+006 137344 215827,215879,215853
 2.0000e+001 216129 -7.0755e+005 -9.2630e+006 -3.1505e+005 136940 216028,216080,216054
 2.0000e+001 216106 -7.4400e+005 -7.5449e+006 -8.5965e+005 136940 216002,216080,216028
 2.0000e+001 216330 -3.3936e+005 -6.6316e+006 -2.3520e+005 136600 216180,216232,216206
 2.0000e+001 216307 -6.1964e+005 -7.0739e+006  1.0972e+006 136600 216154,216232,216180
 2.0000e+001 216284 -1.3804e+005 -6.1275e+006  5.7209e+005 136600 216154,216258,216232
 2.0000e+001 216482  4.5677e+005 -5.7299e+006 -2.2642e+005 136260 216381,216433,216407
 2.0000e+001 216459  1.7921e+005 -5.9557e+006 -3.8562e+005 136260 216355,216433,216381
 2.0000e+001 216634  1.9261e+005 -7.5996e+006  1.1226e+006 135970 216533,216585,216559
 2.0000e+001 216611 -1.7941e+005 -8.7276e+006  8.3237e+005 135970 216507,216585,216533
 2.0000e+001 216835 -8.2272e+005 -5.4281e+006 -8.7489e+005 135608 216685,216763,216711
 2.0000e+001 216812 -2.7655e+005 -4.7117e+006  1.4940e+004 135608 216659,216763,216685
 2.0000e+001 216789 -5.6832e+005 -9.7738e+006  1.8641e+005 135608 216711,216763,216737
 2.0000e+001 217036  5.6712e+003 -6.1738e+006  8.1490e+005 135312 216912,216964,216938
 2.0000e+001 217013 -9.9657e+004 -6.6641e+006  7.9684e+005 135312 216886,216964,216912
 2.0000e+001 216990 -7.9359e+005 -6.2444e+006  7.9219e+005 135312 216860,216964,216886
 2.0000e+001 217237  2.6890e+004 -6.4717e+005 -4.0223e+004 134908 217061,217139,217113
 2.0000e+001 217214 -1.0596e+005 -7.6876e+005  3.1569e+005 134908 217061,217165,217139
 2.0000e+001 217191 -1.4635e+005 -2.1992e+005 -1.7963e+005 134908 217061,217113,217087
 2.0000e+001 217438 -1.1311e+006 -1.7500e+007  2.0046e+006 134568 217288,217366,217314
 2.0000e+001 217415 -2.6290e+005 -1.7904e+007  2.3072e+006 134568 217262,217366,217288
 2.0000e+001 217392  4.1362e+005 -1.2978e+007  9.4491e+005 134568 217314,217366,217340
 2.0000e+001 217590  3.1743e+003 -1.6365e+006  6.3804e+004 134106 217463,217515,217489
 2.0000e+001 217567  1.0798e+005 -1.6744e+006  1.5091e+005 134106 217463,217541,217515
 2.0000e+001 217791 -4.3795e+006 -2.8616e+007 -1.5646e+007 133816 217641,217693,217667
 2.0000e+001 217768  2.7204e+006 -3.5355e+007  7.6437e+006 133816 217641,217719,217693
 2.0000e+001 217745 -7.7718e+006 -6.6976e+006  5.1001e+006 133816 217615,217719,217641
 2.0000e+001 217992 -1.7625e+006 -5.3301e+006  2.8413e+006 133355 217842,217920,217894
 2.0000e+001 217969 -1.6396e+005 -1.2086e+007 -8.4126e+005 133355 217816,217920,217842
 2.0000e+001 217946 -7.0738e+005 -3.3551e+006 -1.7243e+005 133355 217842,217894,217868
 2.0000e+001 218193 -2.1445e+005 -4.6684e+006 -3.9225e+006 132851 218017,218095,218069
 2.0000e+001 218170 -1.3388e+006 -8.5498e+006  5.4675e+006 132851 218017,218121,218095
 2.0000e+001 218147 -3.4270e+006 -5.7932e+006 -2.3177e+006 132851 218017,218069,218043
 2.0000e+001 218345 -7.7609e+005 -3.4668e+006  9.3777e+005 132511 218244,218296,218270
 2.0000e+001 218322 -1.3734e+006 -3.9443e+006  3.7323e+005 132511 218218,218296,218244
 2.0000e+001 218497 -2.4549e+006 -2.9196e+007 -2.4239e+006 132235 218396,218448,218422
 2.0000e+001 218474 -3.2243e+006 -9.4189e+006  1.0723e+006 132235 218370,218448,218396
 2.0000e+001 218698 -2.0175e+005 -1.1900e+007  7.7537e+005 131945 218574,218626,218600
 2.0000e+001 218675 -5.7826e+005 -1.3945e+007  1.0929e+006 131945 218522,218626,218574
 2.0000e+001 218652 -8.3132e+005 -1.0586e+007  1.9940e+005 131945 218522,218574,218548
 2.0000e+001 218850 -5.6117e+005 -1.9399e+007 -2.7314e+006 131655 218723,218775,218749
 2.0000e+001 218827 -1.3911e+006 -1.2575e+007 -7.7872e+005 131655 218723,218801,218775
 2.0000e+001 218953 -1.0024e+006 -6.2564e+006  2.3268e+004 131215 218875,218927,218901
 2.0000e+001 219105 -7.6149e+005 -9.6595e+006 -9.7139e+004 130875 218978,219030,219004
 2.0000e+001 219082 -4.6441e+005 -4.9032e+006  4.7756e+005 130875 218978,219056,219030
 2.0000e+001 219306  3.3746e+005 -4.8946e+006  2.5891e+004 130429 219156,219234,219208
 2.0000e+001 219283  4.5897e+005 -4.3488e+006  2.0869e+005 130429 219130,219234,219156
 2.0000e+001 219260 -7.3760e+003 -4.9589e+006 -1.9339e+005 130429 219156,219208,219182
 2.0000e+001 219507  2.9863e+004 -2.9620e+006 -2.8782e+005 130025 219383,219435,219409
 2.0000e+001 219484 -4.2853e+004 -3.4095e+006 -2.7279e+005 130025 219331,219435,219383
 2.0000e+001 219461 -1.8763e+005 -3.1205e+006 -3.7464e+005 130025 219331,219383,219357
 2.0000e+001 219659 -7.7420e+005 -1.3932e+007 -1.5421e+006 129685 219558,219610,219584
 2.0000e+001 219636  4.0269e+004 -1.5777e+007 -3.9105e+006 129685 219532,219610,219558
 2.0000e+001 219860  8.3427e+004 -3.8475e+006  4.0027e+005 129395 219710,219788,219762
 2.0000e+001 219837 -7.5577e+004 -5.1168e+006  2.0076e+005 129395 219684,219788,219710
 2.0000e+001 219814  3.4291e+005 -4.6040e+006 -1.7130e+005 129395 219710,219762,219736
 2.0000e+001 220061  1.0770e+005 -3.7873e+006  3.6427e+005 128991 219937,219989,219963
 2.0000e+001 220038 -8.0835e+004 -6.4381e+006 -2.8389e+005 128991 219885,219989,219937
 2.0000e+001 220015  3.6384e+005 -5.1420e+006  2.0977e+005 128991 219885,219937,219911
 2.0000e+001 220262 -4.8574e+005 -3.3965e+006 -3.0095e+005 128701 220086,220164,220112
 2.0000e+001 220239  3.6970e+005 -5.1829e+006  2.9875e+005 128701 220086,220190,220164
 2.0000e+001 220216 -1.4025e+005 -2.8006e+006  6.2687e+005 128701 220112,220164,220138
 2.0000e+001 220463 -2.5435e+006 -1.2786e+007  1.6003e+006 128297 220339,220391,220365
 2.0000e+001 220440  1.5574e+006 -1.5796e+007  1.4210e+006 128297 220313,220391,220339
 2.0000e+001 220417 -1.0435e+005 -1.8360e+007 -2.7047e+006 128297 220287,220391,220313
 2.0000e+001 220615 -1.0583e+006 -1.0913e+007 -1.6021e+006 128007 220488,220540,220514
 2.0000e+001 220592  6.7453e+005 -1.5158e+007 -1.1456e+006 128007 220488,220566,220540
 2.0000e+001 220767  8.9426e+004 -4.1701e+006 -2.3375e+005 127567 220640,220692,220666
 2.0000e+001 220744 -2.3309e+005 -2.2554e+006 -1.5533e+005 127567 220640,220718,220692
 2.0000e+001 220919  9.6852e+005 -1.7373e+007  2.8137e+005 127163 220792,220844,220818
 2.0000e+001 220896  1.0840e+006 -1.7505e+007  4.1963e+005 127163 220792,220870,220844
 2.0000e+001 221071 -9.1009e+005 -4.2991e+006  1.1084e+006 126915 220970,221022,220996
 2.0000e+001 221048 -8.3885e+005 -4.6293e+006  9.8945e+005 126915 220944,221022,220970
 2.0000e+001 221272 -1.0341e+006 -1.0174e+007  1.3087e+006 126461 221122,221174,221148
 2.0000e+001 221249 -3.2192e+006 -1.0984e+007  3.5971e+005 126461 221122,221200,221174
 2.0000e+001 221226 -8.5069e+004 -1.7048e+007 -2.4381e+006 126461 221096,221200,221122
 2.0000e+001 221375  5.5664e+000 -2.3016e+005  6.1192e+001 126213 221297,221349,221323
 2.0000e+001 221478 -4.1275e+001 -7.3055e+005 -7.5628e+001 125766 221400,221452,221426
 2.0000e+001 221679 -9.0116e+004 -2.0124e+006  1.9851e+005 125212 221503,221555,221529
 2.0000e+001 221656 -1.3581e+005 -2.5974e+006  1.7353e+004 125212 221503,221581,221555
 2.0000e+001 221633  2.2017e+005 -4.9077e+006  1.1014e+006 125212 221503,221607,221581
 2.0000e+001 221929 -4.0033e+005 -1.1822e+006  4.4202e+005 124872 221782,221834,221808
 2.0000e+001 221906 -5.0404e+005 -1.2389e+006  5.6604e+005 124872 221756,221834,221782
 2.0000e+001 221883 -2.8611e+005 -3.0433e+006  1.0832e+006 124872 221704,221834,221756
 2.0000e+001 221860 -7.0827e+005 -3.9247e+006  1.5597e+006 124872 221704,221756,221730
 2.0000e+001 222130 -7.3868e+005 -1.0545e+007 -1.8182e+006 124582 221980,222058,222006
 2.0000e+001 222107 -1.5265e+006 -1.1161e+007 -2.3578e+006 124582 221954,222058,221980
 2.0000e+001 222084 -1.7808e+006 -1.2412e+007 -2.6605e+006 124582 222006,222058,222032
 2.0000e+001 222282 -3.0787e+006 -1.4706e+007 -3.7785e+006 124192 222181,222233,222207
 2.0000e+001 222259 -1.2121e+006 -1.4579e+007 -3.9901e+006 124192 222155,222233,222181
 2.0000e+001 222483 -3.3319e+005 -5.0950e+006 -5.2897e+004 123702 222333,222385,222359
 2.0000e+001 222460 -3.1061e+005 -5.2919e+006 -3.6907e+005 123702 222333,222411,222385
 2.0000e+001 222437 -3.5550e+003 -2.8107e+006 -3.9344e+005 123702 222307,222411,222333
 2.0000e+001 222635 -6.0970e+005 -2.4457e+006 -4.7103e+005 123312 222508,222560,222534
 2.0000e+001 222612  4.2193e+005 -7.7737e+006 -2.9673e+005 123312 222508,222586,222560
 2.0000e+001 222787 -2.4728e+005 -5.4977e+006 -1.3038e+005 122858 222686,222738,222712
 2.0000e+001 222764 -2.3507e+005 -5.2654e+006 -2.8443e+005 122858 222660,222738,222686
 2.0000e+001 222939 -2.2516e+005 -3.9361e+006 -2.5839e+004 122568 222812,222864,222838
 2.0000e+001 222916 -6.2302e+004 -2.9472e+006  2.2485e+005 122568 222812,222890,222864
 2.0000e+001 223091 -3.9895e+005 -4.0514e+006 -8.7414e+005 122392 222964,223016,222990
 2.0000e+001 223068  5.2260e+005 -5.4341e+006  3.4056e+005 122392 222964,223042,223016
 2.0000e+001 223292 -2.1533e+005 -1.4306e+007 -1.9635e+006 121852 223142,223220,223194
 2.0000e+001 223269 -1.4768e+006 -1.2997e+007 -1.1555e+006 121852 223116,223220,223142
 2.0000e+001 223246 -4.3977e+005 -1.4120e+007 -2.4922e+006 121852 223142,223194,223168
 2.0000e+001 223493 -4.4711e+005 -1.5238e+007  1.3052e+006 121406 223343,223395,223369
 2.0000e+001 223470 -1.1694e+006 -9.1465e+006 -3.6526e+006 121406 223343,223421,223395
 2.0000e+001 223447 -2.9134e+005 -6.4115e+006  1.2992e+006 121406 223317,223421,223343
 2.0000e+001 223645  6.2795e+004 -1.1393e+007  6.7083e+005 121002 223544,223596,223570
 2.0000e+001 223622 -1.1937e+006 -6.4791e+006  1.0917e+006 121002 223518,223596,223544
 2.0000e+001 223846  2.0795e+004 -1.4491e+007  1.0857e+006 120662 223670,223748,223696
 2.0000e+001 223823  1.3407e+006 -9.8853e+006  3.6425e+004 120662 223670,223774,223748
 2.0000e+001 223800 -1.2793e+006 -6.4188e+006 -1.1086e+006 120662 223696,223748,223722
 2.0000e+001 224047 -7.3015e+005 -7.1135e+006  2.2570e+006 120222 223897,223949,223923
 2.0000e+001 224024 -3.5168e+005 -9.2818e+006 -4.4509e+005 120222 223871,223949,223897
 2.0000e+001 224001  2.6251e+005 -1.3933e+007  9.2905e+005 120222 223871,223975,223949
 2.0000e+001 224248  1.1491e+006 -8.3933e+006  2.3705e+005 119875 224124,224176,224150
 2.0000e+001 224225 -1.0573e+006 -1.7759e+007 -7.2851e+005 119875 224098,224176,224124
 2.0000e+001 224202 -8.5083e+005 -3.4857e+006  4.4270e+005 119875 224072,224176,224098
 2.0000e+001 224449 -1.1616e+005 -6.2877e+006 -8.0699e+004 119677 224325,224377,224351
 2.0000e+001 224426 -8.7944e+005 -9.3654e+006  3.0795e+005 119677 224299,224377,224325
 2.0000e+001 224403 -4.4090e+005 -1.1164e+007  6.8342e+005 119677 224273,224377,224299
 2.0000e+001 224552 -1.1685e+006 -8.6456e+006 -4.7713e+005 119273 224474,224526,224500
 2.0000e+001 224704 -2.2880e+006 -1.6306e+007 -3.5590e+006 118983 224603,224655,224629
 2.0000e+001 224681 -2.3338e+006 -1.4246e+007 -2.2186e+006 118983 224577,224655,224603
 2.0000e+001 224856 -3.3855e+005 -1.5370e+007 -1.7635e+006 118529 224755,224807,224781
 2.0000e+001 224833 -1.5364e+005 -1.5753e+007 -1.8306e+006 118529 224729,224807,224755
 2.0000e+001 225008  1.3514e+005 -8.2435e+006 -2.1478e+003 118353 224881,224933,224907
 2.0000e+001 224985 -6.9260e+004 -8.7348e+006  1.5001e+005 118353 224881,224959,224933
 2.0000e+001 225209 -1.1407e+006 -8.0600e+006 -6.4842e+005 117949 225059,225137,225111
 2.0000e+001 225186 -5.8286e+005 -8.3460e+006 -1.7468e+006 117949 225033,225137,225059
 2.0000e+001 225163  4.1744e+005 -1.1631e+007  5.7911e+005 117949 225059,225111,225085
 2.0000e+001 225410  1.6774e+005 -7.2629e+006 -6.4321e+005 117559 225260,225338,225312
 2.0000e+001 225387 -9.7786e+005 -7.1686e+006  5.0140e+005 117559 225234,225338,225260
 2.0000e+001 225364 -7.3663e+005 -6.0618e+006 -2.1131e+006 117559 225260,225312,225286
 2.0000e+001 225611 -1.9256e+006 -1.3706e+007 -7.2242e+006 117361 225461,225513,225487
 2.0000e+001 225588  2.9677e+006 -1.3910e+007  9.7498e+005 117361 225461,225539,225513
 2.0000e+001 225565 -3.3861e+006 -5.7855e+006  6.0721e+006 117361 225435,225539,225461
 2.0000e+001 225812  4.0080e+005 -8.7735e+006 -4.0344e+005 116900 225636,225714,225662
 2.0000e+001 225789  8.7306e+005 -8.7997e+006 -6.0062e+005 116900 225636,225740,225714
 2.0000e+001 225766 -7.7848e+004 -8.7894e+006 -8.2669e+005 116900 225662,225714,225688
 2.0000e+001 225964 -5.6219e+004 -7.8962e+006 -3.2590e+004 116560 225837,225889,225863
 2.0000e+001 225941  1.1337e+005 -8.0051e+006 -7.8730e+004 116560 225837,225915,225889
 2.0000e+001 226165  2.2782e+005 -1.1629e+007  1.2854e+006 116106 226015,226093,226041
 2.0000e+001 226142  1.3645e+006 -1.5956e+007 -2.8907e+006 116106 225989,226093,226015
 2.0000e+001 226119 -2.9868e+006 -5.8068e+006  1.0944e+006 116106 226041,226093,226067
 2.0000e+001 226268 -1.9653e+006 -1.1929e+007  4.8544e+005 115716 226190,226242,226216
 2.0000e+001 226420 -1.4204e+005 -8.6397e+006  2.1305e+006 115376 226293,226345,226319
 2.0000e+001 226397 -3.7288e+005 -8.1429e+006  1.1872e+006 115376 226293,226371,226345
 2.0000e+001 226621  1.8437e+005 -6.5755e+006  3.7422e+005 114972 226497,226549,226523
 2.0000e+001 226598 -4.3632e+005 -1.1282e+007 -5.8148e+005 114972 226445,226549,226497
 2.0000e+001 226575  9.8854e+004 -7.5197e+006  3.8389e+005 114972 226445,226497,226471
 2.0000e+001 226773 -8.8692e+005 -6.3908e+006 -6.2693e+005 114670 226646,226698,226672
 2.0000e+001 226750  3.3975e+005 -9.0990e+006  2.7635e+005 114670 226646,226724,226698
 2.0000e+001 226974  2.0205e+005 -4.7829e+006 -1.7196e+005 114082 226798,226850,226824
 2.0000e+001 226951  4.8785e+004 -4.0941e+006 -3.9538e+005 114082 226798,226902,226850
 2.0000e+001 226928 -5.0573e+004 -5.1653e+006 -6.5545e+005 114082 226850,226902,226876
 2.0000e+001 227175 -1.0104e+006 -8.4472e+006 -6.3827e+005 113678 226999,227051,227025
 2.0000e+001 227152 -1.9928e+006 -1.1092e+007 -1.5084e+006 113678 226999,227077,227051
 2.0000e+001 227129 -7.2016e+005 -1.2378e+007 -2.6861e+006 113678 226999,227103,227077
 2.0000e+001 227425 -2.4132e+004 -1.2675e+007 -1.7792e+005 113274 227226,227278,227252
 2.0000e+001 227402  3.8810e+005 -1.2435e+007 -2.9787e+006 113274 227226,227330,227278
 2.0000e+001 227379 -1.5693e+005 -1.0855e+007 -2.7147e+006 113274 227200,227330,227226
 2.0000e+001 227356 -4.9318e+006 -5.3189e+006 -4.2329e+005 113274 227278,227330,227304
 2.0000e+001 227626  3.6355e+005 -5.1616e+006 -4.8365e+005 112934 227502,227554,227528
 2.0000e+001 227603 -3.8115e+004 -4.7759e+006 -3.3902e+005 112934 227450,227554,227502
 2.0000e+001 227580 -8.2532e+005 -7.4257e+006 -8.9676e+005 112934 227450,227502,227476
 2.0000e+001 227876 -1.5573e+004 -4.4627e+006 -4.4504e+005 112437 227677,227755,227703
 2.0000e+001 227853 -7.9822e+005 -4.8569e+006  9.6398e+005 112437 227677,227781,227755
 2.0000e+001 227830 -6.2953e+005 -2.1610e+006  9.0398e+005 112437 227703,227755,227729
 2.0000e+001 227807 -7.2416e+005 -7.6492e+006 -1.2322e+005 112437 227651,227781,227677
 2.0000e+001 228126 -8.5384e+005 -5.0576e+006  7.3858e+005 112041 227927,228005,227953
 2.0000e+001 228103 -2.2022e+005 -9.2609e+006 -1.7653e+006 112041 227927,228031,228005
 2.0000e+001 228080 -1.5989e+006 -5.7806e+006  2.0816e+005 112041 227953,228005,227979
 2.0000e+001 228057  4.0181e+005 -7.6293e+006 -1.2863e+006 112041 227901,228031,227927
 2.0000e+001 228327 -8.1645e+005 -8.1172e+006 -1.1362e+006 111693 228151,228203,228177
 2.0000e+001 228304 -7.9174e+005 -4.9389e+006 -1.3811e+006 111693 228151,228229,228203
 2.0000e+001 228281  4.4931e+005 -7.4430e+006  4.4458e+005 111693 228151,228255,228229
 2.0000e+001 228479 -2.8286e+006 -1.5998e+007 -5.3494e+006 111253 228352,228404,228378
 2.0000e+001 228456 -3.2907e+006 -1.0384e+007 -8.7297e+005 111253 228352,228430,228404
 2.0000e+001 228582  3.0982e-001 -6.3313e+004 -5.3230e+000 110906 228504,228556,228530
 2.0000e+001 228783 -6.2851e+005 -5.9995e+006  1.6437e+006 110416 228633,228711,228659
 2.0000e+001 228760 -5.8652e+005 -1.9734e+006  2.6726e+005 110416 228607,228711,228633
 2.0000e+001 228737 -7.8135e+003 -4.0276e+006  1.2244e+006 110416 228659,228711,228685
 2.0000e+001 228935 -3.2683e+005 -4.2580e+006 -7.4553e+004 110012 228808,228860,228834
 2.0000e+001 228912 -4.7723e+005 -9.5852e+006 -8.0677e+005 110012 228808,228886,228860
 2.0000e+001 229087 -1.1583e+006 -3.7623e+006 -1.4723e+006 109672 228960,229012,228986
 2.0000e+001 229064 -2.3385e+005 -8.5423e+006  8.6518e+004 109672 228960,229038,229012
 2.0000e+001 229190  2.0069e+003 -5.5294e+004 -9.2573e+003 109332 229112,229164,229138
 2.0000e+001 229391  5.2084e+004 -5.4490e+005 -1.3068e+005 109156 229267,229319,229293
 2.0000e+001 229368 -1.8266e+005 -1.4003e+006 -2.7478e+005 109156 229215,229319,229267
 2.0000e+001 229345  2.8979e+004 -3.4695e+005 -7.2057e+004 109156 229215,229267,229241
 2.0000e+001 229543  2.1932e+005 -1.0657e+007  5.6353e+005 108752 229416,229468,229442
 2.0000e+001 229520 -4.0110e+005 -1.1213e+007  9.1590e+005 108752 229416,229494,229468
 2.0000e+001 229744 -1.6902e+005 -8.2797e+006 -1.9306e+004 108198 229594,229646,229620
 2.0000e+001 229721 -1.2709e+006 -8.6479e+006  1.0321e+006 108198 229594,229672,229646
 2.0000e+001 229698  5.7533e+005 -1.2581e+007 -1.1180e+006 108198 229568,229672,229594
 2.0000e+001 229847 -1.1096e+005 -1.1731e+006 -2.4575e+005 107758 229769,229821,229795
 2.0000e+001 230048 -1.1017e+006 -4.6854e+006 -1.2974e+006 107468 229898,229950,229924
 2.0000e+001 230025 -5.3888e+005 -3.9868e+006 -1.0827e+005 107468 229872,229950,229898
 2.0000e+001 230002 -8.2339e+005 -4.5217e+006  3.4878e+005 107468 229872,229976,229950
 2.0000e+001 230298  1.6166e+005 -4.7282e+006  7.6004e+005 107121 230099,230203,230177
 2.0000e+001 230275 -9.1233e+005 -2.0940e+006  3.3058e+005 107121 230073,230203,230099
 2.0000e+001 230252 -1.1682e+006 -5.3928e+006 -3.7177e+005 107121 230099,230177,230151
 2.0000e+001 230229 -2.1892e+005 -6.6409e+006  6.9706e+005 107121 230099,230151,230125
 2.0000e+001 230450  5.4294e+005 -6.0983e+006 -6.6451e+005 106823 230349,230401,230375
 2.0000e+001 230427 -3.9628e+005 -1.2955e+006  3.8073e+005 106823 230323,230401,230349
 2.0000e+001 230602 -4.6987e+005 -1.0544e+007 -2.0393e+006 106533 230501,230553,230527
 2.0000e+001 230579 -8.1267e+005 -1.1323e+007 -3.0559e+006 106533 230475,230553,230501
 2.0000e+001 230803 -4.4521e+005 -2.2245e+006  6.1098e+005 106029 230679,230731,230705
 2.0000e+001 230780 -8.7178e+005 -4.3527e+006  1.3482e+006 106029 230653,230731,230679
 2.0000e+001 230757  1.0533e+005 -6.3576e+006  1.3463e+006 106029 230627,230731,230653
 2.0000e+001 231004 -1.1154e+005 -5.0375e+006  1.2205e+005 105689 230854,230906,230880
 2.0000e+001 230981  3.8421e+005 -5.5229e+006 -4.5987e+005 105689 230828,230906,230854
 2.0000e+001 230958 -8.8182e+005 -3.7940e+006 -1.8292e+006 105689 230828,230932,230906
 2.0000e+001 231156 -1.0818e+006 -4.9329e+006  1.1675e+006 105377 231055,231107,231081
 2.0000e+001 231133  1.3369e+006 -1.5013e+007 -1.6158e+006 105377 231029,231107,231055
 2.0000e+001 231406 -3.9096e+004 -8.8715e+006 -6.8176e+005 104858 231207,231259,231233
 2.0000e+001 231383 -1.2459e+006 -8.8402e+006 -1.0339e+006 104858 231207,231311,231259
 2.0000e+001 231360 -5.6994e+005 -1.4516e+007 -1.8636e+006 104858 231259,231311,231285
 2.0000e+001 231337 -1.4357e+005 -1.2639e+007 -1.9947e+006 104858 231181,231311,231207
 2.0000e+001 231558 -9.7867e+005 -6.2519e+006  3.5721e+006 104418 231457,231509,231483
 2.0000e+001 231535 -3.2767e+005 -6.1989e+006  2.3247e+005 104418 231431,231509,231457
 2.0000e+001 231710 -4.7304e+005 -4.3506e+006 -3.6242e+005 103978 231583,231635,231609
 2.0000e+001 231687 -5.9340e+005 -2.9229e+006 -4.2545e+005 103978 231583,231661,231635
 2.0000e+001 231862 -1.1273e+004 -4.9370e+005 -5.8419e+004 103588 231761,231813,231787
 2.0000e+001 231839 -1.5741e+004 -5.1094e+005 -5.9978e+004 103588 231735,231813,231761
 2.0000e+001 232014 -2.4670e+006 -8.5537e+006 -2.5509e+006 103248 231887,231939,231913
 2.0000e+001 231991  1.6146e+006 -2.2282e+007 -4.6911e+006 103248 231887,231965,231939
 2.0000e+001 232215 -2.5431e+005 -3.4738e+006  6.5415e+005 102844 232039,232117,232065
 2.0000e+001 232192  4.9090e+004 -4.1805e+006 -2.1815e+005 102844 232039,232143,232117
 2.0000e+001 232169 -2.9311e+005 -2.1588e+006 -2.5626e+005 102844 232065,232117,232091
 2.0000e+001 232416 -3.1144e+006 -1.1208e+007 -4.0043e+006 102554 232240,232318,232292
 2.0000e+001 232393  1.2181e+006 -1.7305e+007 -2.7268e+005 102554 232240,232344,232318
 2.0000e+001 232370 -3.7158e+006 -5.3175e+006 -1.7393e+006 102554 232240,232292,232266
 2.0000e+001 232568  2.7545e+005 -6.2382e+006  1.4499e+006 102100 232441,232493,232467
 2.0000e+001 232545  4.8605e+004 -5.6619e+006  1.7466e+005 102100 232441,232519,232493
 2.0000e+001 232769 -3.0014e+005 -2.5110e+006 -3.6675e+005 101596 232645,232697,232671
 2.0000e+001 232746 -3.8516e+005 -2.8108e+006 -5.0171e+005 101596 232593,232697,232645
 2.0000e+001 232723  2.3473e+005 -6.9682e+006 -6.9515e+005 101596 232593,232645,232619
 2.0000e+001 232921  3.8590e+003 -2.5619e+005  1.1628e+003 101420 232794,232846,232820
 2.0000e+001 232898  3.6264e+003 -2.7719e+005 -2.2974e+003 101420 232794,232872,232846
 2.0000e+001 233073 -1.4245e+006 -5.1268e+006 -7.7288e+005 101023 232946,232998,232972
 2.0000e+001 233050 -3.8327e+005 -8.2156e+006  1.5369e+006 101023 232946,233024,232998
 2.0000e+001 233225 -3.9976e+005 -3.4069e+006  4.0433e+003 100661 233098,233150,233124
 2.0000e+001 233202  3.4830e+005 -7.2171e+006  2.5594e+005 100661 233098,233176,233150
 2.0000e+001 233426 -1.2394e+006 -7.5767e+006 -2.2491e+006 100265 233276,233328,233302
 2.0000e+001 233403 -1.3356e+006 -6.9225e+006 -4.8458e+005 100265 233276,233354,233328
 2.0000e+001 233380 -1.2463e+006 -1.1579e+007 -1.3894e+006 100265 233250,233354,233276
 2.0000e+001 233578 -1.7056e+005 -3.6727e+005 -4.0054e+005 100032 233451,233503,233477
 2.0000e+001 233555 -1.3180e+004 -3.7402e+005  1.3036e+005 100032 233451,233529,233503
 2.0000e+001 233681 -7.2654e+004 -4.6658e+005  5.2953e+004 99742 233603,233655,233629
 2.0000e+001 233784 -4.1514e+005 -5.3089e+006  1.7588e+005 99402 233706,233758,233732
 2.0000e+001 233936 -8.5139e+005 -4.0673e+006  2.5938e+005 99062 233835,233887,233861
 2.0000e+001 233913 -4.7135e+005 -2.3812e+006 -3.6299e+005 99062 233809,233887,233835
 2.0000e+001 234088 -2.1646e+005 -5.0959e+006  2.0168e+005 98772 233987,234039,234013
 2.0000e+001 234065 -1.4261e+006 -5.3531e+006  3.5800e+006 98772 233961,234039,233987
 2.0000e+001 234240 -1.9079e+004 -5.9486e+005  9.3832e+004 98160 234139,234191,234165
 2.0000e+001 234217  3.3239e+004 -3.7577e+005  9.4204e+004 98160 234113,234191,234139
 2.0000e+001 234441  3.8636e+003 -3.2742e+006  4.0787e+005 97820 234317,234369,234343
 2.0000e+001 234418 -5.4669e+004 -3.5028e+006  3.7503e+005 97820 234291,234369,234317
 2.0000e+001 234395  2.0324e+005 -4.3300e+006  3.2858e+005 97820 234265,234369,234291
 2.0000e+001 234593 -7.7955e+005 -3.3420e+006  1.8161e+005 97366 234466,234518,234492
 2.0000e+001 234570 -3.1251e+005 -7.1425e+006  2.8058e+005 97366 234466,234544,234518
 2.0000e+001 234794 -9.1427e+005 -1.7539e+006 -7.9240e+005 96976 234618,234670,234644
 2.0000e+001 234771 -9.3767e+004 -6.4153e+006  2.0624e+005 96976 234618,234722,234670
 2.0000e+001 234748 -5.0265e+005 -3.6496e+006 -1.2890e+006 96976 234670,234722,234696
 2.0000e+001 234946 -5.0158e+005 -2.1703e+006  9.7632e+005 96568 234845,234897,234871
 2.0000e+001 234923 -4.3801e+005 -1.0325e+006  2.3648e+005 96568 234819,234897,234845
 2.0000e+001 235196 -6.9612e+004 -2.2261e+006  1.8172e+005 96216 234997,235075,235049
 2.0000e+001 235173 -4.3949e+005 -5.9582e+006  1.7097e+006 96216 234997,235101,235075
 2.0000e+001 235150 -9.2455e+005 -4.5899e+006  9.2103e+005 96216 234997,235049,235023
 2.0000e+001 235127 -1.8873e+005 -7.3207e+006 -1.8914e+006 96216 234971,235101,234997
 2.0000e+001 235348 -1.5427e+006 -2.3441e+006 -1.6690e+006 95863 235247,235299,235273
 2.0000e+001 235325 -8.6097e+005 -1.4857e+006 -8.5478e+005 95863 235221,235299,235247
 2.0000e+001 235500 -2.0540e+006 -4.3003e+006 -3.0213e+006 95339 235373,235425,235399
 2.0000e+001 235477 -9.0102e+005 -8.9889e+006  3.8499e+006 95339 235373,235451,235425
 2.0000e+001 235701 -3.1812e+005 -4.9177e+006  1.7534e+006 95023 235525,235577,235551
 2.0000e+001 235678 -6.0218e+004 -2.4701e+006 -1.5698e+005 95023 235525,235629,235577
 2.0000e+001 235655 -7.5278e+005 -2.5544e+006  1.4505e+005 95023 235577,235629,235603
 2.0000e+001 235853  9.3935e+005 -9.7958e+006  1.1372e+006 94671 235726,235778,235752
 2.0000e+001 235830 -3.0943e+005 -7.4554e+006 -6.1959e+005 94671 235726,235804,235778
 2.0000e+001 236005 -1.2921e+006 -7.0720e+006 -7.9249e+005 94261 235904,235956,235930
 2.0000e+001 235982 -1.9261e+006 -8.5242e+006 -2.1116e+006 94261 235878,235956,235904
 2.0000e+001 236206 -9.5493e+005 -1.9944e+006  1.4765e+006 93853 236056,236134,236082
 2.0000e+001 236183 -2.1127e+005 -1.8734e+006  1.0517e+005 93853 236030,236134,236056
 2.0000e+001 236160 -3.1870e+005 -4.2474e+006  1.1407e+006 93853 236082,236134,236108
 2.0000e+001 236407 -7.7910e+005 -6.3135e+006  2.2179e+004 93557 236257,236309,236283
 2.0000e+001 236384 -2.1477e+006 -7.0403e+006 -1.7775e+006 93557 236231,236309,236257
 2.0000e+001 236361 -7.4042e+005 -1.1435e+007 -3.7092e+005 93557 236231,236335,236309
 2.0000e+001 236559 -1.2849e+005 -6.8797e+005  3.0105e+003 93149 236432,236484,236458
 2.0000e+001 236536 -6.9048e+004 -3.7215e+005  1.4489e+004 93149 236432,236510,236484
 2.0000e+001 236711 -1.1166e+005 -2.4187e+006  7.5766e+005 92853 236584,236636,236610
 2.0000e+001 236688 -3.2665e+004 -2.2688e+006  6.9416e+005 92853 236584,236662,236636
 2.0000e+001 236912 -6.0382e+003 -4.0772e+006  1.0619e+006 92501 236736,236788,236762
 2.0000e+001 236889 -2.5416e+004 -2.4550e+006  1.2581e+005 92501 236736,236840,236788
 2.0000e+001 236866 -3.9263e+005 -3.4045e+006  5.2361e+005 92501 236788,236840,236814
 2.0000e+001 237113 -1.2730e+005 -4.1526e+006  2.0708e+005 92291 236963,237041,237015
 2.0000e+001 237090  4.0161e+004 -2.4526e+006  4.1973e+004 92291 236937,237041,236963
 2.0000e+001 237067 -1.9960e+005 -3.7832e+006  8.6782e+005 92291 236963,237015,236989
 2.0000e+001 237265 -4.3555e+005 -2.1964e+006  5.7360e+004 91871 237138,237190,237164
 2.0000e+001 237242 -1.0746e+006 -2.4815e+006 -6.0336e+005 91871 237138,237216,237190
 2.0000e+001 237368 -4.6407e+001 -3.7622e+006  1.0828e+001 91581 237290,237342,237316
 2.0000e+001 237520 -2.8185e+005 -1.4977e+006  5.6457e+005 91184 237419,237471,237445
 2.0000e+001 237497 -4.0411e+005 -1.9586e+006  1.6291e+005 91184 237393,237471,237419
 2.0000e+001 237672 -3.6718e+005 -3.2309e+006  6.9673e+005 90894 237545,237597,237571
 2.0000e+001 237649 -1.5981e+005 -3.6271e+006  8.4336e+005 90894 237545,237623,237597
 2.0000e+001 237873 -5.9039e+005 -5.0453e+006  4.7029e+005 90490 237749,237801,237775
 2.0000e+001 237850 -3.1715e+005 -4.0701e+006  6.5100e+005 90490 237723,237801,237749
 2.0000e+001 237827 -9.5555e+004 -4.0203e+006 -1.1261e+006 90490 237697,237801,237723
 2.0000e+001 238074 -8.5650e+005 -6.2482e+006  2.2612e+005 90100 237898,237976,237950
 2.0000e+001 238051 -2.0862e+006 -6.2353e+006 -1.5208e+005 90100 237898,238002,237976
 2.0000e+001 238028 -5.8332e+005 -6.4192e+006  1.1786e+004 90100 237898,237950,237924
 2.0000e+001 238275 -9.5212e+005 -4.2719e+006 -2.5367e+005 89696 238125,238177,238151
 2.0000e+001 238252 -7.0431e+005 -3.8588e+006 -9.4280e+005 89696 238099,238177,238125
 2.0000e+001 238229 -1.0061e+006 -5.2064e+006 -6.5842e+005 89696 238099,238203,238177
 2.0000e+001 238427 -1.4487e+005 -1.3482e+006  1.5877e+004 89206 238326,238378,238352
 2.0000e+001 238404  1.6101e+005 -2.3911e+006  1.6644e+005 89206 238300,238378,238326
 2.0000e+001 238579 -6.9536e+005 -4.8709e+006  4.9267e+005 88908 238452,238504,238478
 2.0000e+001 238556  3.6796e+004 -4.7487e+006  5.7843e+005 88908 238452,238530,238504
 2.0000e+001 238682 -1.4549e+002 -4.8730e+005 -3.7110e+002 88568 238604,238656,238630
 2.0000e+001 238883  2.1132e+005 -4.5035e+006  5.6294e+005 88278 238733,238811,238785
 2.0000e+001 238860 -2.1157e+005 -3.5865e+006  4.3704e+005 88278 238707,238811,238733
 2.0000e+001 238837 -1.5614e+005 -4.4557e+006  8.3336e+005 88278 238733,238785,238759
 2.0000e+001 239035 -7.2561e+005 -6.6993e+006 -2.1299e+005 87988 238908,238960,238934
 2.0000e+001 239012 -1.3397e+006 -5.4932e+006  8.7481e+005 87988 238908,238986,238960
 2.0000e+001 239138  1.4056e+004 -2.0883e+006  6.9073e+004 87648 239060,239112,239086
 2.0000e+001 239339 -9.3487e+005 -3.7243e+006 -1.8373e+006 87358 239163,239215,239189
 2.0000e+001 239316 -1.3432e+006 -4.1508e+006 -2.8440e+005 87358 239163,239241,239215
 2.0000e+001 239293 -1.1024e+006 -1.9436e+006 -1.1916e+006 87358 239163,239267,239241
 2.0000e+001 239589  5.4491e+003 -1.6085e+006  1.4387e+005 86961 239390,239468,239416
 2.0000e+001 239566  6.5626e+004 -1.5542e+006  2.1510e+005 86961 239390,239494,239468
 2.0000e+001 239543 -4.3093e+004 -4.6841e+005  7.6339e+004 86961 239416,239468,239442
 2.0000e+001 239520 -3.1949e+005 -7.6277e+005  3.3530e+005 86961 239364,239494,239390
 2.0000e+001 239741 -1.1759e+006 -4.7022e+006 -5.7905e+005 86621 239640,239692,239666
 2.0000e+001 239718 -5.0794e+005 -5.8280e+006 -1.3527e+006 86621 239614,239692,239640
 2.0000e+001 239893 -4.8628e+004 -5.0177e+006  7.0942e+005 86217 239792,239844,239818
 2.0000e+001 239870 -1.4579e+005 -3.6085e+006  1.1045e+005 86217 239766,239844,239792
 2.0000e+001 240045 -7.7425e+005 -4.8845e+006  4.2590e+005 85827 239918,239970,239944
 2.0000e+001 240022 -2.0815e+005 -4.7356e+006  2.1408e+005 85827 239918,239996,239970
 2.0000e+001 240197 -3.4211e+004 -6.0379e+006  7.8034e+005 85437 240096,240148,240122
 2.0000e+001 240174 -8.9569e+005 -3.4204e+006 -3.2178e+005 85437 240070,240148,240096
 2.0000e+001 240349 -1.5067e+005 -1.7837e+006  7.0931e+005 85147 240222,240274,240248
 2.0000e+001 240326 -1.2043e+005 -8.8888e+005 -1.2129e+005 85147 240222,240300,240274
 2.0000e+001 240501 -8.5058e+005 -2.6005e+006  6.4674e+005 84807 240374,240426,240400
 2.0000e+001 240478 -1.3346e+006 -2.9018e+006  8.9939e+005 84807 240374,240452,240426
 2.0000e+001 240653 -1.0834e+004 -3.4151e+005 -5.8991e+004 84303 240552,240604,240578
 2.0000e+001 240630 -9.6004e+003 -3.3646e+005 -5.8629e+004 84303 240526,240604,240552
 2.0000e+001 240854 -7.7975e+004 -8.8041e+006 -2.4562e+006 83929 240704,240756,240730
 2.0000e+001 240831  8.6295e+005 -7.7962e+006  9.8864e+005 83929 240704,240782,240756
 2.0000e+001 240808 -1.7126e+006 -8.8427e+005  1.4206e+006 83929 240678,240782,240704
 2.0000e+001 241055  2.1333e+003 -9.5701e+005 -5.9094e+004 83539 240879,240957,240931
 2.0000e+001 241032 -3.0264e+005 -1.1299e+006  1.2398e+005 83539 240879,240983,240957
 2.0000e+001 241009 -1.6499e+005 -4.9893e+005 -7.0812e+004 83539 240879,240931,240905
 2.0000e+001 241207  1.5209e+005 -2.3639e+006  1.8440e+005 83079 241106,241158,241132
 2.0000e+001 241184 -2.4844e+005 -7.4089e+005  2.6018e+005 83079 241080,241158,241106
 2.0000e+001 241408  1.1169e+006 -4.8068e+006  5.0126e+005 82665 241232,241284,241258
 2.0000e+001 241385 -1.7350e+006 -1.3794e+007 -4.0454e+006 82665 241232,241336,241284
 2.0000e+001 241362 -4.2839e+006  4.9245e+006  7.1546e+006 82665 241284,241336,241310
 2.0000e+001 241658 -1.7336e+005 -4.1163e+006  3.3134e+005 82375 241485,241563,241511
 2.0000e+001 241635  9.0578e+004 -2.9948e+006  3.7216e+005 82375 241433,241563,241485
 2.0000e+001 241612 -3.8605e+004 -3.4235e+006  4.6902e+005 82375 241433,241485,241459
 2.0000e+001 241589 -4.8189e+005 -4.7790e+006  6.0752e+005 82375 241511,241563,241537
 2.0000e+001 241810 -1.0566e+006 -3.9855e+006  9.7201e+004 82035 241683,241735,241709
 2.0000e+001 241787 -1.1807e+006 -4.3224e+006  5.2606e+005 82035 241683,241761,241735
 2.0000e+001 241962 -8.4865e+005 -4.0755e+006  2.8578e+005 81695 241861,241913,241887
 2.0000e+001 241939 -7.3150e+005 -4.5248e+006 -5.0298e+005 81695 241835,241913,241861
 2.0000e+001 242114 -1.1682e+006 -5.2298e+006  5.2144e+005 81355 242013,242065,242039
 2.0000e+001 242091 -7.6552e+005 -3.7256e+006  3.1468e+005 81355 241987,242065,242013
 2.0000e+001 242266 -1.1026e+005 -9.7542e+005 -1.4222e+005 80951 242139,242191,242165
 2.0000e+001 242243 -1.2723e+005 -1.0764e+006 -5.0787e+004 80951 242139,242217,242191
 2.0000e+001 242467 -1.8782e+005 -4.6728e+006  5.3194e+005 80311 242291,242369,242343
 2.0000e+001 242444  1.2943e+005 -3.5615e+006  3.6995e+005 80311 242291,242395,242369
 2.0000e+001 242421 -2.3148e+005 -3.6687e+006  3.0126e+005 80311 242291,242343,242317
 2.0000e+001 242619 -1.2767e+006 -3.3092e+006 -1.5267e+005 80021 242492,242544,242518
 2.0000e+001 242596 -1.1236e+006 -2.7357e+006  1.1523e+005 80021 242492,242570,242544
 2.0000e+001 242869 -1.8798e+005 -1.3857e+006  2.1978e+005 79631 242644,242722,242696
 2.0000e+001 242846 -7.3953e+003 -1.5363e+006  2.0111e+005 79631 242644,242774,242722
 2.0000e+001 242823 -1.5392e+005 -2.0470e+006  3.0205e+005 79631 242722,242774,242748
 2.0000e+001 242800 -2.5438e+005 -1.6399e+006  1.9895e+005 79631 242644,242696,242670
 2.0000e+001 243070  2.0324e+005 -1.2174e+007  2.1267e+006 79341 242920,242972,242946
 2.0000e+001 243047 -6.5847e+005 -6.6796e+006 -5.5780e+005 79341 242920,242998,242972
 2.0000e+001 243024 -7.3808e+005 -4.1364e+006  1.7477e+006 79341 242894,242998,242920
 2.0000e+001 243222 -2.8318e+004 -2.1386e+006  6.6180e+005 78801 243121,243173,243147
 2.0000e+001 243199 -4.4639e+005 -3.5950e+006  1.0141e+006 78801 243095,243173,243121
 2.0000e+001 243423 -3.8691e+005 -7.4617e+006 -3.5384e+005 78511 243273,243325,243299
 2.0000e+001 243400 -2.3744e+005 -9.7929e+006  9.2531e+005 78511 243273,243351,243325
 2.0000e+001 243377 -5.7547e+003 -9.7773e+006  2.4140e+005 78511 243247,243351,243273
 2.0000e+001 243624 -3.4420e+005 -3.3570e+006 -4.8271e+005 78107 243474,243552,243526
 2.0000e+001 243601 -4.6329e+005 -3.1218e+006 -7.0251e+005 78107 243448,243552,243474
 2.0000e+001 243578 -7.7355e+005 -4.6335e+006 -1.6862e+006 78107 243474,243526,243500
 2.0000e+001 243776 -9.7198e+005 -4.7275e+006 -1.3644e+006 77653 243649,243701,243675
 2.0000e+001 243753 -2.1261e+006 -7.5751e+006 -4.2556e+005 77653 243649,243727,243701
 2.0000e+001 243977 -5.1310e+005 -5.6048e+006 -5.0979e+002 77093 243801,243853,243827
 2.0000e+001 243954 -1.6976e+005 -4.5118e+006  5.0906e+005 77093 243801,243879,243853
 2.0000e+001 243931  6.2127e+004 -4.2518e+006  3.6078e+005 77093 243801,243905,243879
 2.0000e+001 244080 -1.6686e+006 -5.1735e+006  1.4629e+005 76791 244002,244054,244028
 2.0000e+001 244232 -1.1973e+005 -5.8177e+006  2.8478e+005 76311 244131,244183,244157
 2.0000e+001 244209  8.7297e+004 -8.8357e+006  7.5511e+005 76311 244105,244183,244131
 2.0000e+001 244433 -9.6672e+005 -1.2129e+007  1.3156e+006 75903 244283,244335,244309
 2.0000e+001 244410 -3.2870e+005 -1.0540e+007  1.6020e+005 75903 244283,244361,244335
 2.0000e+001 244387 -1.6825e+006 -8.4717e+006  1.7075e+006 75903 244257,244361,244283
 2.0000e+001 244585  4.1876e+004 -1.2675e+007  8.1023e+005 75419 244458,244510,244484
 2.0000e+001 244562 -4.4835e+005 -9.0296e+006  2.1469e+004 75419 244458,244536,244510
 2.0000e+001 244737 -3.5720e+005 -1.8909e+006 -1.4341e+005 75215 244636,244688,244662
 2.0000e+001 244714 -2.1755e+005 -5.3680e+006 -1.5157e+005 75215 244610,244688,244636
 2.0000e+001 244889 -1.1057e+006 -4.8710e+006 -4.5435e+005 74857 244788,244840,244814
 2.0000e+001 244866 -5.9777e+005 -3.0480e+006 -1.0397e+005 74857 244762,244840,244788
 2.0000e+001 245041  3.2911e+004 -3.4582e+005 -8.3198e+004 74653 244940,244992,244966
 2.0000e+001 245018 -1.1250e+004 -2.5939e+005  3.7050e+004 74653 244914,244992,244940
 2.0000e+001 245144 -5.1037e+003 -6.2339e+006 -5.6480e+005 74359 245066,245118,245092
 2.0000e+001 245296 -5.0756e+005 -3.2613e+006 -9.2790e+005 74007 245169,245221,245195
 2.0000e+001 245273 -5.4399e+005 -3.7182e+006 -9.0143e+005 74007 245169,245247,245221
 2.0000e+001 245448 -1.4106e+006 -7.0499e+006  2.7368e+006 73711 245321,245373,245347
 2.0000e+001 245425 -3.6329e+005 -6.7801e+006 -2.3173e+006 73711 245321,245399,245373
 2.0000e+001 245600  7.8686e+005 -1.0658e+007 -1.3399e+006 73301 245499,245551,245525
 2.0000e+001 245577 -1.3658e+006 -7.2399e+006  1.4140e+006 73301 245473,245551,245499
 2.0000e+001 245752 -8.4509e+005 -2.7105e+006 -1.1424e+006 72995 245625,245677,245651
 2.0000e+001 245729  7.4115e+005 -8.1683e+006 -1.0991e+006 72995 245625,245703,245677
 2.0000e+001 245953 -2.3047e+006 -1.0141e+007  6.4832e+005 72585 245777,245829,245803
 2.0000e+001 245930 -1.2510e+006 -1.0622e+007  1.9726e+006 72585 245777,245855,245829
 2.0000e+001 245907 -7.8414e+005 -9.7224e+006  1.5646e+006 72585 245777,245881,245855
 2.0000e+001 246154 -2.9383e+005 -5.4083e+006  1.1202e+006 72127 246030,246082,246056
 2.0000e+001 246131 -1.0094e+006 -7.5128e+006  5.8360e+005 72127 245978,246082,246030
 2.0000e+001 246108 -1.1573e+005 -7.6489e+006  1.0678e+005 72127 245978,246030,246004
 2.0000e+001 246257 -1.2664e+006 -2.8882e+006 -3.5274e+004 71737 246179,246231,246205
 2.0000e+001 246360 -1.9820e+005 -2.9495e+006  3.2177e+005 71447 246282,246334,246308
 2.0000e+001 246512 -3.0790e+005 -2.7576e+006  8.3412e+005 71157 246385,246437,246411
 2.0000e+001 246489 -1.0356e+005 -2.4652e+006  3.6170e+005 71157 246385,246463,246437
 2.0000e+001 246664 -1.4945e+005 -2.8595e+006 -2.5820e+005 70753 246537,246589,246563
 2.0000e+001 246641 -5.5003e+005 -1.7826e+006 -8.5854e+004 70753 246537,246615,246589
 2.0000e+001 246865 -1.2796e+006 -7.8397e+006  4.1270e+006 70249 246715,246767,246741
 2.0000e+001 246842 -1.7948e+006 -7.0907e+006  7.8863e+004 70249 246715,246793,246767
 2.0000e+001 246819 -6.4744e+005 -9.6549e+006 -1.5958e+006 70249 246689,246793,246715
 2.0000e+001 247066 -1.1818e+005 -2.2033e+006  4.0261e+005 70023 246916,246994,246942
 2.0000e+001 247043  7.2079e+004 -2.6376e+006  2.2531e+005 70023 246890,246994,246916
 2.0000e+001 247020 -1.0155e+005 -1.9726e+006  2.5614e+005 70023 246942,246994,246968
 2.0000e+001 247267 -3.3668e+005 -4.3865e+006 -4.4175e+005 69633 247091,247143,247117
 2.0000e+001 247244 -1.0371e+005 -3.4759e+006 -2.9241e+005 69633 247091,247169,247143
 2.0000e+001 247221 -4.0789e+004 -2.8073e+006 -2.4416e+005 69633 247091,247195,247169
 2.0000e+001 247419 -8.8534e+005 -5.5574e+006  7.6356e+005 69457 247318,247370,247344
 2.0000e+001 247396 -1.0283e+006 -4.0737e+006  8.8077e+005 69457 247292,247370,247318
 2.0000e+001 247522 -6.2926e+000 -2.7300e+004  1.3183e+002 69209 247444,247496,247470
 2.0000e+001 247625 -1.5446e+006 -1.5632e+006 -4.4573e+005 68919 247547,247599,247573
 2.0000e+001 247777  3.4094e+005 -5.6432e+006 -4.3402e+005 68579 247650,247702,247676
 2.0000e+001 247754 -2.5589e+005 -2.3108e+006 -9.2362e+004 68579 247650,247728,247702
 2.0000e+001 247929 -5.5992e+005 -3.8584e+006  1.7146e+006 68289 247802,247854,247828
 2.0000e+001 247906 -4.2643e+005 -3.0005e+006  9.5914e+005 68289 247802,247880,247854
 2.0000e+001 248081 -2.8700e+005 -4.4485e+006  1.0381e+006 67949 247980,248032,248006
 2.0000e+001 248058 -4.7261e+005 -1.2300e+006 -1.2696e+004 67949 247954,248032,247980
 2.0000e+001 248233 -1.7333e+006 -5.6809e+006 -7.0111e+005 67616 248132,248184,248158
 2.0000e+001 248210 -6.6306e+005 -6.2357e+006 -4.5516e+005 67616 248106,248184,248132
 2.0000e+001 248434 -1.3046e+005 -3.6304e+006 -2.2212e+005 67212 248284,248336,248310
 2.0000e+001 248411 -4.0966e+004 -3.6748e+006 -4.4983e+005 67212 248258,248336,248284
 2.0000e+001 248388 -1.2661e+006 -2.6720e+006 -4.6074e+005 67212 248258,248362,248336
 2.0000e+001 248586 -2.5788e+004 -4.5128e+006  3.7278e+005 66872 248485,248537,248511
 2.0000e+001 248563 -7.2768e+005 -1.7144e+006 -2.6827e+005 66872 248459,248537,248485
 2.0000e+001 248738 -2.2344e+005 -5.1129e+006  9.6727e+004 66510 248637,248689,248663
 2.0000e+001 248715 -3.2924e+005 -8.3505e+006  1.8478e+005 66510 248611,248689,248637
 2.0000e+001 248890 -3.0517e+004 -7.1478e+005  1.4730e+005 66220 248789,248841,248815
 2.0000e+001 248867 -2.5856e+005 -9.6842e+005 -2.4828e+005 66220 248763,248841,248789
 2.0000e+001 249091 -6.1144e+005 -6.6324e+006  1.9324e+006 65759 248915,248967,248941
 2.0000e+001 249068 -4.2475e+005 -5.8895e+006  1.9116e+006 65759 248915,248993,248967
 2.0000e+001 249045 -1.1810e+005 -4.3467e+006  8.9280e+005 65759 248915,249019,248993
 2.0000e+001 249243 -2.3350e+005 -8.1147e+006  1.8220e+006 65419 249142,249194,249168
 2.0000e+001 249220 -4.1586e+005 -4.4771e+006  4.8423e+005 65419 249116,249194,249142
 2.0000e+001 249395 -3.9232e+005 -2.8187e+006 -3.6468e+005 65079 249268,249320,249294
 2.0000e+001 249372 -4.0537e+005 -3.4188e+006 -5.2666e+005 65079 249268,249346,249320
 2.0000e+001 249547 -4.7613e+004 -7.5601e+005 -2.8389e+004 64739 249420,249472,249446
 2.0000e+001 249524 -3.8284e+005 -8.8082e+005  9.4178e+004 64739 249420,249498,249472
 2.0000e+001 249650 -1.2215e+006 -4.8975e+006 -2.0765e+006 64342 249572,249624,249598
 2.0000e+001 249851 -1.6676e+006 -6.8580e+006 -1.3809e+006 63938 249701,249779,249753
 2.0000e+001 249828 -1.0436e+006 -7.3959e+006  2.7370e+006 63938 249675,249779,249701
 2.0000e+001 249805 -1.1529e+006 -2.2543e+007 -6.7767e+005 63938 249701,249753,249727
 2.0000e+001 250052 -7.4737e+005 -5.5296e+006 -3.9865e+005 63341 249876,249954,249902
 2.0000e+001 250029 -1.0320e+006 -5.5432e+006 -8.3172e+004 63341 249876,249980,249954
 2.0000e+001 250006  7.2395e+005 -6.7478e+006  6.1055e+005 63341 249902,249954,249928
 2.0000e+001 250253 -2.6269e+005 -1.2946e+007 -1.6814e+006 63058 250077,250129,250103
 2.0000e+001 250230 -1.1709e+006 -7.0442e+006 -4.0913e+005 63058 250077,250155,250129
 2.0000e+001 250207 -5.3753e+005 -6.6324e+006 -8.8446e+005 63058 250077,250181,250155
 2.0000e+001 250454 -1.0556e+006 -7.4989e+006  1.5035e+006 62832 250304,250382,250330
 2.0000e+001 250431  2.5731e+005 -9.3735e+006 -2.3591e+006 62832 250278,250382,250304
 2.0000e+001 250408 -2.4433e+006 -4.7428e+006  4.6896e+005 62832 250330,250382,250356
 2.0000e+001 250606  6.3615e+004 -1.0517e+007 -3.8048e+005 62428 250479,250531,250505
 2.0000e+001 250583  8.3082e+004 -1.0039e+007 -5.0629e+005 62428 250479,250557,250531
 2.0000e+001 250758 -2.6336e+005 -7.3691e+006  8.4388e+005 62202 250631,250683,250657
 2.0000e+001 250735 -1.5657e+005 -8.2140e+006  2.1129e+006 62202 250631,250709,250683
 2.0000e+001 250861 -1.6161e+006 -2.8878e+006  4.0037e+004 61954 250783,250835,250809
 2.0000e+001 251062 -1.8791e+006 -8.2119e+006 -5.6298e+005 61557 250912,250990,250938
 2.0000e+001 251039 -5.9375e+004 -1.0136e+007 -5.9147e+005 61557 250886,250990,250912
 2.0000e+001 251016 -1.4659e+006 -9.5671e+006 -1.4996e+006 61557 250938,250990,250964
 2.0000e+001 251263 -1.1598e+006 -7.7916e+006  2.3627e+004 61167 251113,251165,251139
 2.0000e+001 251240 -4.1919e+005 -7.4922e+006 -3.7641e+005 61167 251113,251191,251165
 2.0000e+001 251217 -1.1232e+006 -7.2170e+006  2.2223e+006 61167 251087,251191,251113
 2.0000e+001 251415 -8.1830e+005 -3.1869e+006  7.4083e+005 60827 251288,251340,251314
 2.0000e+001 251392 -4.8709e+005 -1.4697e+006 -1.6865e+005 60827 251288,251366,251340
 2.0000e+001 251567  1.2228e+005 -5.5245e+006  6.1187e+005 60487 251466,251518,251492
 2.0000e+001 251544 -4.6736e+004 -3.6890e+006 -3.1611e+005 60487 251440,251518,251466
 2.0000e+001 251719  1.7020e+005 -1.0055e+007 -4.9076e+004 59983 251592,251644,251618
 2.0000e+001 251696 -6.9884e+005 -8.1221e+006  1.5379e+005 59983 251592,251670,251644
 2.0000e+001 251920  4.2126e+004 -2.0546e+006  4.8607e+004 59807 251770,251848,251796
 2.0000e+001 251897  3.2720e+004 -1.8865e+006 -8.7716e+003 59807 251744,251848,251770
 2.0000e+001 251874  1.0134e+004 -2.3568e+006 -5.2808e+004 59807 251796,251848,251822
 2.0000e+001 252023 -3.2064e+005 -4.6041e+006  5.0105e+004 59517 251945,251997,251971
 2.0000e+001 252175  6.5247e+005 -8.0968e+006 -6.1214e+005 59269 252074,252126,252100
 2.0000e+001 252152 -1.1151e+006  2.1606e+006  9.4029e+005 59269 252048,252126,252074
 2.0000e+001 252278 -3.8792e+005 -2.1306e+006  9.4103e+005 58979 252200,252252,252226
 2.0000e+001 252381 -2.2227e+006 -2.8417e+006  1.1394e+006 58689 252303,252355,252329
 2.0000e+001 252533 -9.6664e+005 -5.1014e+006 -8.1981e+004 58249 252432,252484,252458
 2.0000e+001 252510 -8.7033e+005 -5.6731e+006 -8.4517e+005 58249 252406,252484,252432
 2.0000e+001 252734 -3.6890e+005 -4.6269e+006  1.8269e+005 57902 252584,252662,252610
 2.0000e+001 252711  8.3763e+005 -5.4850e+006 -1.0910e+005 57902 252558,252662,252584
 2.0000e+001 252688 -2.8297e+005 -3.3973e+006 -3.6294e+005 57902 252610,252662,252636
 2.0000e+001 252886 -1.5768e+005 -4.3460e+006 -1.4671e+005 57540 252785,252837,252811
 2.0000e+001 252863  1.3150e+005 -4.6775e+006 -1.5815e+005 57540 252759,252837,252785
 2.0000e+001 253038 -5.8961e+005 -5.6788e+006  1.3104e+006 57086 252937,252989,252963
 2.0000e+001 253015 -3.1706e+005 -2.6774e+006  2.6227e+005 57086 252911,252989,252937
 2.0000e+001 253239 -4.9285e+005 -4.8952e+006 -1.3025e+006 56796 253063,253141,253115
 2.0000e+001 253216  2.3070e+005 -5.7752e+006 -2.1361e+005 56796 253063,253167,253141
 2.0000e+001 253193 -1.0617e+006 -2.9025e+006 -9.9975e+005 56796 253063,253115,253089
 2.0000e+001 253342 -5.7860e+005 -4.8858e+006  4.7583e+005 56349 253264,253316,253290
 2.0000e+001 253543 -8.5582e+005 -8.4700e+006 -6.2369e+005 56009 253367,253419,253393
 2.0000e+001 253520 -5.9739e+005 -5.3964e+006 -3.4638e+005 56009 253367,253445,253419
 2.0000e+001 253497 -3.2977e+005 -6.4766e+006  1.5018e+005 56009 253367,253471,253445
 2.0000e+001 253695 -2.4918e+004 -4.0384e+006  2.5779e+004 55733 253594,253646,253620
 2.0000e+001 253672 -1.9848e+005 -3.0729e+006  4.3198e+004 55733 253568,253646,253594
 2.0000e+001 253798 -5.0626e+005 -2.3017e+006 -1.2564e+005 55557 253720,253772,253746
 2.0000e+001 253950 -5.9018e+005 -4.2382e+006  4.0642e+005 55153 253849,253901,253875
 2.0000e+001 253927  2.3938e+005 -4.8211e+006 -3.3175e+005 55153 253823,253901,253849
 2.0000e+001 254151 -1.2295e+006 -4.7732e+006  7.9038e+005 54863 253975,254053,254001
 2.0000e+001 254128 -6.6423e+005 -4.7775e+006  1.0465e+005 54863 253975,254079,254053
 2.0000e+001 254105 -4.9125e+005 -3.9021e+006  2.6946e+005 54863 254001,254053,254027
 2.0000e+001 254303  1.4169e+005 -5.4030e+006  1.3742e+005 54373 254176,254228,254202
 2.0000e+001 254280 -7.9018e+005 -4.1385e+006  1.7729e+005 54373 254176,254254,254228
 2.0000e+001 254455 -2.4632e+005 -5.1799e+006 -3.6190e+005 53975 254354,254406,254380
 2.0000e+001 254432 -7.7258e+005 -1.6785e+006  9.9355e+004 53975 254328,254406,254354
 2.0000e+001 254607 -3.6921e+005 -4.9434e+006 -4.1338e+005 53585 254480,254532,254506
 2.0000e+001 254584 -3.7507e+005 -4.7376e+006 -4.5088e+005 53585 254480,254558,254532
 2.0000e+001 254808 -8.6703e+005 -3.7302e+006  3.0615e+004 53245 254658,254736,254684
 2.0000e+001 254785 -1.0292e+006 -2.0894e+006 -3.4746e+005 53245 254632,254736,254658
 2.0000e+001 254762 -4.5429e+005 -2.5470e+006 -2.7107e+005 53245 254684,254736,254710
 2.0000e+001 254911 -3.4170e+005 -5.6254e+006 -2.4633e+004 52955 254833,254885,254859
 2.0000e+001 255063 -7.3582e+005 -5.8513e+006 -8.8742e+004 52551 254962,255014,254988
 2.0000e+001 255040 -6.5375e+005 -6.3878e+006 -3.0602e+005 52551 254936,255014,254962
 2.0000e+001 255264 -9.6267e+005 -1.7214e+006  1.5176e+005 52261 255114,255166,255140
 2.0000e+001 255241 -1.1869e+006 -4.3569e+006  9.7912e+005 52261 255114,255192,255166
 2.0000e+001 255218  1.3060e+005 -7.6065e+006 -1.9905e+006 52261 255088,255192,255114
 2.0000e+001 255416 -3.8687e+005 -4.8812e+006  1.4978e+006 51971 255289,255341,255315
 2.0000e+001 255393 -2.8357e+005 -4.4984e+006 -1.4873e+005 51971 255289,255367,255341
 2.0000e+001 255568 -9.4056e+005 -2.2082e+006 -3.1238e+005 51681 255441,255493,255467
 2.0000e+001 255545  1.4783e+005 -8.3677e+006  7.2416e+005 51681 255441,255519,255493
 2.0000e+001 255769 -2.4741e+005 -3.7284e+006 -7.7153e+004 51291 255619,255697,255671
 2.0000e+001 255746 -2.1547e+005 -3.3419e+006 -3.5704e+005 51291 255593,255697,255619
 2.0000e+001 255723 -1.4599e+005 -5.2017e+006 -4.0461e+005 51291 255619,255671,255645
 2.0000e+001 255921 -4.3210e+005 -3.1420e+006  7.6063e+005 50951 255820,255872,255846
 2.0000e+001 255898 -2.5025e+005 -2.6173e+006  1.4727e+005 50951 255794,255872,255820
 2.0000e+001 256171 -1.1872e+006 -4.4302e+006  7.2911e+004 50547 256024,256076,256050
 2.0000e+001 256148 -9.1593e+005 -4.5680e+006  4.9919e+005 50547 255972,256076,256024
 2.0000e+001 256125 -2.1920e+005 -5.2673e+006 -2.0074e+004 50547 255946,256076,255972
 2.0000e+001 256102 -8.2755e+005 -4.0042e+006  2.9466e+005 50547 255972,256024,255998
 2.0000e+001 256323  2.3327e+005 -5.1759e+006  8.8270e+005 50093 256196,256248,256222
 2.0000e+001 256300 -8.7402e+005 -2.8133e+006 -9.7520e+005 50093 256196,256274,256248
 2.0000e+001 256426  2.4985e+002 -1.6455e+005  3.2593e+002 49845 256348,256400,256374
 2.0000e+001 256627 -1.4930e+005 -5.1871e+006  2.0346e+005 49555 256477,256555,256503
 2.0000e+001 256604 -3.3607e+005 -4.3049e+006  1.6374e+005 49555 256451,256555,256477
 2.0000e+001 256581 -4.2009e+005 -4.3881e+006  3.5779e+005 49555 256503,256555,256529
 2.0000e+001 256828 -4.6468e+005 -3.6131e+006 -1.2312e+005 49056 256652,256730,256678
 2.0000e+001 256805 -4.9395e+005 -3.2896e+006 -1.0508e+005 49056 256652,256756,256730
 2.0000e+001 256782 -5.7516e+005 -3.3058e+006 -3.2496e+005 49056 256678,256730,256704
 2.0000e+001 256931 -9.6969e+005 -1.8751e+006 -7.6054e+005 48766 256853,256905,256879
 2.0000e+001 257083 -7.7056e+005 -4.8056e+006 -5.4747e+005 48568 256982,257034,257008
 2.0000e+001 257060 -5.8414e+005 -4.0453e+006 -6.4068e+005 48568 256956,257034,256982
 2.0000e+001 257186 -2.4247e+003 -1.6591e+006  1.3906e+003 48228 257108,257160,257134
 2.0000e+001 257338 -4.1179e+005 -2.0029e+006  5.8283e+005 47888 257237,257289,257263
 2.0000e+001 257315 -4.5722e+005 -2.0309e+006  5.1362e+005 47888 257211,257289,257237
 2.0000e+001 257539 -3.0570e+005 -4.2199e+006  1.3070e+005 47548 257363,257441,257415
 2.0000e+001 257516 -5.8190e+005 -4.0541e+006 -2.0277e+005 47548 257363,257467,257441
 2.0000e+001 257493 -5.6358e+005 -3.0839e+006 -1.5597e+005 47548 257363,257415,257389
 2.0000e+001 257740 -2.4455e+005 -4.6676e+006  4.4812e+005 46994 257564,257642,257616
 2.0000e+001 257717 -4.4126e+005 -3.8939e+006  1.6455e+005 46994 257564,257668,257642
 2.0000e+001 257694 -7.2985e+005 -4.9628e+006  6.5027e+004 46994 257564,257616,257590
 2.0000e+001 257843 -1.0819e+006 -3.3947e+006  9.3770e+004 46654 257765,257817,257791
 2.0000e+001 257995 -7.6403e+005 -3.4182e+006  3.2766e+005 46364 257894,257946,257920
 2.0000e+001 257972 -6.8076e+005 -4.2769e+006 -1.5294e+005 46364 257868,257946,257894
 2.0000e+001 258147 -1.8956e+005 -3.4881e+006  2.6588e+005 46024 258046,258098,258072
 2.0000e+001 258124 -3.6520e+005 -3.2706e+006  3.1712e+005 46024 258020,258098,258046
 2.0000e+001 258250 -7.1530e+005 -2.9392e+006  9.2808e+005 45741 258172,258224,258198
 2.0000e+001 258402 -1.6210e+005 -3.0822e+006  2.6567e+005 45401 258301,258353,258327
 2.0000e+001 258379 -5.0544e+005 -2.3844e+006  1.8914e+005 45401 258275,258353,258301
 2.0000e+001 258603 -6.5482e+005 -2.1202e+006  3.3897e+004 45071 258427,258505,258479
 2.0000e+001 258580 -2.5615e+005 -4.8342e+006  3.3267e+005 45071 258427,258531,258505
 2.0000e+001 258557 -2.1650e+005 -2.7354e+006  2.5143e+005 45071 258427,258479,258453
 2.0000e+001 258755 -1.6397e+005 -3.9749e+006 -2.6291e+005 44681 258654,258706,258680
 2.0000e+001 258732 -2.0388e+005 -4.0685e+006 -2.9443e+005 44681 258628,258706,258654
 2.0000e+001 258907 -4.9381e+005 -2.4268e+006 -1.9998e+005 44157 258806,258858,258832
 2.0000e+001 258884 -4.9867e+005 -2.4279e+006 -2.0166e+005 44157 258780,258858,258806
 2.0000e+001 259010 -6.3331e+005 -1.6701e+006  2.7225e+003 43705 258932,258984,258958
 2.0000e+001 259113 -2.7956e+005 -4.3069e+006  3.6455e+005 43284 259035,259087,259061
 2.0000e+001 259216 -5.2853e+005 -3.7041e+006 -2.1212e+005 42954 259138,259190,259164
 2.0000e+001 259319 -9.0640e+005 -2.0020e+006 -2.1209e+003 42116 259241,259293,259267
 2.0000e+001 259422 -3.6997e+005 -3.4816e+006 -2.2322e+005 41804 259344,259396,259370
 2.0000e+001 259525 -6.1788e+005 -5.8303e+006  7.7757e+005 41219 259447,259499,259473
 2.0000e+001 259628 -8.2007e+005 -3.0766e+006 -3.4338e+005 385 259550,259602,259576
 2.2000e+001 190120 -8.9766e+005 -1.9441e+006  1.4794e+005 189630 189993,190045,190019
 2.2000e+001 190097 -4.7179e+005 -1.9236e+006  2.4076e+005 189630 189993,190071,190045
 2.2000e+001 190319 -1.1297e+006 -4.9479e+006  2.3282e+004 189312 190169,190221,190195
 2.2000e+001 190296 -4.8323e+005 -4.2280e+006 -6.0420e+005 189312 190169,190247,190221
 2.2000e+001 190273 -7.5253e+005 -3.9439e+006  2.3798e+004 189312 190143,190247,190169
 2.2000e+001 190518 -5.0795e+005 -2.4980e+006 -6.1207e+005 189124 190368,190446,190420
 2.2000e+001 190495 -8.1220e+005 -1.2910e+006  3.0517e+005 189124 190342,190446,190368
 2.2000e+001 190472 -1.9132e+006 -2.6225e+006 -1.3174e+006 189124 190368,190420,190394
 2.2000e+001 190619 -4.9265e+005 -2.7260e+005 -1.3876e+004 188926 190541,190593,190567
 2.2000e+001 190771 -3.6332e+005 -3.3661e+006 -3.8757e+005 188614 190670,190722,190696
 2.2000e+001 190748 -1.9200e+005 -1.3826e+006  2.0194e+005 188614 190644,190722,190670
 2.2000e+001 190972 -6.3196e+004 -3.1517e+006 -4.1108e+005 188324 190848,190900,190874
 2.2000e+001 190949 -2.0995e+005 -2.5178e+006 -6.8336e+004 188324 190796,190900,190848
 2.2000e+001 190926 -6.1985e+005 -3.8818e+006 -4.3379e+005 188324 190796,190848,190822
 2.2000e+001 191124 -5.3533e+005 -2.0472e+006 -1.5522e+005 188034 191023,191075,191049
 2.2000e+001 191101 -3.1786e+005 -2.0181e+006 -1.8795e+005 188034 190997,191075,191023
 2.2000e+001 191276 -2.1791e+005 -2.5120e+006 -1.5346e+005 187836 191149,191201,191175
 2.2000e+001 191253 -4.5269e+005 -2.0142e+006  1.0268e+005 187836 191149,191227,191201
 2.2000e+001 191379 -3.9537e+005 -1.4107e+006 -1.5061e+005 187546 191301,191353,191327
 2.2000e+001 191531 -1.1597e+005 -6.9190e+006 -2.1190e+006 187256 191430,191482,191456
 2.2000e+001 191508 -5.6477e+005 -5.2616e+006  2.4400e+005 187256 191404,191482,191430
 2.2000e+001 191634 -2.3901e+005 -3.5537e+006 -2.5867e+005 187058 191556,191608,191582
 2.2000e+001 191835 -1.1191e+004 -2.4402e+006  2.4544e+005 186860 191659,191711,191685
 2.2000e+001 191812 -3.7692e+005 -1.0678e+006  4.7980e+005 186860 191659,191737,191711
 2.2000e+001 191789 -1.3327e+005 -6.5995e+005  6.7500e+004 186860 191659,191763,191737
 2.2000e+001 191987 -5.0631e+005 -2.6000e+006 -2.1486e+005 186662 191886,191938,191912
 2.2000e+001 191964 -4.5424e+005 -2.3536e+006 -3.9323e+005 186662 191860,191938,191886
 2.2000e+001 192090 -7.8717e+005 -1.6371e+006  7.8416e+004 186486 192012,192064,192038
 2.2000e+001 192242 -5.1992e+005 -6.2318e+006  1.7315e+004 186288 192115,192167,192141
 2.2000e+001 192219 -4.4464e+005 -5.6270e+006  1.9160e+005 186288 192115,192193,192167
 2.2000e+001 192394 -1.4116e+005 -5.4801e+006 -3.0760e+005 185935 192293,192345,192319
 2.2000e+001 192371 -4.0768e+005 -4.7287e+006 -4.7175e+005 185935 192267,192345,192293
 2.2000e+001 192546 -6.8364e+005 -2.1260e+006 -1.4542e+005 185675 192419,192471,192445
 2.2000e+001 192523 -3.4999e+005 -2.4431e+006 -7.5424e+003 185675 192419,192497,192471
 2.2000e+001 192649 -4.2230e+005 -1.7044e+006  1.1512e+005 185499 192571,192623,192597
 2.2000e+001 192801 -1.2000e+006 -1.9729e+006  1.1834e+004 185301 192674,192726,192700
 2.2000e+001 192778 -6.2300e+005 -1.7884e+006 -1.4477e+005 185301 192674,192752,192726
 2.2000e+001 193002 -1.5425e+005 -3.1489e+006 -5.1827e+005 185046 192852,192930,192878
 2.2000e+001 192979 -4.2899e+005 -4.1978e+006 -4.2963e+005 185046 192826,192930,192852
 2.2000e+001 192956  3.7412e+005 -5.1651e+006  9.4969e+004 185046 192878,192930,192904
 2.2000e+001 193203 -1.8073e+006 -3.5977e+006 -5.7936e+005 184798 193079,193131,193105
 2.2000e+001 193180  1.0442e+005 -6.4209e+006 -1.5090e+006 184798 193027,193131,193079
 2.2000e+001 193157 -2.1848e+005 -6.7272e+006  1.4792e+006 184798 193027,193079,193053
 2.2000e+001 193404 -3.0843e+005 -4.7998e+006 -1.1094e+006 184600 193254,193306,193280
 2.2000e+001 193381 -9.8456e+005 -2.7384e+006  2.0258e+005 184600 193254,193332,193306
 2.2000e+001 193358 -1.1301e+006 -2.1237e+006  6.5421e+004 184600 193228,193332,193254
 2.2000e+001 193556 -1.0227e+005 -3.3154e+006 -1.4954e+005 184402 193429,193481,193455
 2.2000e+001 193533 -8.8332e+005 -1.9950e+006 -1.1458e+006 184402 193429,193507,193481
 2.2000e+001 193708 -6.0006e+005 -4.8775e+006 -4.4157e+005 184204 193607,193659,193633
 2.2000e+001 193685 -9.0914e+005 -5.8964e+006 -8.0196e+005 184204 193581,193659,193607
 2.2000e+001 193860 -2.8220e+005 -2.4727e+006  9.9082e+004 183908 193759,193811,193785
 2.2000e+001 193837 -1.6359e+005 -2.2849e+006  1.8561e+005 183908 193733,193811,193759
 2.2000e+001 194061 -3.1045e+005 -1.8782e+006 -2.1651e+005 183710 193911,193989,193937
 2.2000e+001 194038 -5.5716e+005 -1.6744e+006  1.6286e+005 183710 193885,193989,193911
 2.2000e+001 194015 -2.0257e+005 -2.7318e+006 -9.0126e+004 183710 193937,193989,193963
 2.2000e+001 194262 -1.1905e+006 -5.0674e+006 -1.4231e+006 183420 194086,194164,194112
 2.2000e+001 194239 -1.0236e+006 -3.6352e+006  3.3380e+004 183420 194086,194190,194164
 2.2000e+001 194216 -2.1736e+006 -9.8203e+006  1.0776e+006 183420 194112,194164,194138
 2.2000e+001 194414 -9.9831e+004 -5.6018e+006  3.3994e+005 183222 194287,194339,194313
 2.2000e+001 194391 -5.1845e+005 -2.6246e+006 -3.6251e+005 183222 194287,194365,194339
 2.2000e+001 194517 -1.3836e+006 -2.9054e+006 -8.5849e+004 183024 194439,194491,194465
 2.2000e+001 194718  3.2185e+005 -1.6175e+007  1.2793e+006 182734 194568,194620,194594
 2.2000e+001 194695 -8.0474e+005 -5.9447e+006 -3.3059e+006 182734 194542,194620,194568
 2.2000e+001 194672 -2.8945e+006 -2.7688e+006 -1.6744e+006 182734 194542,194646,194620
 2.2000e+001 194870 -8.0714e+005 -3.9347e+006 -5.2204e+004 182444 194769,194821,194795
 2.2000e+001 194847 -3.5963e+005 -1.8349e+006 -3.4300e+005 182444 194743,194821,194769
 2.2000e+001 195071 -1.6772e+006 -3.8210e+006 -7.2635e+005 182154 194895,194947,194921
 2.2000e+001 195048 -9.3312e+005 -2.4672e+006  4.5574e+005 182154 194895,194999,194947
 2.2000e+001 195025  9.7280e+004 -7.6647e+006  6.6007e+005 182154 194947,194999,194973
 2.2000e+001 195223 -7.3991e+005 -3.7605e+006  5.8788e+004 181814 195096,195148,195122
 2.2000e+001 195200 -4.0553e+005 -2.2582e+006  3.5170e+005 181814 195096,195174,195148
 2.2000e+001 195375 -4.6297e+004 -5.4285e+006  5.4411e+005 181524 195248,195300,195274
 2.2000e+001 195352 -1.9742e+005 -4.0848e+006  2.9527e+005 181524 195248,195326,195300
 2.2000e+001 195527 -3.4583e+004 -5.9120e+005  2.7317e+005 181326 195426,195478,195452
 2.2000e+001 195504 -3.6433e+005 -1.4987e+006  5.4360e+005 181326 195400,195478,195426
 2.2000e+001 195679  6.3227e+005 -1.1753e+007  1.4949e+005 180936 195578,195630,195604
 2.2000e+001 195656 -8.7997e+005 -4.9302e+006  1.0178e+004 180936 195552,195630,195578
 2.2000e+001 195831 -5.9165e+005 -3.1142e+005 -1.7388e+005 180646 195704,195756,195730
 2.2000e+001 195808 -5.1651e+005 -1.0100e+005 -3.9874e+004 180646 195704,195782,195756
 2.2000e+001 196032 -3.2539e+005 -2.8892e+006  1.1875e+006 180306 195882,195960,195934
 2.2000e+001 196009 -8.0824e+005 -2.1363e+006 -5.5757e+004 180306 195856,195960,195882
 2.2000e+001 195986  4.6525e+005 -4.4520e+006 -5.4699e+005 180306 195882,195934,195908
 2.2000e+001 196233 -8.2886e+004 -1.4933e+006 -1.6239e+006 179944 196057,196109,196083
 2.2000e+001 196210 -1.8987e+006 -9.9747e+006  1.3646e+006 179944 196057,196135,196109
 2.2000e+001 196187 -4.0913e+006  8.6216e+006 -3.2027e+006 179944 196057,196161,196135
 2.2000e+001 196385 -9.7924e+004 -8.2193e+005 -3.0168e+005 179604 196258,196310,196284
 2.2000e+001 196362 -8.7803e+004 -8.3572e+005 -2.5563e+005 179604 196258,196336,196310
 2.2000e+001 196586  1.2689e+005 -2.4768e+006 -2.5448e+005 179114 196410,196488,196436
 2.2000e+001 196563 -6.9019e+003 -2.2473e+006 -2.0346e+005 179114 196410,196514,196488
 2.2000e+001 196540 -2.5491e+004 -2.5135e+006 -2.5438e+005 179114 196436,196488,196462
 2.2000e+001 196738 -6.9543e+005 -3.0456e+006 -4.5213e+005 178674 196611,196663,196637
 2.2000e+001 196715 -9.7986e+004 -4.2857e+006 -1.7719e+005 178674 196611,196689,196663
 2.2000e+001 196939  1.5433e+006 -9.9047e+006 -1.7070e+006 178334 196789,196867,196841
 2.2000e+001 196916 -1.1069e+006 -9.3508e+006  1.0496e+006 178334 196763,196867,196789
 2.2000e+001 196893 -1.7357e+006 -8.1080e+006 -4.4642e+006 178334 196789,196841,196815
 2.2000e+001 197091 -2.4773e+005 -4.2649e+006 -3.8385e+005 177930 196990,197042,197016
 2.2000e+001 197068 -2.1303e+005 -4.0257e+006 -2.5461e+005 177930 196964,197042,196990
 2.2000e+001 197194 -1.1475e+002 -1.4162e+006 -1.9058e+002 177732 197116,197168,197142
 2.2000e+001 197346 -4.0323e+005 -7.5017e+006 -3.3139e+005 177534 197219,197271,197245
 2.2000e+001 197323  2.4417e+005 -9.6863e+006  8.3848e+005 177534 197219,197297,197271
 2.2000e+001 197547 -1.0223e+006 -3.3934e+006 -2.0781e+006 177130 197397,197449,197423
 2.2000e+001 197524 -5.8065e+005 -3.5774e+006 -4.4975e+005 177130 197397,197475,197449
 2.2000e+001 197501 -1.1459e+006 -9.4941e+006 -1.3863e+006 177130 197371,197475,197397
 2.2000e+001 197748 -3.0681e+005 -8.0874e+006  1.7775e+005 176790 197598,197676,197624
 2.2000e+001 197725 -2.0555e+005 -6.1524e+006  3.6516e+005 176790 197572,197676,197598
 2.2000e+001 197702 -5.4522e+005 -6.5137e+006  7.0810e+005 176790 197624,197676,197650
 2.2000e+001 197900 -1.8686e+005 -4.9346e+006 -8.4128e+005 176300 197773,197825,197799
 2.2000e+001 197877  2.3106e+005 -5.5538e+006 -9.3558e+005 176300 197773,197851,197825
 2.2000e+001 198052 -7.3988e+004 -1.1430e+007 -2.0533e+006 176010 197925,197977,197951
 2.2000e+001 198029 -1.0905e+006 -5.0270e+006 -1.0076e+006 176010 197925,198003,197977
 2.2000e+001 198204 -2.3059e+006 -6.5505e+006  1.9487e+006 175670 198103,198155,198129
 2.2000e+001 198181 -1.0577e+006 -5.4678e+006 -1.0946e+005 175670 198077,198155,198103
 2.2000e+001 198405 -6.3150e+005 -8.4371e+006 -1.1576e+006 175266 198255,198307,198281
 2.2000e+001 198382 -1.7698e+005 -6.8204e+006  1.4256e+005 175266 198229,198307,198255
 2.2000e+001 198359 -4.8324e+005 -4.9954e+006 -1.2513e+006 175266 198229,198333,198307
 2.2000e+001 198606 -5.6071e+003 -3.6510e+006 -2.0281e+005 174876 198430,198508,198482
 2.2000e+001 198583 -4.7121e+005 -3.7758e+006 -1.1303e+005 174876 198430,198534,198508
 2.2000e+001 198560 -4.9339e+005 -1.9833e+006 -7.1599e+005 174876 198430,198482,198456
 2.2000e+001 198758 -2.4429e+004 -1.1434e+005 -5.3424e+004 174536 198657,198709,198683
 2.2000e+001 198735 -2.4683e+004 -1.1251e+005 -5.2089e+004 174536 198631,198709,198657
 2.2000e+001 199008  1.3642e+005 -1.3252e+007  4.0111e+005 174132 198835,198913,198887
 2.2000e+001 198985 -2.6389e+005 -7.7404e+006  3.3323e+005 174132 198809,198913,198835
 2.2000e+001 198962 -9.4280e+004 -7.9597e+006 -1.4376e+006 174132 198783,198913,198809
 2.2000e+001 198939  2.8394e+005 -1.2074e+007  8.3212e+005 174132 198835,198887,198861
 2.2000e+001 199160 -6.8694e+005 -7.4409e+006  3.4912e+005 173842 199059,199111,199085
 2.2000e+001 199137 -1.0643e+006 -4.9116e+006 -4.8631e+005 173842 199033,199111,199059
 2.2000e+001 199361 -6.3754e+005 -9.5160e+006  1.1420e+006 173438 199237,199289,199263
 2.2000e+001 199338 -8.1681e+005 -7.0509e+006  1.6249e+006 173438 199211,199289,199237
 2.2000e+001 199315 -9.0015e+005 -9.1508e+006 -1.4918e+005 173438 199185,199289,199211
 2.2000e+001 199513  4.5622e+005 -1.1633e+007  1.8992e+006 173190 199386,199438,199412
 2.2000e+001 199490  1.4123e+004 -8.8195e+006 -1.5472e+003 173190 199386,199464,199438
 2.2000e+001 199665 -3.8672e+005 -4.3456e+006  2.0818e+005 172750 199564,199616,199590
 2.2000e+001 199642 -9.8984e+005 -2.6217e+006 -1.5690e+005 172750 199538,199616,199564
 2.2000e+001 199817 -6.9869e+005 -8.0542e+006 -2.7288e+006 172524 199690,199742,199716
 2.2000e+001 199794 -3.5338e+006 -4.4315e+006 -1.5662e+006 172524 199690,199768,199742
 2.2000e+001 199969 -1.7376e+004 -8.2961e+006 -3.8111e+005 172348 199842,199894,199868
 2.2000e+001 199946  7.1899e+005 -8.1860e+006  2.5044e+005 172348 199842,199920,199894
 2.2000e+001 200121  4.5202e+005 -9.5422e+006 -7.6159e+005 172008 199994,200046,200020
 2.2000e+001 200098 -6.4376e+005 -4.3869e+006 -2.6004e+005 172008 199994,200072,200046
 2.2000e+001 200273 -9.9289e+005 -1.1837e+007  7.9701e+005 171668 200172,200224,200198
 2.2000e+001 200250 -2.4758e+005 -9.0813e+006  1.1227e+006 171668 200146,200224,200172
 2.2000e+001 200474 -5.9515e+005 -1.2548e+007 -8.3458e+005 171264 200350,200402,200376
 2.2000e+001 200451 -7.5506e+005 -9.2213e+006  2.1334e+005 171264 200324,200402,200350
 2.2000e+001 200428 -9.4390e+005 -9.3986e+006  3.1592e+004 171264 200298,200402,200324
 2.2000e+001 200626  5.2060e+005 -1.2148e+007  4.9207e+005 170832 200525,200577,200551
 2.2000e+001 200603 -1.9500e+005 -9.8421e+006  2.3418e+005 170832 200499,200577,200525
 2.2000e+001 200827  3.2722e+005 -1.1282e+007  1.9030e+006 170492 200677,200729,200703
 2.2000e+001 200804 -1.5264e+006 -4.7771e+006 -3.1399e+006 170492 200651,200729,200677
 2.2000e+001 200781 -3.2481e+006 -3.7937e+006 -1.8435e+006 170492 200651,200755,200729
 2.2000e+001 201077  7.4572e+005 -4.2508e+006  1.6057e+005 170088 200878,200956,200904
 2.2000e+001 201054 -4.0160e+005 -3.9620e+006 -1.2386e+006 170088 200852,200956,200878
 2.2000e+001 201031  2.7330e+005 -3.8548e+006  2.9767e+006 170088 200904,200956,200930
 2.2000e+001 201008  3.5452e+006 -8.6132e+006  2.0009e+006 170088 200852,200982,200956
 2.2000e+001 201278  9.7136e+005 -4.6629e+006  4.9869e+005 169798 201102,201154,201128
 2.2000e+001 201255 -1.7427e+006 -1.5115e+007 -9.3672e+005 169798 201102,201206,201154
 2.2000e+001 201232 -2.3762e+006 -3.7573e+006  1.4554e+006 169798 201154,201206,201180
 2.2000e+001 201430 -9.3047e+005 -1.6539e+007 -1.5556e+006 169337 201303,201355,201329
 2.2000e+001 201407 -5.0884e+005 -6.1514e+006 -2.2906e+005 169337 201303,201381,201355
 2.2000e+001 201631 -3.5208e+005 -7.0993e+006  1.0114e+003 168883 201481,201559,201507
 2.2000e+001 201608  5.8565e+005 -6.6828e+006  3.2109e+005 168883 201455,201559,201481
 2.2000e+001 201585 -7.9197e+005 -7.5627e+006 -3.1220e+005 168883 201507,201559,201533
 2.2000e+001 201832 -5.2164e+005 -1.4720e+007  4.5428e+005 168479 201682,201734,201708
 2.2000e+001 201809 -1.9716e+006 -1.2847e+007 -1.1575e+006 168479 201656,201734,201682
 2.2000e+001 201786 -1.4752e+006 -1.0879e+007 -1.2885e+005 168479 201656,201760,201734
 2.2000e+001 202033 -2.5025e+005 -8.1512e+006  1.4290e+006 167825 201883,201935,201909
 2.2000e+001 202010 -2.2907e+005 -9.0537e+006 -6.2550e+005 167825 201857,201935,201883
 2.2000e+001 201987  2.0970e+005 -1.3316e+007  2.3877e+005 167825 201857,201961,201935
 2.2000e+001 202234 -1.2119e+006 -1.0729e+007 -3.1665e+006 167435 202058,202136,202084
 2.2000e+001 202211 -1.4924e+006 -1.5696e+007  3.0487e+006 167435 202058,202162,202136
 2.2000e+001 202188 -9.4659e+005 -5.3657e+006  5.0735e+005 167435 202084,202136,202110
 2.2000e+001 202386  4.5863e+005 -9.0030e+006  3.7800e+005 167002 202285,202337,202311
 2.2000e+001 202363 -8.8946e+005 -1.9794e+006  7.8657e+005 167002 202259,202337,202285
 2.2000e+001 202538  7.0270e+004 -8.6062e+006 -4.1914e+005 166662 202411,202463,202437
 2.2000e+001 202515 -5.6491e+005 -4.5252e+006 -2.9017e+004 166662 202411,202489,202463
 2.2000e+001 202690 -3.5328e+004 -8.1481e+006 -6.1635e+005 166322 202589,202641,202615
 2.2000e+001 202667  5.5303e+005 -8.3291e+006 -7.3207e+005 166322 202563,202641,202589
 2.2000e+001 202891 -1.2748e+006 -4.1900e+006  2.3670e+004 165918 202715,202767,202741
 2.2000e+001 202868 -1.6538e+006 -5.8256e+006 -2.2682e+005 165918 202715,202793,202767
 2.2000e+001 202845 -2.0369e+005 -5.4883e+006 -6.0487e+005 165918 202715,202819,202793
 2.2000e+001 203092 -1.5943e+006 -8.0038e+006 -9.0144e+005 165628 202916,202968,202942
 2.2000e+001 203069 -9.1498e+004 -1.3285e+007 -3.5429e+005 165628 202916,202994,202968
 2.2000e+001 203046 -1.0210e+006 -1.3581e+007 -1.5823e+005 165628 202916,203020,202994
 2.2000e+001 203293 -3.7203e+006 -1.2928e+007  1.8880e+006 165266 203143,203195,203169
 2.2000e+001 203270 -3.7297e+006 -9.7440e+006 -2.0697e+005 165266 203143,203221,203195
 2.2000e+001 203247  1.2755e+005 -1.3712e+007 -4.6817e+006 165266 203117,203221,203143
 2.2000e+001 203445  2.1742e+004 -6.4723e+006  1.3161e+006 164826 203318,203370,203344
 2.2000e+001 203422 -4.4989e+005 -3.9259e+006 -6.6179e+005 164826 203318,203396,203370
 2.2000e+001 203597 -1.0552e+006 -8.6311e+006 -3.7041e+005 164386 203470,203522,203496
 2.2000e+001 203574 -2.4322e+005 -6.0100e+006  2.0238e+005 164386 203470,203548,203522
 2.2000e+001 203798  5.8173e+004 -8.1002e+006  1.0031e+006 163996 203622,203674,203648
 2.2000e+001 203775 -9.0416e+005 -2.8362e+006 -1.7709e+005 163996 203622,203726,203674
 2.2000e+001 203752 -2.3297e+006 -6.9610e+006  2.6064e+006 163996 203674,203726,203700
 2.2000e+001 203901 -5.5339e+005 -4.4601e+006 -7.0182e+005 163770 203823,203875,203849
 2.2000e+001 204053 -1.4220e+006 -7.5580e+006  1.1784e+006 163474 203952,204004,203978
 2.2000e+001 204030 -5.4879e+005 -8.4603e+006 -7.7575e+005 163474 203926,204004,203952
 2.2000e+001 204205 -2.0003e+005 -5.4154e+006 -1.8697e+005 163034 204104,204156,204130
 2.2000e+001 204182 -5.0788e+005 -9.1854e+006 -3.5470e+006 163034 204078,204156,204104
 2.2000e+001 204357 -2.7965e+005 -7.6310e+006  8.4652e+005 162624 204256,204308,204282
 2.2000e+001 204334 -5.6139e+004 -3.3588e+006 -2.9536e+004 162624 204230,204308,204256
 2.2000e+001 204509 -1.0073e+003 -3.6523e+004  6.3301e+003 162200 204382,204434,204408
 2.2000e+001 204486 -1.2533e+003 -3.6800e+004  6.0596e+003 162200 204382,204460,204434
 2.2000e+001 204710 -2.8428e+005 -2.3149e+006  6.8101e+005 161810 204560,204638,204586
 2.2000e+001 204687 -8.4010e+004 -3.6636e+006 -6.5677e+005 161810 204534,204638,204560
 2.2000e+001 204664 -3.5788e+005 -9.5661e+005  1.0314e+005 161810 204586,204638,204612
 2.2000e+001 204862 -1.0923e+006 -6.1540e+006 -1.5199e+006 161406 204735,204787,204761
 2.2000e+001 204839 -1.6005e+006 -6.3274e+006 -1.3690e+006 161406 204735,204813,204787
 2.2000e+001 205014 -5.8023e+004 -2.4954e+006  5.7279e+005 161180 204887,204939,204913
 2.2000e+001 204991 -5.4607e+004 -1.3757e+006  5.2767e+001 161180 204887,204965,204939
 2.2000e+001 205215  6.8509e+005 -3.3532e+006 -2.2178e+005 160726 205039,205091,205065
 2.2000e+001 205192 -8.5008e+005 -9.3265e+006 -7.0674e+005 160726 205039,205143,205091
 2.2000e+001 205169 -2.4743e+005 -2.3829e+006 -9.2945e+004 160726 205091,205143,205117
 2.2000e+001 205416 -2.3780e+005 -4.7415e+006  1.2886e+006 160272 205292,205344,205318
 2.2000e+001 205393 -6.6182e+005 -3.2780e+006  1.0079e+006 160272 205240,205344,205292
 2.2000e+001 205370 -6.8901e+005 -3.9210e+006  2.8984e+005 160272 205240,205292,205266
 2.2000e+001 205568 -3.3197e+005 -3.2769e+006  6.4057e+005 159932 205441,205493,205467
 2.2000e+001 205545 -2.6362e+005 -3.2243e+006  5.8358e+005 159932 205441,205519,205493
 2.2000e+001 205720 -1.5718e+004 -1.6013e+006 -3.3010e+005 159542 205593,205645,205619
 2.2000e+001 205697 -1.1944e+005 -2.2388e+005 -8.8248e+004 159542 205593,205671,205645
 2.2000e+001 205872  2.5515e+005 -9.1295e+005  6.5455e+004 159252 205745,205797,205771
 2.2000e+001 205849 -3.0321e+005 -3.3123e+006 -2.4902e+004 159252 205745,205823,205797
 2.2000e+001 206024 -2.2451e+006 -3.3471e+006 -6.2117e+005 159004 205923,205975,205949
 2.2000e+001 206001 -7.6915e+005 -5.3002e+006  3.3710e+005 159004 205897,205975,205923
 2.2000e+001 206127 -5.5046e+002 -1.6257e+002 -8.1537e+001 158364 206049,206101,206075
 2.2000e+001 206328 -8.4292e+004 -2.9668e+006  1.5990e+005 157960 206178,206256,206204
 2.2000e+001 206305 -2.5594e+005 -2.5839e+006  6.6772e+005 157960 206152,206256,206178
 2.2000e+001 206282 -3.7522e+004 -1.9247e+006  3.1498e+005 157960 206204,206256,206230
 2.2000e+001 206529 -1.0407e+005 -9.4620e+006  7.0798e+004 157648 206405,206457,206431
 2.2000e+001 206506 -2.8709e+006 -7.3813e+006 -1.1150e+006 157648 206379,206457,206405
 2.2000e+001 206483 -8.2150e+005 -6.0681e+006  1.0409e+005 157648 206353,206457,206379
 2.2000e+001 206730  1.0985e+006 -1.8611e+007 -3.3431e+005 157208 206554,206606,206580
 2.2000e+001 206707  9.5900e+005 -2.0974e+007 -1.3782e+003 157208 206554,206632,206606
 2.2000e+001 206684 -3.8652e+006 -6.5746e+006 -8.0616e+005 157208 206554,206658,206632
 2.2000e+001 206882 -1.1417e+005 -1.5630e+006  1.4554e+005 157010 206755,206807,206781
 2.2000e+001 206859 -1.8734e+004 -2.3395e+006  4.8275e+005 157010 206755,206833,206807
 2.2000e+001 207034 -3.0617e+005 -8.6698e+006 -1.9508e+005 156620 206907,206959,206933
 2.2000e+001 207011  2.6705e+005 -1.5306e+007  1.3398e+005 156620 206907,206985,206959
 2.2000e+001 207186 -6.1855e+004 -4.4105e+006  2.2161e+005 156330 207085,207137,207111
 2.2000e+001 207163 -9.6142e+004 -4.4827e+006 -5.8171e+005 156330 207059,207137,207085
 2.2000e+001 207387 -1.7281e+005 -8.1889e+006  4.3306e+005 155890 207211,207289,207237
 2.2000e+001 207364 -3.6393e+005 -8.2652e+006 -2.1661e+005 155890 207211,207315,207289
 2.2000e+001 207341 -1.3366e+006 -5.4294e+006  2.0927e+006 155890 207237,207289,207263
 2.2000e+001 207588  1.3139e+006 -2.2486e+007  4.6661e+006 155436 207438,207490,207464
 2.2000e+001 207565 -2.6207e+005 -1.9180e+007 -2.1847e+005 155436 207412,207490,207438
 2.2000e+001 207542 -9.4724e+005 -1.2914e+007 -5.9758e+005 155436 207412,207516,207490
 2.2000e+001 207789  1.0195e+006 -3.3983e+007 -2.4595e+006 155260 207639,207691,207665
 2.2000e+001 207766 -3.3757e+006 -1.4074e+007  4.1347e+006 155260 207613,207691,207639
 2.2000e+001 207743 -6.0835e+005 -1.1475e+007 -6.5149e+005 155260 207613,207717,207691
 2.2000e+001 207990 -4.5416e+004 -3.7374e+005  4.7845e+004 154920 207840,207918,207892
 2.2000e+001 207967 -4.1342e+005 -5.9700e+005 -3.5638e+005 154920 207814,207918,207840
 2.2000e+001 207944 -3.6544e+004 -1.9475e+005 -6.2299e+004 154920 207840,207892,207866
 2.2000e+001 208191  1.9042e+004 -1.5195e+007 -9.5285e+005 154630 208015,208093,208041
 2.2000e+001 208168  5.1434e+004 -1.0090e+007 -1.1861e+006 154630 208015,208119,208093
 2.2000e+001 208145 -2.1867e+006 -1.0675e+007 -4.8319e+006 154630 208041,208093,208067
 2.2000e+001 208343  1.0482e+004 -2.3475e+005 -1.3112e+003 154240 208216,208268,208242
 2.2000e+001 208320  3.3430e+004 -1.6302e+005 -3.1494e+004 154240 208216,208294,208268
 2.2000e+001 208495  1.3659e+006 -2.7284e+007 -5.9134e+006 153950 208394,208446,208420
 2.2000e+001 208472 -1.6686e+006 -1.3622e+007  3.7682e+006 153950 208368,208446,208394
 2.2000e+001 208647 -6.2602e+005 -1.6158e+007  7.0361e+006 153603 208520,208572,208546
 2.2000e+001 208624 -5.2044e+006 -6.1869e+006 -2.4868e+006 153603 208520,208598,208572
 2.2000e+001 208848 -7.3912e+005 -8.1065e+006  2.0236e+006 153149 208698,208776,208724
 2.2000e+001 208825  3.9932e+005 -1.5512e+007 -1.7589e+006 153149 208672,208776,208698
 2.2000e+001 208802 -2.8535e+006 -7.4029e+006  9.2648e+005 153149 208724,208776,208750
 2.2000e+001 209000 -9.6557e+005 -1.2360e+007  1.0298e+003 152859 208873,208925,208899
 2.2000e+001 208977 -4.3007e+004 -1.7096e+007  6.7811e+005 152859 208873,208951,208925
 2.2000e+001 209152  4.6580e+005 -1.5206e+007 -2.4893e+005 152569 209051,209103,209077
 2.2000e+001 209129  2.1145e+005 -1.5041e+007 -1.7470e+005 152569 209025,209103,209051
 2.2000e+001 209304 -4.3676e+004 -1.6901e+005 -3.8631e+003 152065 209177,209229,209203
 2.2000e+001 209281  3.3341e+004 -3.0751e+005  3.6060e+004 152065 209177,209255,209229
 2.2000e+001 209456  6.6790e+005 -1.3658e+007  2.2162e+005 151775 209355,209407,209381
 2.2000e+001 209433  1.0580e+006 -1.7787e+007  6.4553e+004 151775 209329,209407,209355
 2.2000e+001 209608 -9.5959e+005 -1.7191e+007 -2.7106e+005 151371 209481,209533,209507
 2.2000e+001 209585  5.7163e+005 -2.0605e+007  5.8773e+005 151371 209481,209559,209533
 2.2000e+001 209760 -1.5686e+006 -9.6895e+006 -9.7065e+005 150981 209659,209711,209685
 2.2000e+001 209737 -1.0946e+006 -1.1500e+007 -2.9149e+006 150981 209633,209711,209659
 2.2000e+001 209912  2.0772e+006 -3.4326e+007 -2.5178e+006 150619 209811,209863,209837
 2.2000e+001 209889 -5.6837e+005 -2.0397e+007  2.5399e+006 150619 209785,209863,209811
 2.2000e+001 210064 -1.1048e+006 -1.0873e+007 -1.4712e+006 150279 209937,209989,209963
 2.2000e+001 210041  2.9401e+005 -1.5712e+007 -1.5573e+006 150279 209937,210015,209989
 2.2000e+001 210265  6.4155e+004 -1.7664e+007 -2.1618e+006 149989 210115,210167,210141
 2.2000e+001 210242 -1.2267e+006 -1.5487e+007  4.6861e+005 149989 210115,210193,210167
 2.2000e+001 210219 -9.8071e+005 -2.0081e+007  4.2876e+005 149989 210089,210193,210115
 2.2000e+001 210417 -2.2370e+006 -1.0996e+007 -8.2242e+005 149599 210316,210368,210342
 2.2000e+001 210394 -8.2017e+005 -1.3461e+007 -9.7220e+005 149599 210290,210368,210316
 2.2000e+001 210618 -2.8806e+006 -1.2106e+007  9.8410e+005 149095 210468,210520,210494
 2.2000e+001 210595 -3.5434e+006 -1.2338e+007  1.5230e+006 149095 210442,210520,210468
 2.2000e+001 210572 -1.4570e+006 -2.5427e+007  2.8166e+006 149095 210442,210546,210520
 2.2000e+001 210819 -1.5557e+005 -1.8904e+006  2.1703e+005 148748 210695,210747,210721
 2.2000e+001 210796 -9.8214e+004 -3.9717e+006  6.0945e+005 148748 210669,210747,210695
 2.2000e+001 210773 -5.3096e+005 -3.2677e+006  1.3172e+006 148748 210643,210747,210669
 2.2000e+001 210971  1.7802e+004 -1.5077e+005 -8.2208e+003 148408 210870,210922,210896
 2.2000e+001 210948  6.5513e+004 -8.6737e+004  3.5721e+004 148408 210844,210922,210870
 2.2000e+001 211123 -9.7358e+004 -1.2214e+007  1.6807e+006 148118 210996,211048,211022
 2.2000e+001 211100  1.1513e+005 -1.5560e+007  4.7704e+006 148118 210996,211074,211048
 2.2000e+001 211275 -3.7640e+006 -1.3128e+007  3.1165e+005 147778 211148,211200,211174
 2.2000e+001 211252 -1.3017e+006 -2.4926e+007  7.5280e+006 147778 211148,211226,211200
 2.2000e+001 211427 -2.8455e+006 -9.8763e+006  1.0741e+006 147324 211326,211378,211352
 2.2000e+001 211404  5.4118e+005 -1.5694e+007 -6.8524e+005 147324 211300,211378,211326
 2.2000e+001 211628  9.0690e+003 -6.3531e+004  3.5187e+003 147012 211452,211504,211478
 2.2000e+001 211605 -1.8126e+003 -1.5450e+005 -9.6708e+002 147012 211452,211556,211504
 2.2000e+001 211582 -5.6467e+003 -1.9481e+005  5.1987e+003 147012 211504,211556,211530
 2.2000e+001 211829 -1.7085e+006 -9.1438e+006  2.9146e+006 146636 211679,211757,211731
 2.2000e+001 211806  3.9467e+006 -2.2651e+007 -1.6216e+006 146636 211653,211757,211679
 2.2000e+001 211783  1.1538e+006 -8.6424e+006  2.7732e+006 146636 211679,211731,211705
 2.2000e+001 211981 -1.9088e+004 -2.8360e+005 -2.8694e+004 146246 211880,211932,211906
 2.2000e+001 211958  2.4225e+004 -1.5663e+005  3.6670e+003 146246 211854,211932,211880
 2.2000e+001 212133 -2.4048e+004 -9.6402e+004 -3.9671e+004 145956 212006,212058,212032
 2.2000e+001 212110 -7.1235e+004 -1.4753e+005 -5.5264e+003 145956 212006,212084,212058
 2.2000e+001 212285  8.2838e+002 -2.4395e+005 -4.0451e+002 145544 212184,212236,212210
 2.2000e+001 212262  9.5060e+003 -1.7176e+005  2.1591e+003 145544 212158,212236,212184
 2.2000e+001 212486  1.2175e+005 -1.0058e+007  1.3081e+006 144990 212362,212414,212388
 2.2000e+001 212463  6.3751e+004 -8.1908e+006  2.3264e+006 144990 212310,212414,212362
 2.2000e+001 212440 -1.3319e+006 -3.8550e+006  1.4175e+006 144990 212310,212362,212336
 2.2000e+001 212638 -8.4006e+005 -3.3680e+006  1.1633e+006 144600 212537,212589,212563
 2.2000e+001 212615 -3.0213e+005 -1.4424e+006 -3.0097e+004 144600 212511,212589,212537
 2.2000e+001 212839 -9.5896e+004 -1.1547e+006 -2.5838e+005 144210 212689,212741,212715
 2.2000e+001 212816 -1.8024e+004 -1.3898e+006 -7.3682e+004 144210 212663,212741,212689
 2.2000e+001 212793  7.9684e+004 -8.4905e+005 -9.7346e+004 144210 212663,212767,212741
 2.2000e+001 212991 -8.7094e+005 -1.2262e+006  7.4223e+005 143920 212890,212942,212916
 2.2000e+001 212968 -6.1011e+004 -6.4006e+006  9.8040e+004 143920 212864,212942,212890
 2.2000e+001 213143 -2.1200e+004 -2.4669e+005 -5.9904e+004 143480 213016,213068,213042
 2.2000e+001 213120 -1.1807e+004 -3.1249e+005  3.4450e+003 143480 213016,213094,213068
 2.2000e+001 213295 -1.0898e+006 -4.1089e+006  2.6811e+006 142990 213194,213246,213220
 2.2000e+001 213272 -1.7888e+006 -1.2698e+006  7.0670e+005 142990 213168,213246,213194
 2.2000e+001 213447 -1.4968e+006 -5.4599e+006  1.5189e+006 142600 213320,213372,213346
 2.2000e+001 213424 -2.5492e+006 -2.6254e+006 -4.8486e+005 142600 213320,213398,213372
 2.2000e+001 213599 -5.9901e+005 -3.1629e+006  1.0900e+005 142260 213472,213524,213498
 2.2000e+001 213576  1.0572e+005 -3.1775e+006  5.9272e+005 142260 213472,213550,213524
 2.2000e+001 213751 -1.2269e+006 -3.0966e+006  2.8912e+005 141870 213624,213676,213650
 2.2000e+001 213728 -1.2677e+006 -4.1243e+006  1.6599e+006 141870 213624,213702,213676
 2.2000e+001 213903 -1.4983e+006 -3.7656e+006 -2.0932e+006 141530 213776,213828,213802
 2.2000e+001 213880 -6.2130e+005 -4.1534e+006 -1.3218e+006 141530 213776,213854,213828
 2.2000e+001 214055 -1.6793e+002 -4.8621e+002  2.0873e+002 141218 213928,213980,213954
 2.2000e+001 214032 -1.1312e+003 -9.0134e+002  6.2118e+002 141218 213928,214006,213980
 2.2000e+001 214207  5.6721e+002 -1.5585e+004  3.4164e+002 140928 214080,214132,214106
 2.2000e+001 214184  1.0372e+003 -1.5538e+004  1.2164e+003 140928 214080,214158,214132
 2.2000e+001 214359 -9.9006e+005 -3.1162e+006 -1.3943e+006 140538 214232,214284,214258
 2.2000e+001 214336  5.8781e+005 -6.6348e+006  1.0824e+006 140538 214232,214310,214284
 2.2000e+001 214560 -5.9481e+004 -1.7225e+006  4.0992e+004 140248 214384,214462,214410
 2.2000e+001 214537  5.9204e+004 -3.7648e+005 -6.8135e+004 140248 214384,214488,214462
 2.2000e+001 214514 -2.0136e+005 -8.8669e+005 -2.3077e+005 140248 214410,214462,214436
 2.2000e+001 214712 -3.2520e+005 -8.6328e+006  1.0199e+006 140000 214611,214663,214637
 2.2000e+001 214689 -1.2998e+006 -3.6761e+006  2.3303e+004 140000 214585,214663,214611
 2.2000e+001 214913 -5.9860e+005 -3.2201e+006 -1.3555e+006 139596 214737,214815,214763
 2.2000e+001 214890 -4.8333e+005 -1.2081e+006 -2.6197e+005 139596 214737,214841,214815
 2.2000e+001 214867  4.2003e+005 -4.8367e+006 -1.1150e+006 139596 214763,214815,214789
 2.2000e+001 215016 -4.6239e+002 -6.0531e+001 -1.0389e+002 139420 214938,214990,214964
 2.2000e+001 215168 -3.5880e+005 -7.4522e+006  1.3342e+006 139130 215067,215119,215093
 2.2000e+001 215145 -8.7308e+005 -7.4469e+006  2.6056e+006 139130 215041,215119,215067
 2.2000e+001 215320 -1.2115e+006 -1.6731e+006  9.3260e+005 138790 215219,215271,215245
 2.2000e+001 215297  3.5492e+005 -9.2901e+006  2.4083e+006 138790 215193,215271,215219
 2.2000e+001 215472 -2.6208e+005 -1.3379e+006  5.0956e+005 138514 215345,215397,215371
 2.2000e+001 215449 -1.0155e+005 -6.9877e+005  1.5412e+004 138514 215345,215423,215397
 2.2000e+001 215624 -4.3001e+005 -7.9573e+006  1.3401e+005 138174 215497,215549,215523
 2.2000e+001 215601 -1.9798e+005 -6.3954e+006 -1.7199e+005 138174 215497,215575,215549
 2.2000e+001 215776 -1.0788e+006 -4.2488e+006  1.2814e+006 137734 215649,215701,215675
 2.2000e+001 215753 -1.2995e+006 -4.1169e+006  9.4565e+005 137734 215649,215727,215701
 2.2000e+001 215977 -3.4167e+006 -1.3417e+007  3.1564e+006 137344 215801,215879,215827
 2.2000e+001 215954  1.2131e+006 -1.1187e+007  1.4699e+006 137344 215801,215905,215879
 2.2000e+001 215931  4.3842e+006 -2.3852e+007 -3.9503e+006 137344 215827,215879,215853
 2.2000e+001 216129 -6.4384e+005 -9.3214e+006 -1.8554e+005 136940 216028,216080,216054
 2.2000e+001 216106 -6.9811e+005 -7.4488e+006 -8.0863e+005 136940 216002,216080,216028
 2.2000e+001 216330 -3.2117e+005 -7.0725e+006 -4.6659e+004 136600 216180,216232,216206
 2.2000e+001 216307 -5.7970e+005 -7.4633e+006  1.1391e+006 136600 216154,216232,216180
 2.2000e+001 216284 -2.9343e+005 -6.3463e+006  5.6063e+005 136600 216154,216258,216232
 2.2000e+001 216482  5.8833e+005 -5.9729e+006 -1.0228e+005 136260 216381,216433,216407
 2.2000e+001 216459  2.5463e+005 -6.4192e+006 -3.2962e+005 136260 216355,216433,216381
 2.2000e+001 216634  1.1595e+005 -7.9033e+006  1.2747e+006 135970 216533,216585,216559
 2.2000e+001 216611 -2.0236e+005 -9.1722e+006  1.0193e+006 135970 216507,216585,216533
 2.2000e+001 216835 -8.8857e+005 -5.4417e+006 -8.8230e+005 135608 216685,216763,216711
 2.2000e+001 216812 -2.3851e+005 -4.7652e+006 -7.6539e+004 135608 216659,216763,216685
 2.2000e+001 216789 -6.6747e+005 -1.0241e+007  2.1864e+005 135608 216711,216763,216737
 2.2000e+001 217036  2.0155e+004 -6.4087e+006  8.8101e+005 135312 216912,216964,216938
 2.2000e+001 217013 -1.0439e+005 -6.9372e+006  8.4451e+005 135312 216886,216964,216912
 2.2000e+001 216990 -8.2306e+005 -6.5243e+006  8.2944e+005 135312 216860,216964,216886
 2.2000e+001 217237  2.7871e+004 -5.8314e+005 -3.0440e+004 134908 217061,217139,217113
 2.2000e+001 217214 -1.1851e+005 -7.2302e+005  3.8426e+005 134908 217061,217165,217139
 2.2000e+001 217191 -1.2834e+005 -1.9358e+005 -1.5777e+005 134908 217061,217113,217087
 2.2000e+001 217438 -1.2490e+006 -1.8878e+007  2.1172e+006 134568 217288,217366,217314
 2.2000e+001 217415 -3.0803e+005 -1.9760e+007  2.3639e+006 134568 217262,217366,217288
 2.2000e+001 217392  4.1557e+005 -1.4319e+007  9.3662e+005 134568 217314,217366,217340
 2.2000e+001 217590 -6.2747e+004 -1.6733e+006  1.5977e+005 134106 217463,217515,217489
 2.2000e+001 217567  8.4397e+004 -1.6353e+006  1.4368e+005 134106 217463,217541,217515
 2.2000e+001 217791 -4.4984e+006 -3.0423e+007 -1.6536e+007 133816 217641,217693,217667
 2.2000e+001 217768  3.5800e+006 -3.7497e+007  8.3000e+006 133816 217641,217719,217693
 2.2000e+001 217745 -8.5056e+006 -2.5843e+006  5.5822e+006 133816 217615,217719,217641
 2.2000e+001 217992 -1.9787e+006 -5.4416e+006  3.1383e+006 133355 217842,217920,217894
 2.2000e+001 217969 -4.1949e+004 -1.2995e+007 -9.4192e+005 133355 217816,217920,217842
 2.2000e+001 217946 -5.9557e+005 -3.3403e+006 -2.7536e+003 133355 217842,217894,217868
 2.2000e+001 218193 -1.7190e+005 -5.0243e+006 -4.1769e+006 132851 218017,218095,218069
 2.2000e+001 218170 -1.5288e+006 -9.1746e+006  5.9377e+006 132851 218017,218121,218095
 2.2000e+001 218147 -3.7351e+006 -5.7892e+006 -2.4943e+006 132851 218017,218069,218043
 2.2000e+001 218345 -7.4394e+005 -3.6050e+006  9.7365e+005 132511 218244,218296,218270
 2.2000e+001 218322 -1.3156e+006 -3.9285e+006  4.1659e+005 132511 218218,218296,218244
 2.2000e+001 218497 -2.0708e+006 -3.0945e+007 -2.6656e+006 132235 218396,218448,218422
 2.2000e+001 218474 -3.1154e+006 -9.6684e+006  9.3608e+005 132235 218370,218448,218396
 2.2000e+001 218698 -1.8933e+005 -1.2908e+007  7.4382e+005 131945 218574,218626,218600
 2.2000e+001 218675 -6.1123e+005 -1.5228e+007  1.1308e+006 131945 218522,218626,218574
 2.2000e+001 218652 -9.4286e+005 -1.1413e+007  1.2125e+005 131945 218522,218574,218548
 2.2000e+001 218850 -5.9948e+005 -2.0509e+007 -2.7033e+006 131655 218723,218775,218749
 2.2000e+001 218827 -1.3329e+006 -1.3021e+007 -7.7952e+005 131655 218723,218801,218775
 2.2000e+001 218953 -9.0573e+005 -6.2796e+006 -1.9633e+002 131215 218875,218927,218901
 2.2000e+001 219105 -7.2884e+005 -9.3479e+006 -3.9478e+005 130875 218978,219030,219004
 2.2000e+001 219082 -6.0179e+005 -4.5798e+006  3.9324e+005 130875 218978,219056,219030
 2.2000e+001 219306  3.4517e+005 -5.3154e+006  1.4911e+005 130429 219156,219234,219208
 2.2000e+001 219283  2.4651e+005 -4.2094e+006  4.0048e+005 130429 219130,219234,219156
 2.2000e+001 219260 -1.3961e+005 -5.4107e+006 -1.1284e+005 130429 219156,219208,219182
 2.2000e+001 219507  2.0224e+004 -2.8357e+006 -2.7047e+005 130025 219383,219435,219409
 2.2000e+001 219484 -4.7931e+004 -3.2678e+006 -2.5274e+005 130025 219331,219435,219383
 2.2000e+001 219461 -2.4805e+005 -2.9236e+006 -3.6927e+005 130025 219331,219383,219357
 2.2000e+001 219659 -5.4897e+005 -1.4522e+007 -1.4357e+006 129685 219558,219610,219584
 2.2000e+001 219636  1.9507e+005 -1.6554e+007 -4.0255e+006 129685 219532,219610,219558
 2.2000e+001 219860  3.7358e+004 -3.8900e+006  5.5370e+005 129395 219710,219788,219762
 2.2000e+001 219837 -2.1742e+005 -4.9372e+006  3.1640e+005 129395 219684,219788,219710
 2.2000e+001 219814  3.7406e+005 -4.8826e+006 -1.9585e+005 129395 219710,219762,219736
 2.2000e+001 220061  1.2646e+005 -3.8470e+006  4.0263e+005 128991 219937,219989,219963
 2.2000e+001 220038 -7.4475e+004 -6.4096e+006 -2.3065e+005 128991 219885,219989,219937
 2.2000e+001 220015  3.5555e+005 -5.1927e+006  2.7982e+005 128991 219885,219937,219911
 2.2000e+001 220262 -5.0069e+005 -3.3770e+006 -2.5966e+005 128701 220086,220164,220112
 2.2000e+001 220239  3.8048e+005 -5.2008e+006  3.5202e+005 128701 220086,220190,220164
 2.2000e+001 220216 -1.4045e+005 -2.8003e+006  6.2780e+005 128701 220112,220164,220138
 2.2000e+001 220463 -3.0392e+006 -1.2711e+007  1.7644e+006 128297 220339,220391,220365
 2.2000e+001 220440  1.9494e+006 -1.6669e+007  1.4578e+006 128297 220313,220391,220339
 2.2000e+001 220417 -4.7351e+004 -1.9697e+007 -3.3448e+006 128297 220287,220391,220313
 2.2000e+001 220615 -1.2841e+006 -1.0659e+007 -1.7039e+006 128007 220488,220540,220514
 2.2000e+001 220592  9.2294e+005 -1.6049e+007 -1.1293e+006 128007 220488,220566,220540
 2.2000e+001 220767  8.9199e+004 -4.1235e+006 -2.2355e+005 127567 220640,220692,220666
 2.2000e+001 220744 -2.3183e+005 -2.2222e+006 -1.4904e+005 127567 220640,220718,220692
 2.2000e+001 220919  1.0973e+006 -1.8065e+007 -3.1979e+004 127163 220792,220844,220818
 2.2000e+001 220896  1.1506e+006 -1.8570e+007  4.6405e+005 127163 220792,220870,220844
 2.2000e+001 221071 -9.5708e+005 -4.3477e+006  1.1978e+006 126915 220970,221022,220996
 2.2000e+001 221048 -9.0644e+005 -4.6726e+006  1.0774e+006 126915 220944,221022,220970
 2.2000e+001 221272 -1.0846e+006 -9.8090e+006  1.4506e+006 126461 221122,221174,221148
 2.2000e+001 221249 -3.5905e+006 -1.0773e+007  2.5287e+005 126461 221122,221200,221174
 2.2000e+001 221226  3.3146e+004 -1.7663e+007 -2.9133e+006 126461 221096,221200,221122
 2.2000e+001 221375  1.2469e+001 -2.2868e+005 -1.1709e+001 126213 221297,221349,221323
 2.2000e+001 221478  3.2347e+002 -5.0485e+005  5.8859e+002 125766 221400,221452,221426
 2.2000e+001 221679 -8.7362e+004 -2.1230e+006  2.1239e+005 125212 221503,221555,221529
 2.2000e+001 221656 -1.3662e+005 -2.7116e+006  3.7505e+004 125212 221503,221581,221555
 2.2000e+001 221633  2.0688e+005 -5.1541e+006  1.1887e+006 125212 221503,221607,221581
 2.2000e+001 221929 -4.0658e+005 -1.3383e+006  4.6214e+005 124872 221782,221834,221808
 2.2000e+001 221906 -3.8886e+005 -1.3188e+006  4.4314e+005 124872 221756,221834,221782
 2.2000e+001 221883 -1.8981e+005 -2.5385e+006  8.5291e+005 124872 221704,221834,221756
 2.2000e+001 221860 -5.8165e+005 -3.5494e+006  1.2097e+006 124872 221704,221756,221730
 2.2000e+001 222130 -7.4997e+005 -1.0898e+007 -1.8560e+006 124582 221980,222058,222006
 2.2000e+001 222107 -1.5787e+006 -1.1441e+007 -2.3154e+006 124582 221954,222058,221980
 2.2000e+001 222084 -1.8062e+006 -1.2820e+007 -2.7165e+006 124582 222006,222058,222032
 2.2000e+001 222282 -3.0599e+006 -1.5040e+007 -3.8327e+006 124192 222181,222233,222207
 2.2000e+001 222259 -1.1909e+006 -1.4858e+007 -3.9722e+006 124192 222155,222233,222181
 2.2000e+001 222483 -3.3248e+005 -5.1265e+006 -2.2851e+005 123702 222333,222385,222359
 2.2000e+001 222460 -3.2364e+005 -5.2065e+006 -3.5536e+005 123702 222333,222411,222385
 2.2000e+001 222437 -5.0508e+004 -2.7580e+006 -4.1895e+005 123702 222307,222411,222333
 2.2000e+001 222635 -6.5808e+005 -2.2995e+006 -5.2442e+005 123312 222508,222560,222534
 2.2000e+001 222612  3.8121e+005 -7.8856e+006 -3.1602e+005 123312 222508,222586,222560
 2.2000e+001 222787 -2.6824e+005 -4.9733e+006 -1.4646e+005 122858 222686,222738,222712
 2.2000e+001 222764 -2.7063e+005 -4.6799e+006 -4.0525e+005 122858 222660,222738,222686
 2.2000e+001 222939 -1.6028e+005 -3.0506e+006 -1.8202e+004 122568 222812,222864,222838
 2.2000e+001 222916 -4.6439e+004 -2.3611e+006  1.5413e+005 122568 222812,222890,222864
 2.2000e+001 223091 -3.5491e+005 -4.0174e+006 -9.4221e+005 122392 222964,223016,222990
 2.2000e+001 223068  5.4904e+005 -5.4365e+006  3.1508e+005 122392 222964,223042,223016
 2.2000e+001 223292 -2.5392e+005 -1.4482e+007 -2.0923e+006 121852 223142,223220,223194
 2.2000e+001 223269 -1.5776e+006 -1.3029e+007 -1.1969e+006 121852 223116,223220,223142
 2.2000e+001 223246 -4.4051e+005 -1.4338e+007 -2.5124e+006 121852 223142,223194,223168
 2.2000e+001 223493 -6.8314e+005 -1.4626e+007  9.1746e+005 121406 223343,223395,223369
 2.2000e+001 223470 -1.2614e+006 -9.2009e+006 -3.5319e+006 121406 223343,223421,223395
 2.2000e+001 223447 -8.6013e+005 -6.4060e+006  1.6612e+006 121406 223317,223421,223343
 2.2000e+001 223645  6.9137e+004 -1.1232e+007  6.4313e+005 121002 223544,223596,223570
 2.2000e+001 223622 -1.2397e+006 -6.1086e+006  1.0786e+006 121002 223518,223596,223544
 2.2000e+001 223846 -8.0620e+003 -1.3849e+007  9.4112e+005 120662 223670,223748,223696
 2.2000e+001 223823  1.2681e+006 -9.3512e+006 -6.4113e+002 120662 223670,223774,223748
 2.2000e+001 223800 -1.3013e+006 -5.9945e+006 -1.1979e+006 120662 223696,223748,223722
 2.2000e+001 224047 -7.0239e+005 -6.8150e+006  2.0802e+006 120222 223897,223949,223923
 2.2000e+001 224024 -2.7746e+005 -8.8757e+006 -4.8823e+005 120222 223871,223949,223897
 2.2000e+001 224001  2.1052e+005 -1.2928e+007  7.2741e+005 120222 223871,223975,223949
 2.2000e+001 224248  1.1309e+006 -8.0462e+006  6.7675e+003 119875 224124,224176,224150
 2.2000e+001 224225 -1.0809e+006 -1.7177e+007 -1.1107e+006 119875 224098,224176,224124
 2.2000e+001 224202 -8.0448e+005 -3.3001e+006  3.6813e+005 119875 224072,224176,224098
 2.2000e+001 224449 -1.4519e+005 -6.1770e+006 -1.3927e+005 119677 224325,224377,224351
 2.2000e+001 224426 -8.3334e+005 -8.9508e+006  2.2331e+005 119677 224299,224377,224325
 2.2000e+001 224403 -4.2401e+005 -1.0194e+007  5.6740e+005 119677 224273,224377,224299
 2.2000e+001 224552 -1.0758e+006 -7.7900e+006 -3.5030e+005 119273 224474,224526,224500
 2.2000e+001 224704 -2.0561e+006 -1.6471e+007 -3.4212e+006 118983 224603,224655,224629
 2.2000e+001 224681 -1.9390e+006 -1.4539e+007 -2.1600e+006 118983 224577,224655,224603
 2.2000e+001 224856 -4.5503e+005 -1.4334e+007 -1.4311e+006 118529 224755,224807,224781
 2.2000e+001 224833 -4.9537e+004 -1.6219e+007 -1.9011e+006 118529 224729,224807,224755
 2.2000e+001 225008  2.8101e+004 -8.4991e+006  1.1672e+004 118353 224881,224933,224907
 2.2000e+001 224985 -1.2141e+005 -7.9106e+006  1.4740e+005 118353 224881,224959,224933
 2.2000e+001 225209 -9.7953e+005 -8.3032e+006 -6.1064e+005 117949 225059,225137,225111
 2.2000e+001 225186 -5.5440e+005 -8.6319e+006 -1.7220e+006 117949 225033,225137,225059
 2.2000e+001 225163  3.4737e+005 -1.1300e+007  4.2767e+005 117949 225059,225111,225085
 2.2000e+001 225410  1.7205e+005 -7.2327e+006 -3.9875e+005 117559 225260,225338,225312
 2.2000e+001 225387 -8.3240e+005 -7.1758e+006  5.1982e+005 117559 225234,225338,225260
 2.2000e+001 225364 -7.1182e+005 -5.8740e+006 -2.0440e+006 117559 225260,225312,225286
 2.2000e+001 225611 -1.7735e+006 -1.3188e+007 -6.9840e+006 117361 225461,225513,225487
 2.2000e+001 225588  2.6897e+006 -1.3469e+007  1.0523e+006 117361 225461,225539,225513
 2.2000e+001 225565 -3.1752e+006 -6.0671e+006  5.6927e+006 117361 225435,225539,225461
 2.2000e+001 225812  2.9359e+005 -8.6049e+006 -4.2568e+005 116900 225636,225714,225662
 2.2000e+001 225789  8.5856e+005 -9.0090e+006 -5.8828e+005 116900 225636,225740,225714
 2.2000e+001 225766 -7.2012e+004 -8.6107e+006 -7.8708e+005 116900 225662,225714,225688
 2.2000e+001 225964 -1.1395e+005 -7.6084e+006 -5.9659e+004 116560 225837,225889,225863
 2.2000e+001 225941  1.1550e+005 -8.1832e+006 -3.1996e+004 116560 225837,225915,225889
 2.2000e+001 226165  2.1757e+005 -1.1354e+007  9.3725e+005 116106 226015,226093,226041
 2.2000e+001 226142  1.1485e+006 -1.5240e+007 -3.1235e+006 116106 225989,226093,226015
 2.2000e+001 226119 -3.0915e+006 -5.6980e+006  8.9102e+005 116106 226041,226093,226067
 2.2000e+001 226268 -1.9136e+006 -1.2046e+007  4.1538e+005 115716 226190,226242,226216
 2.2000e+001 226420  4.3774e+004 -8.5235e+006  2.0437e+006 115376 226293,226345,226319
 2.2000e+001 226397 -2.2377e+005 -8.0924e+006  1.1987e+006 115376 226293,226371,226345
 2.2000e+001 226621  2.1223e+005 -6.2924e+006  4.5491e+005 114972 226497,226549,226523
 2.2000e+001 226598 -4.0008e+005 -1.1358e+007 -5.3962e+005 114972 226445,226549,226497
 2.2000e+001 226575  2.0069e+005 -7.2804e+006  4.3025e+005 114972 226445,226497,226471
 2.2000e+001 226773 -9.3875e+005 -6.2310e+006 -6.4536e+005 114670 226646,226698,226672
 2.2000e+001 226750  4.0680e+005 -9.1575e+006  3.3623e+005 114670 226646,226724,226698
 2.2000e+001 226974  1.7128e+005 -4.4419e+006 -1.9351e+005 114082 226798,226850,226824
 2.2000e+001 226951  1.0268e+005 -4.0871e+006 -3.1108e+005 114082 226798,226902,226850
 2.2000e+001 226928  1.3416e+004 -5.3046e+006 -6.5380e+005 114082 226850,226902,226876
 2.2000e+001 227175 -9.6868e+005 -7.8255e+006 -7.3703e+005 113678 226999,227051,227025
 2.2000e+001 227152 -1.9743e+006 -1.0376e+007 -1.7108e+006 113678 226999,227077,227051
 2.2000e+001 227129 -7.0156e+005 -1.2299e+007 -2.9068e+006 113678 226999,227103,227077
 2.2000e+001 227425 -1.1392e+004 -1.2310e+007 -1.8664e+005 113274 227226,227278,227252
 2.2000e+001 227402  4.7105e+005 -1.2070e+007 -3.2582e+006 113274 227226,227330,227278
 2.2000e+001 227379 -1.4482e+005 -1.0294e+007 -2.9722e+006 113274 227200,227330,227226
 2.2000e+001 227356 -5.1577e+006 -4.0500e+006 -6.6061e+005 113274 227278,227330,227304
 2.2000e+001 227626  4.2950e+005 -5.4863e+006 -5.3843e+005 112934 227502,227554,227528
 2.2000e+001 227603 -6.2000e+004 -4.6623e+006 -1.5784e+005 112934 227450,227554,227502
 2.2000e+001 227580 -1.0414e+006 -6.6321e+006 -8.9562e+005 112934 227450,227502,227476
 2.2000e+001 227876 -1.0593e+004 -4.0350e+006 -3.5923e+005 112437 227677,227755,227703
 2.2000e+001 227853 -8.0502e+005 -4.4246e+006  1.0337e+006 112437 227677,227781,227755
 2.2000e+001 227830 -5.9466e+005 -1.9113e+006  8.7810e+005 112437 227703,227755,227729
 2.2000e+001 227807 -6.5145e+005 -7.7231e+006 -2.3042e+005 112437 227651,227781,227677
 2.2000e+001 228126 -9.8233e+005 -5.0258e+006  8.0075e+005 112041 227927,228005,227953
 2.2000e+001 228103 -2.3437e+005 -9.6687e+006 -1.9671e+006 112041 227927,228031,228005
 2.2000e+001 228080 -1.7657e+006 -5.8753e+006  2.4034e+005 112041 227953,228005,227979
 2.2000e+001 228057  4.9524e+005 -8.0918e+006 -1.4168e+006 112041 227901,228031,227927
 2.2000e+001 228327 -8.1702e+005 -7.8002e+006 -1.0419e+006 111693 228151,228203,228177
 2.2000e+001 228304 -7.3479e+005 -4.6255e+006 -1.3215e+006 111693 228151,228229,228203
 2.2000e+001 228281  4.6787e+005 -7.1996e+006  5.5586e+005 111693 228151,228255,228229
 2.2000e+001 228479 -3.0132e+006 -1.6152e+007 -5.6109e+006 111253 228352,228404,228378
 2.2000e+001 228456 -3.3447e+006 -1.0522e+007 -9.8354e+005 111253 228352,228430,228404
 2.2000e+001 228582  4.1545e+001 -6.5343e+004 -9.1401e+002 110906 228504,228556,228530
 2.2000e+001 228783 -5.1342e+005 -4.9892e+006  1.5395e+006 110416 228633,228711,228659
 2.2000e+001 228760 -5.2288e+005 -1.7232e+006  3.3958e+005 110416 228607,228711,228633
 2.2000e+001 228737 -8.9345e+004 -3.8864e+006  1.2316e+006 110416 228659,228711,228685
 2.2000e+001 228935 -2.8207e+005 -4.4265e+006 -1.2861e+004 110012 228808,228860,228834
 2.2000e+001 228912 -5.3920e+005 -9.6251e+006 -6.9626e+005 110012 228808,228886,228860
 2.2000e+001 229087 -1.1859e+006 -3.7464e+006 -1.4731e+006 109672 228960,229012,228986
 2.2000e+001 229064 -4.0103e+005 -8.7198e+006  1.8487e+005 109672 228960,229038,229012
 2.2000e+001 229190  1.3039e+004 -2.5019e+005 -5.1376e+004 109332 229112,229164,229138
 2.2000e+001 229391  4.3381e+004 -3.9059e+005 -9.7537e+004 109156 229267,229319,229293
 2.2000e+001 229368 -1.2979e+005 -9.7188e+005 -2.0905e+005 109156 229215,229319,229267
 2.2000e+001 229345  1.3374e+004 -2.4336e+005 -5.5786e+004 109156 229215,229267,229241
 2.2000e+001 229543  2.0596e+005 -1.0956e+007  5.9746e+005 108752 229416,229468,229442
 2.2000e+001 229520 -4.0720e+005 -1.1629e+007  9.9382e+005 108752 229416,229494,229468
 2.2000e+001 229744 -1.8350e+005 -8.5386e+006  2.4291e+004 108198 229594,229646,229620
 2.2000e+001 229721 -1.3908e+006 -8.9296e+006  1.0324e+006 108198 229594,229672,229646
 2.2000e+001 229698  6.3948e+005 -1.3095e+007 -1.2399e+006 108198 229568,229672,229594
 2.2000e+001 229847 -6.5154e+004 -6.5302e+005 -1.7253e+005 107758 229769,229821,229795
 2.2000e+001 230048 -1.0254e+006 -4.4862e+006 -1.1538e+006 107468 229898,229950,229924
 2.2000e+001 230025 -4.7184e+005 -3.8408e+006 -7.0128e+004 107468 229872,229950,229898
 2.2000e+001 230002 -8.6719e+005 -4.2681e+006  2.8482e+005 107468 229872,229976,229950
 2.2000e+001 230298  8.4146e+004 -4.3037e+006  7.1775e+005 107121 230099,230203,230177
 2.2000e+001 230275 -9.2673e+005 -1.7448e+006  3.1756e+005 107121 230073,230203,230099
 2.2000e+001 230252 -1.1593e+006 -5.0027e+006 -5.8482e+005 107121 230099,230177,230151
 2.2000e+001 230229 -5.6547e+004 -6.4800e+006  6.8225e+005 107121 230099,230151,230125
 2.2000e+001 230450  5.1872e+005 -5.7944e+006 -6.3869e+005 106823 230349,230401,230375
 2.2000e+001 230427 -3.8113e+005 -1.1801e+006  3.6630e+005 106823 230323,230401,230349
 2.2000e+001 230602 -5.8489e+005 -1.0611e+007 -1.8209e+006 106533 230501,230553,230527
 2.2000e+001 230579 -7.2118e+005 -1.1777e+007 -3.5266e+006 106533 230475,230553,230501
 2.2000e+001 230803 -3.8956e+005 -1.8739e+006  5.1588e+005 106029 230679,230731,230705
 2.2000e+001 230780 -6.4722e+005 -3.3097e+006  1.2813e+006 106029 230653,230731,230679
 2.2000e+001 230757  3.8098e+005 -6.0205e+006  1.1690e+006 106029 230627,230731,230653
 2.2000e+001 231004 -2.0934e+005 -4.6806e+006  2.7546e+005 105689 230854,230906,230880
 2.2000e+001 230981  3.8949e+005 -5.3698e+006 -5.3625e+005 105689 230828,230906,230854
 2.2000e+001 230958 -8.7339e+005 -3.7608e+006 -1.8133e+006 105689 230828,230932,230906
 2.2000e+001 231156 -1.1641e+006 -4.9575e+006  1.2561e+006 105377 231055,231107,231081
 2.2000e+001 231133  1.3691e+006 -1.5685e+007 -1.7164e+006 105377 231029,231107,231055
 2.2000e+001 231406 -6.5903e+004 -9.0764e+006 -5.6208e+005 104858 231207,231259,231233
 2.2000e+001 231383 -1.2844e+006 -8.9536e+006 -1.0474e+006 104858 231207,231311,231259
 2.2000e+001 231360 -6.9736e+005 -1.4891e+007 -1.8153e+006 104858 231259,231311,231285
 2.2000e+001 231337 -9.5181e+004 -1.2866e+007 -2.0237e+006 104858 231181,231311,231207
 2.2000e+001 231558 -9.0874e+005 -6.2015e+006  3.4955e+006 104418 231457,231509,231483
 2.2000e+001 231535 -3.3367e+005 -6.1950e+006  3.6995e+005 104418 231431,231509,231457
 2.2000e+001 231710 -4.3732e+005 -4.1334e+006 -3.3651e+005 103978 231583,231635,231609
 2.2000e+001 231687 -5.8733e+005 -2.6708e+006 -3.8582e+005 103978 231583,231661,231635
 2.2000e+001 231862 -6.8362e+003 -3.8013e+005 -4.4033e+004 103588 231761,231813,231787
 2.2000e+001 231839 -1.1424e+004 -3.9685e+005 -4.6072e+004 103588 231735,231813,231761
 2.2000e+001 232014 -2.6656e+006 -8.2314e+006 -2.5960e+006 103248 231887,231939,231913
 2.2000e+001 231991  1.3348e+006 -2.2777e+007 -4.9354e+006 103248 231887,231965,231939
 2.2000e+001 232215 -3.0929e+005 -3.5909e+006  7.2125e+005 102844 232039,232117,232065
 2.2000e+001 232192  1.7264e+004 -4.4207e+006 -2.4597e+005 102844 232039,232143,232117
 2.2000e+001 232169 -3.2830e+005 -2.2378e+006 -2.1599e+005 102844 232065,232117,232091
 2.2000e+001 232416 -3.3253e+006 -1.1278e+007 -4.1106e+006 102554 232240,232318,232292
 2.2000e+001 232393  1.2095e+006 -1.7575e+007 -2.6447e+005 102554 232240,232344,232318
 2.2000e+001 232370 -3.7598e+006 -4.6209e+006 -1.8877e+006 102554 232240,232292,232266
 2.2000e+001 232568  3.5291e+005 -5.9374e+006  1.3585e+006 102100 232441,232493,232467
 2.2000e+001 232545  1.6177e+005 -5.3703e+006  1.1322e+005 102100 232441,232519,232493
 2.2000e+001 232769 -3.3883e+005 -2.8839e+006 -4.4568e+005 101596 232645,232697,232671
 2.2000e+001 232746 -3.2793e+005 -2.7956e+006 -5.9005e+005 101596 232593,232697,232645
 2.2000e+001 232723  2.9568e+005 -7.0906e+006 -7.7961e+005 101596 232593,232645,232619
 2.2000e+001 232921  7.4528e+003 -1.7046e+005  2.6872e+003 101420 232794,232846,232820
 2.2000e+001 232898  5.3192e+003 -2.1942e+005 -3.4708e+003 101420 232794,232872,232846
 2.2000e+001 233073 -1.3434e+006 -4.7774e+006 -8.5380e+005 101023 232946,232998,232972
 2.2000e+001 233050 -2.7271e+005 -7.9515e+006  1.5241e+006 101023 232946,233024,232998
 2.2000e+001 233225 -4.3550e+005 -3.5309e+006  4.5290e+003 100661 233098,233150,233124
 2.2000e+001 233202  3.7786e+005 -7.6672e+006  2.7737e+005 100661 233098,233176,233150
 2.2000e+001 233426 -1.2198e+006 -7.7446e+006 -2.2619e+006 100265 233276,233328,233302
 2.2000e+001 233403 -1.3700e+006 -7.0973e+006 -4.8178e+005 100265 233276,233354,233328
 2.2000e+001 233380 -1.2769e+006 -1.1821e+007 -1.3993e+006 100265 233250,233354,233276
 2.2000e+001 233578 -1.1507e+004 -1.3721e+005 -1.0381e+005 100032 233451,233503,233477
 2.2000e+001 233555 -1.2562e+003 -1.4711e+005  5.4195e+004 100032 233451,233529,233503
 2.2000e+001 233681 -8.0161e+004 -3.8441e+005  5.7775e+004 99742 233603,233655,233629
 2.2000e+001 233784 -4.3148e+005 -4.9635e+006  2.0672e+005 99402 233706,233758,233732
 2.2000e+001 233936 -8.0367e+005 -3.9325e+006  2.8442e+005 99062 233835,233887,233861
 2.2000e+001 233913 -4.3721e+005 -2.2981e+006 -3.4736e+005 99062 233809,233887,233835
 2.2000e+001 234088 -2.7898e+005 -5.2375e+006 -2.9976e+004 98772 233987,234039,234013
 2.2000e+001 234065 -1.5044e+006 -5.4543e+006  3.7694e+006 98772 233961,234039,233987
 2.2000e+001 234240 -3.1452e+004 -7.1757e+005  1.2902e+005 98160 234139,234191,234165
 2.2000e+001 234217  2.7195e+004 -4.5130e+005  1.1033e+005 98160 234113,234191,234139
 2.2000e+001 234441  1.3842e+004 -3.0292e+006  3.0667e+005 97820 234317,234369,234343
 2.2000e+001 234418 -3.4449e+004 -3.2221e+006  3.0359e+005 97820 234291,234369,234317
 2.2000e+001 234395  2.1479e+005 -4.0072e+006  2.6205e+005 97820 234265,234369,234291
 2.2000e+001 234593 -6.5496e+005 -3.1802e+006  1.3694e+005 97366 234466,234518,234492
 2.2000e+001 234570 -2.8798e+005 -6.7199e+006  2.6663e+005 97366 234466,234544,234518
 2.2000e+001 234794 -8.4734e+005 -1.6442e+006 -7.3982e+005 96976 234618,234670,234644
 2.2000e+001 234771 -3.1727e+004 -6.0124e+006  1.8344e+005 96976 234618,234722,234670
 2.2000e+001 234748 -3.7467e+005 -3.3992e+006 -1.1647e+006 96976 234670,234722,234696
 2.2000e+001 234946 -5.3672e+005 -2.4077e+006  1.0758e+006 96568 234845,234897,234871
 2.2000e+001 234923 -4.3645e+005 -1.1055e+006  3.3120e+005 96568 234819,234897,234845
 2.2000e+001 235196 -4.1408e+004 -1.9286e+006  2.7517e+005 96216 234997,235075,235049
 2.2000e+001 235173 -6.0409e+005 -5.8193e+006  1.9079e+006 96216 234997,235101,235075
 2.2000e+001 235150 -9.2009e+005 -4.3756e+006  1.0261e+006 96216 234997,235049,235023
 2.2000e+001 235127 -2.0322e+005 -7.4313e+006 -2.4076e+006 96216 234971,235101,234997
 2.2000e+001 235348 -1.5903e+006 -2.5332e+006 -1.5463e+006 95863 235247,235299,235273
 2.2000e+001 235325 -9.3692e+005 -1.4906e+006 -8.3223e+005 95863 235221,235299,235247
 2.2000e+001 235500 -1.9193e+006 -4.1272e+006 -3.1060e+006 95339 235373,235425,235399
 2.2000e+001 235477 -6.9955e+005 -9.1035e+006  4.2105e+006 95339 235373,235451,235425
 2.2000e+001 235701 -3.7285e+005 -4.6556e+006  1.7884e+006 95023 235525,235577,235551
 2.2000e+001 235678 -5.3868e+004 -2.1835e+006 -1.4187e+005 95023 235525,235629,235577
 2.2000e+001 235655 -6.8673e+005 -2.2479e+006  1.3134e+005 95023 235577,235629,235603
 2.2000e+001 235853  9.2160e+005 -9.7721e+006  1.1078e+006 94671 235726,235778,235752
 2.2000e+001 235830 -2.9954e+005 -7.4978e+006 -5.9933e+005 94671 235726,235804,235778
 2.2000e+001 236005 -1.3701e+006 -7.1243e+006 -7.4846e+005 94261 235904,235956,235930
 2.2000e+001 235982 -2.0373e+006 -8.6444e+006 -2.1293e+006 94261 235878,235956,235904
 2.2000e+001 236206 -8.9709e+005 -1.8560e+006  1.4028e+006 93853 236056,236134,236082
 2.2000e+001 236183 -2.1704e+005 -1.7455e+006  1.4551e+005 93853 236030,236134,236056
 2.2000e+001 236160 -2.0497e+005 -4.1507e+006  1.0765e+006 93853 236082,236134,236108
 2.2000e+001 236407 -7.8144e+005 -6.3044e+006  1.4508e+004 93557 236257,236309,236283
 2.2000e+001 236384 -2.1970e+006 -7.0501e+006 -1.8204e+006 93557 236231,236309,236257
 2.2000e+001 236361 -7.5615e+005 -1.1522e+007 -3.9128e+005 93557 236231,236335,236309
 2.2000e+001 236559 -1.9116e+005 -8.9146e+005 -7.9074e+003 93149 236432,236484,236458
 2.2000e+001 236536 -8.5759e+004 -4.6481e+005  3.8848e+004 93149 236432,236510,236484
 2.2000e+001 236711 -1.4946e+005 -2.3853e+006  7.4762e+005 92853 236584,236636,236610
 2.2000e+001 236688 -6.5422e+004 -1.9947e+006  6.2999e+005 92853 236584,236662,236636
 2.2000e+001 236912 -3.2980e+004 -4.0973e+006  1.1169e+006 92501 236736,236788,236762
 2.2000e+001 236889 -7.5579e+004 -2.4506e+006  1.7017e+005 92501 236736,236840,236788
 2.2000e+001 236866 -4.3736e+005 -3.4027e+006  5.5302e+005 92501 236788,236840,236814
 2.2000e+001 237113 -1.5419e+005 -4.1787e+006  2.2284e+005 92291 236963,237041,237015
 2.2000e+001 237090  2.9933e+004 -2.5666e+006  1.0089e+005 92291 236937,237041,236963
 2.2000e+001 237067 -2.0033e+005 -3.8105e+006  8.7295e+005 92291 236963,237015,236989
 2.2000e+001 237265 -2.9315e+005 -1.7881e+006  2.3491e+003 91871 237138,237190,237164
 2.2000e+001 237242 -8.9007e+005 -2.1538e+006 -6.0136e+005 91871 237138,237216,237190
 2.2000e+001 237368 -1.3043e+003 -3.6377e+006  9.9978e+002 91581 237290,237342,237316
 2.2000e+001 237520 -2.3048e+005 -1.3338e+006  4.8131e+005 91184 237419,237471,237445
 2.2000e+001 237497 -3.1375e+005 -1.7230e+006  1.4065e+005 91184 237393,237471,237419
 2.2000e+001 237672 -3.2653e+005 -3.1391e+006  7.7088e+005 90894 237545,237597,237571
 2.2000e+001 237649 -1.1830e+005 -3.3716e+006  8.4262e+005 90894 237545,237623,237597
 2.2000e+001 237873 -7.2190e+005 -5.0120e+006  5.7080e+005 90490 237749,237801,237775
 2.2000e+001 237850 -3.7766e+005 -4.1763e+006  8.2560e+005 90490 237723,237801,237749
 2.2000e+001 237827 -2.2358e+005 -4.1421e+006 -1.1079e+006 90490 237697,237801,237723
 2.2000e+001 238074 -7.7955e+005 -6.3307e+006  2.1384e+005 90100 237898,237976,237950
 2.2000e+001 238051 -2.0700e+006 -6.3854e+006 -7.6924e+004 90100 237898,238002,237976
 2.2000e+001 238028 -5.9114e+005 -6.2874e+006  6.7915e+004 90100 237898,237950,237924
 2.2000e+001 238275 -9.6401e+005 -3.8630e+006 -5.6816e+004 89696 238125,238177,238151
 2.2000e+001 238252 -5.8557e+005 -3.4235e+006 -7.4660e+005 89696 238099,238177,238125
 2.2000e+001 238229 -7.0126e+005 -4.8014e+006 -5.7098e+005 89696 238099,238203,238177
 2.2000e+001 238427 -8.9865e+004 -1.0359e+006 -2.4119e+004 89206 238326,238378,238352
 2.2000e+001 238404  1.6310e+005 -1.9433e+006  9.9211e+004 89206 238300,238378,238326
 2.2000e+001 238579 -8.8680e+005 -4.9385e+006  6.6215e+005 88908 238452,238504,238478
 2.2000e+001 238556 -1.1536e+004 -4.6840e+006  5.2423e+005 88908 238452,238530,238504
 2.2000e+001 238682 -1.8233e+002 -4.9415e+005 -4.6513e+002 88568 238604,238656,238630
 2.2000e+001 238883  2.2334e+005 -4.8702e+006  7.8618e+005 88278 238733,238811,238785
 2.2000e+001 238860 -3.1939e+005 -3.5716e+006  6.3893e+005 88278 238707,238811,238733
 2.2000e+001 238837 -1.7031e+005 -4.8957e+006  9.1359e+005 88278 238733,238785,238759
 2.2000e+001 239035 -7.3721e+005 -6.5147e+006 -2.1593e+005 87988 238908,238960,238934
 2.2000e+001 239012 -1.3288e+006 -5.2715e+006  8.5037e+005 87988 238908,238986,238960
 2.2000e+001 239138  1.3564e+004 -1.4725e+006  3.0337e+004 87648 239060,239112,239086
 2.2000e+001 239339 -8.8410e+005 -3.3541e+006 -1.8501e+006 87358 239163,239215,239189
 2.2000e+001 239316 -1.2520e+006 -3.6479e+006 -3.3499e+005 87358 239163,239241,239215
 2.2000e+001 239293 -1.0205e+006 -1.7074e+006 -1.1367e+006 87358 239163,239267,239241
 2.2000e+001 239589  4.1396e+003 -1.1207e+006  9.5343e+004 86961 239390,239468,239416
 2.2000e+001 239566  8.4452e+004 -1.0884e+006  1.2297e+005 86961 239390,239494,239468
 2.2000e+001 239543 -2.4550e+004 -3.3380e+005  5.3231e+004 86961 239416,239468,239442
 2.2000e+001 239520 -2.2192e+005 -4.6895e+005  2.1621e+005 86961 239364,239494,239390
 2.2000e+001 239741 -1.1834e+006 -4.5612e+006 -4.8001e+005 86621 239640,239692,239666
 2.2000e+001 239718 -5.1488e+005 -5.8612e+006 -1.3763e+006 86621 239614,239692,239640
 2.2000e+001 239893 -1.3619e+005 -5.1914e+006  8.7274e+005 86217 239792,239844,239818
 2.2000e+001 239870 -2.4098e+005 -3.7833e+006  2.6337e+005 86217 239766,239844,239792
 2.2000e+001 240045 -7.4870e+005 -4.9365e+006  4.2984e+005 85827 239918,239970,239944
 2.2000e+001 240022 -2.1674e+005 -4.7960e+006  2.1617e+005 85827 239918,239996,239970
 2.2000e+001 240197 -1.9569e+005 -6.5380e+006  7.9287e+005 85437 240096,240148,240122
 2.2000e+001 240174 -1.1270e+006 -3.1899e+006 -4.4872e+005 85437 240070,240148,240096
 2.2000e+001 240349 -1.1657e+005 -1.8818e+006  7.4291e+005 85147 240222,240274,240248
 2.2000e+001 240326 -1.2578e+005 -9.4699e+005 -1.2833e+005 85147 240222,240300,240274
 2.2000e+001 240501 -8.1502e+005 -2.4766e+006  7.4746e+005 84807 240374,240426,240400
 2.2000e+001 240478 -1.2835e+006 -2.6672e+006  8.8891e+005 84807 240374,240452,240426
 2.2000e+001 240653 -8.7900e+003 -2.7731e+005 -4.8071e+004 84303 240552,240604,240578
 2.2000e+001 240630 -7.4587e+003 -2.7438e+005 -4.6748e+004 84303 240526,240604,240552
 2.2000e+001 240854 -2.1764e+004 -9.1426e+006 -2.6315e+006 83929 240704,240756,240730
 2.2000e+001 240831  9.7474e+005 -8.0686e+006  1.0464e+006 83929 240704,240782,240756
 2.2000e+001 240808 -1.8603e+006 -3.6148e+005  1.5428e+006 83929 240678,240782,240704
 2.2000e+001 241055  5.3448e+003 -7.0351e+005 -4.5894e+004 83539 240879,240957,240931
 2.2000e+001 241032 -2.7061e+005 -8.2691e+005  6.6982e+004 83539 240879,240983,240957
 2.2000e+001 241009 -1.2393e+005 -3.5780e+005 -5.3718e+004 83539 240879,240931,240905
 2.2000e+001 241207  1.4313e+005 -2.3866e+006  2.3666e+005 83079 241106,241158,241132
 2.2000e+001 241184 -2.8831e+005 -7.3504e+005  3.0252e+005 83079 241080,241158,241106
 2.2000e+001 241408  1.1166e+006 -4.8014e+006  5.4099e+005 82665 241232,241284,241258
 2.2000e+001 241385 -1.7834e+006 -1.3925e+007 -4.1103e+006 82665 241232,241336,241284
 2.2000e+001 241362 -4.3539e+006  5.0954e+006  7.2718e+006 82665 241284,241336,241310
 2.2000e+001 241658 -1.7233e+005 -3.9855e+006  3.4342e+005 82375 241485,241563,241511
 2.2000e+001 241635  7.6000e+004 -2.8880e+006  3.6182e+005 82375 241433,241563,241485
 2.2000e+001 241612 -4.6898e+004 -3.3034e+006  4.4759e+005 82375 241433,241485,241459
 2.2000e+001 241589 -4.6731e+005 -4.6586e+006  6.1750e+005 82375 241511,241563,241537
 2.2000e+001 241810 -1.0783e+006 -3.9775e+006  7.6992e+004 82035 241683,241735,241709
 2.2000e+001 241787 -1.1002e+006 -4.2981e+006  5.0809e+005 82035 241683,241761,241735
 2.2000e+001 241962 -9.0712e+005 -3.9514e+006  3.4624e+005 81695 241861,241913,241887
 2.2000e+001 241939 -7.6431e+005 -4.4671e+006 -5.6191e+005 81695 241835,241913,241861
 2.2000e+001 242114 -8.9823e+005 -5.4204e+006  9.2508e+005 81355 242013,242065,242039
 2.2000e+001 242091 -5.0242e+005 -4.0607e+006  5.3522e+005 81355 241987,242065,242013
 2.2000e+001 242266 -9.9310e+004 -8.0978e+005 -1.2245e+005 80951 242139,242191,242165
 2.2000e+001 242243 -1.1453e+005 -9.0324e+005 -3.1651e+004 80951 242139,242217,242191
 2.2000e+001 242467 -2.1564e+005 -4.5893e+006  5.3418e+005 80311 242291,242369,242343
 2.2000e+001 242444  1.0855e+005 -3.4145e+006  3.8369e+005 80311 242291,242395,242369
 2.2000e+001 242421 -2.6156e+005 -3.4111e+006  2.7010e+005 80311 242291,242343,242317
 2.2000e+001 242619 -1.3344e+006 -3.1914e+006  6.1780e+004 80021 242492,242544,242518
 2.2000e+001 242596 -1.2031e+006 -2.7205e+006  4.4597e+005 80021 242492,242570,242544
 2.2000e+001 242869 -1.9798e+005 -1.5155e+006  3.0528e+005 79631 242644,242722,242696
 2.2000e+001 242846 -1.4065e+004 -1.4742e+006  2.3347e+005 79631 242644,242774,242722
 2.2000e+001 242823 -1.9927e+005 -2.1103e+006  3.7095e+005 79631 242722,242774,242748
 2.2000e+001 242800 -2.5525e+005 -1.8113e+006  3.5628e+005 79631 242644,242696,242670
 2.2000e+001 243070  1.1812e+005 -1.2597e+007  2.2840e+006 79341 242920,242972,242946
 2.2000e+001 243047 -6.6741e+005 -7.0897e+006 -4.1760e+005 79341 242920,242998,242972
 2.2000e+001 243024 -8.0786e+005 -4.5243e+006  1.9116e+006 79341 242894,242998,242920
 2.2000e+001 243222 -7.0935e+004 -2.3077e+006  7.0806e+005 78801 243121,243173,243147
 2.2000e+001 243199 -5.5834e+005 -3.9313e+006  1.2240e+006 78801 243095,243173,243121
 2.2000e+001 243423 -4.2260e+005 -7.3105e+006 -4.3335e+005 78511 243273,243325,243299
 2.2000e+001 243400 -1.0357e+005 -9.9786e+006  1.0161e+006 78511 243273,243351,243325
 2.2000e+001 243377 -6.1772e+003 -1.0002e+007  2.4847e+005 78511 243247,243351,243273
 2.2000e+001 243624 -3.3227e+005 -3.4139e+006 -4.8054e+005 78107 243474,243552,243526
 2.2000e+001 243601 -4.7183e+005 -3.1216e+006 -7.4249e+005 78107 243448,243552,243474
 2.2000e+001 243578 -7.5156e+005 -4.7791e+006 -1.7703e+006 78107 243474,243526,243500
 2.2000e+001 243776 -8.7025e+005 -4.7973e+006 -1.3518e+006 77653 243649,243701,243675
 2.2000e+001 243753 -2.0474e+006 -7.7358e+006 -4.0305e+005 77653 243649,243727,243701
 2.2000e+001 243977 -5.0017e+005 -5.5287e+006  4.1639e+003 77093 243801,243853,243827
 2.2000e+001 243954 -1.5573e+005 -4.4396e+006  5.3020e+005 77093 243801,243879,243853
 2.2000e+001 243931  6.9827e+004 -3.9754e+006  3.1797e+005 77093 243801,243905,243879
 2.2000e+001 244080 -1.6896e+006 -5.1456e+006  1.3898e+005 76791 244002,244054,244028
 2.2000e+001 244232 -3.9762e+004 -5.9345e+006  2.1887e+005 76311 244131,244183,244157
 2.2000e+001 244209  1.4050e+005 -9.0174e+006  6.7141e+005 76311 244105,244183,244131
 2.2000e+001 244433 -1.0585e+006 -1.2911e+007  1.5028e+006 75903 244283,244335,244309
 2.2000e+001 244410 -3.8223e+005 -1.1191e+007  2.5149e+005 75903 244283,244361,244335
 2.2000e+001 244387 -1.9583e+006 -8.8468e+006  2.0035e+006 75903 244257,244361,244283
 2.2000e+001 244585  7.7520e+004 -1.3313e+007  9.7026e+005 75419 244458,244510,244484
 2.2000e+001 244562 -4.6873e+005 -9.4801e+006  1.5093e+005 75419 244458,244536,244510
 2.2000e+001 244737 -3.5905e+005 -1.8589e+006 -1.4446e+005 75215 244636,244688,244662
 2.2000e+001 244714 -2.1775e+005 -5.3528e+006 -1.5199e+005 75215 244610,244688,244636
 2.2000e+001 244889 -1.0756e+006 -4.8729e+006 -3.8930e+005 74857 244788,244840,244814
 2.2000e+001 244866 -5.5891e+005 -2.9882e+006 -7.6235e+004 74857 244762,244840,244788
 2.2000e+001 245041  3.5278e+004 -3.5567e+005 -5.9197e+004 74653 244940,244992,244966
 2.2000e+001 245018 -5.6257e+003 -3.0101e+005  1.9536e+004 74653 244914,244992,244940
 2.2000e+001 245144 -2.3487e+004 -6.3981e+006 -7.2663e+005 74359 245066,245118,245092
 2.2000e+001 245296 -4.8818e+005 -3.3132e+006 -9.5380e+005 74007 245169,245221,245195
 2.2000e+001 245273 -5.1757e+005 -3.7905e+006 -9.1629e+005 74007 245169,245247,245221
 2.2000e+001 245448 -1.3113e+006 -7.2648e+006  2.7121e+006 73711 245321,245373,245347
 2.2000e+001 245425 -2.6382e+005 -6.9943e+006 -2.5597e+006 73711 245321,245399,245373
 2.2000e+001 245600  7.5289e+005 -1.0912e+007 -1.2648e+006 73301 245499,245551,245525
 2.2000e+001 245577 -1.4287e+006 -7.5259e+006  1.4631e+006 73301 245473,245551,245499
 2.2000e+001 245752 -9.3003e+005 -2.7282e+006 -1.1503e+006 72995 245625,245677,245651
 2.2000e+001 245729  6.8315e+005 -8.3264e+006 -1.0939e+006 72995 245625,245703,245677
 2.2000e+001 245953 -2.5228e+006 -1.0565e+007  8.3262e+005 72585 245777,245829,245803
 2.2000e+001 245930 -1.3628e+006 -1.1324e+007  2.3316e+006 72585 245777,245855,245829
 2.2000e+001 245907 -7.6665e+005 -1.0279e+007  1.8411e+006 72585 245777,245881,245855
 2.2000e+001 246154 -2.9119e+005 -5.6435e+006  1.1330e+006 72127 246030,246082,246056
 2.2000e+001 246131 -9.9866e+005 -7.7317e+006  6.0502e+005 72127 245978,246082,246030
 2.2000e+001 246108 -1.0811e+005 -7.7042e+006  1.1311e+005 72127 245978,246030,246004
 2.2000e+001 246257 -1.2908e+006 -2.8474e+006 -1.3216e+004 71737 246179,246231,246205
 2.2000e+001 246360 -1.5632e+005 -2.8806e+006  3.2699e+005 71447 246282,246334,246308
 2.2000e+001 246512 -2.7517e+005 -2.8018e+006  8.3447e+005 71157 246385,246437,246411
 2.2000e+001 246489 -1.0436e+005 -2.5337e+006  3.9488e+005 71157 246385,246463,246437
 2.2000e+001 246664 -1.5488e+005 -2.8258e+006 -2.4774e+005 70753 246537,246589,246563
 2.2000e+001 246641 -5.6133e+005 -1.7694e+006 -7.0147e+004 70753 246537,246615,246589
 2.2000e+001 246865 -1.4121e+006 -8.5426e+006  4.6522e+006 70249 246715,246767,246741
 2.2000e+001 246842 -1.8228e+006 -7.6639e+006  7.7341e+004 70249 246715,246793,246767
 2.2000e+001 246819 -6.5687e+005 -1.0089e+007 -1.4987e+006 70249 246689,246793,246715
 2.2000e+001 247066 -1.3901e+005 -2.2058e+006  4.3419e+005 70023 246916,246994,246942
 2.2000e+001 247043  7.6359e+004 -2.6650e+006  2.4880e+005 70023 246890,246994,246916
 2.2000e+001 247020 -1.1958e+005 -1.9223e+006  2.5069e+005 70023 246942,246994,246968
 2.2000e+001 247267 -3.4399e+005 -4.4149e+006 -4.1464e+005 69633 247091,247143,247117
 2.2000e+001 247244 -1.0604e+005 -3.5394e+006 -2.5840e+005 69633 247091,247169,247143
 2.2000e+001 247221 -3.1405e+004 -2.8760e+006 -2.2538e+005 69633 247091,247195,247169
 2.2000e+001 247419 -9.0152e+005 -5.6146e+006  7.9122e+005 69457 247318,247370,247344
 2.2000e+001 247396 -1.0349e+006 -4.1217e+006  9.1455e+005 69457 247292,247370,247318
 2.2000e+001 247522 -2.5027e+001 -3.4494e+004 -2.9580e+002 69209 247444,247496,247470
 2.2000e+001 247625 -1.5420e+006 -1.5887e+006 -5.0884e+005 68919 247547,247599,247573
 2.2000e+001 247777  3.1133e+005 -5.7813e+006 -3.8905e+005 68579 247650,247702,247676
 2.2000e+001 247754 -2.4131e+005 -2.3156e+006 -8.1141e+004 68579 247650,247728,247702
 2.2000e+001 247929 -3.8323e+005 -3.9435e+006  1.6421e+006 68289 247802,247854,247828
 2.2000e+001 247906 -2.6104e+005 -2.9817e+006  7.9333e+005 68289 247802,247880,247854
 2.2000e+001 248081 -2.9224e+005 -4.5404e+006  1.0928e+006 67949 247980,248032,248006
 2.2000e+001 248058 -4.6006e+005 -1.1905e+006  3.4268e+004 67949 247954,248032,247980
 2.2000e+001 248233 -1.7373e+006 -5.7067e+006 -6.9648e+005 67616 248132,248184,248158
 2.2000e+001 248210 -6.5470e+005 -6.2650e+006 -4.4700e+005 67616 248106,248184,248132
 2.2000e+001 248434 -1.3451e+005 -3.6937e+006 -1.9693e+005 67212 248284,248336,248310
 2.2000e+001 248411 -5.1455e+004 -3.7387e+006 -4.2156e+005 67212 248258,248336,248284
 2.2000e+001 248388 -1.2612e+006 -2.7341e+006 -4.3692e+005 67212 248258,248362,248336
 2.2000e+001 248586 -3.2429e+004 -4.6461e+006  3.9912e+005 66872 248485,248537,248511
 2.2000e+001 248563 -6.8949e+005 -1.6529e+006 -2.1140e+005 66872 248459,248537,248485
 2.2000e+001 248738 -2.2442e+005 -5.1311e+006  9.7442e+004 66510 248637,248689,248663
 2.2000e+001 248715 -3.3033e+005 -8.3934e+006  1.8678e+005 66510 248611,248689,248637
 2.2000e+001 248890 -3.0883e+004 -7.3062e+005  1.5019e+005 66220 248789,248841,248815
 2.2000e+001 248867 -2.1721e+005 -9.7409e+005 -2.4145e+005 66220 248763,248841,248789
 2.2000e+001 249091 -7.1500e+005 -7.4078e+006  2.2047e+006 65759 248915,248967,248941
 2.2000e+001 249068 -5.0497e+005 -6.5819e+006  2.1564e+006 65759 248915,248993,248967
 2.2000e+001 249045 -2.3655e+005 -4.8786e+006  1.0297e+006 65759 248915,249019,248993
 2.2000e+001 249243 -2.3875e+005 -8.2231e+006  1.8581e+006 65419 249142,249194,249168
 2.2000e+001 249220 -4.0890e+005 -4.5610e+006  5.3211e+005 65419 249116,249194,249142
 2.2000e+001 249395 -3.8213e+005 -2.8279e+006 -3.3178e+005 65079 249268,249320,249294
 2.2000e+001 249372 -3.8551e+005 -3.5333e+006 -5.4140e+005 65079 249268,249346,249320
 2.2000e+001 249547 -3.4454e+004 -6.6385e+005 -4.5360e+004 64739 249420,249472,249446
 2.2000e+001 249524 -2.7699e+005 -7.4757e+005  2.7184e+004 64739 249420,249498,249472
 2.2000e+001 249650 -1.2443e+006 -5.1004e+006 -2.1527e+006 64342 249572,249624,249598
 2.2000e+001 249851 -1.3659e+006 -6.2771e+006 -1.4549e+006 63938 249701,249779,249753
 2.2000e+001 249828 -8.5569e+005 -6.8567e+006  2.7472e+006 63938 249675,249779,249701
 2.2000e+001 249805 -1.2197e+006 -1.8972e+007 -7.1759e+005 63938 249701,249753,249727
 2.2000e+001 250052 -7.6968e+005 -5.7383e+006 -3.6719e+005 63341 249876,249954,249902
 2.2000e+001 250029 -1.0532e+006 -5.6610e+006 -3.9277e+004 63341 249876,249980,249954
 2.2000e+001 250006  7.3799e+005 -6.9541e+006  6.4047e+005 63341 249902,249954,249928
 2.2000e+001 250253 -1.7051e+005 -1.0976e+007 -1.4015e+006 63058 250077,250129,250103
 2.2000e+001 250230 -9.5033e+005 -6.1469e+006 -3.3053e+005 63058 250077,250155,250129
 2.2000e+001 250207 -4.2657e+005 -5.6987e+006 -9.0262e+005 63058 250077,250181,250155
 2.2000e+001 250454 -1.0698e+006 -7.6859e+006  1.5530e+006 62832 250304,250382,250330
 2.2000e+001 250431  2.7208e+005 -9.6179e+006 -2.4270e+006 62832 250278,250382,250304
 2.2000e+001 250408 -2.5337e+006 -4.7977e+006  4.6252e+005 62832 250330,250382,250356
 2.2000e+001 250606 -1.4591e+004 -1.2495e+007  2.6005e+005 62428 250479,250531,250505
 2.2000e+001 250583 -9.0004e+004 -1.0053e+007 -3.2287e+005 62428 250479,250557,250531
 2.2000e+001 250758 -2.6591e+005 -7.4906e+006  8.3622e+005 62202 250631,250683,250657
 2.2000e+001 250735 -1.5605e+005 -8.4023e+006  2.2042e+006 62202 250631,250709,250683
 2.2000e+001 250861 -1.6536e+006 -2.9714e+006  4.5573e+004 61954 250783,250835,250809
 2.2000e+001 251062 -1.8444e+006 -8.7697e+006 -2.6234e+005 61557 250912,250990,250938
 2.2000e+001 251039 -1.2653e+003 -1.0654e+007 -2.6962e+005 61557 250886,250990,250912
 2.2000e+001 251016 -1.2367e+006 -9.8866e+006 -1.4134e+006 61557 250938,250990,250964
 2.2000e+001 251263 -1.1187e+006 -7.9550e+006  3.6757e+004 61167 251113,251165,251139
 2.2000e+001 251240 -3.9832e+005 -7.6385e+006 -3.5625e+005 61167 251113,251191,251165
 2.2000e+001 251217 -1.1795e+006 -7.3768e+006  2.2782e+006 61167 251087,251191,251113
 2.2000e+001 251415 -8.1048e+005 -3.2402e+006  7.6964e+005 60827 251288,251340,251314
 2.2000e+001 251392 -4.9630e+005 -1.5236e+006 -1.3763e+005 60827 251288,251366,251340
 2.2000e+001 251567  1.2279e+005 -5.7778e+006  6.6445e+005 60487 251466,251518,251492
 2.2000e+001 251544 -4.0978e+004 -3.7796e+006 -3.1034e+005 60487 251440,251518,251466
 2.2000e+001 251719  2.1397e+005 -1.0320e+007 -4.6526e+004 59983 251592,251644,251618
 2.2000e+001 251696 -6.9911e+005 -8.3255e+006  1.7169e+005 59983 251592,251670,251644
 2.2000e+001 251920  4.6022e+004 -2.0810e+006  4.4688e+004 59807 251770,251848,251796
 2.2000e+001 251897  3.6278e+004 -1.9276e+006 -9.3482e+003 59807 251744,251848,251770
 2.2000e+001 251874  1.0290e+004 -2.4017e+006 -5.8041e+004 59807 251796,251848,251822
 2.2000e+001 252023 -3.2016e+005 -4.6346e+006  6.5197e+004 59517 251945,251997,251971
 2.2000e+001 252175  9.3505e+005 -1.0913e+007 -7.4110e+005 59269 252074,252126,252100
 2.2000e+001 252152 -1.3133e+006  1.5525e+006  1.1065e+006 59269 252048,252126,252074
 2.2000e+001 252278 -3.9998e+005 -2.1657e+006  9.5953e+005 58979 252200,252252,252226
 2.2000e+001 252381 -2.2201e+006 -2.8573e+006  1.1481e+006 58689 252303,252355,252329
 2.2000e+001 252533 -9.8995e+005 -5.3203e+006 -5.3413e+004 58249 252432,252484,252458
 2.2000e+001 252510 -8.7282e+005 -5.8304e+006 -8.3763e+005 58249 252406,252484,252432
 2.2000e+001 252734 -3.8701e+005 -4.8322e+006  2.1628e+005 57902 252584,252662,252610
 2.2000e+001 252711  8.4071e+005 -5.7021e+006 -7.9382e+004 57902 252558,252662,252584
 2.2000e+001 252688 -2.9228e+005 -3.5126e+006 -3.6131e+005 57902 252610,252662,252636
 2.2000e+001 252886 -1.5488e+005 -4.3709e+006 -1.4673e+005 57540 252785,252837,252811
 2.2000e+001 252863  1.3631e+005 -4.7023e+006 -1.5758e+005 57540 252759,252837,252785
 2.2000e+001 253038 -5.8012e+005 -5.7245e+006  1.3089e+006 57086 252937,252989,252963
 2.2000e+001 253015 -3.0719e+005 -2.7148e+006  2.5675e+005 57086 252911,252989,252937
 2.2000e+001 253239 -5.1058e+005 -5.0197e+006 -1.3376e+006 56796 253063,253141,253115
 2.2000e+001 253216  1.9158e+005 -5.9317e+006 -2.1525e+005 56796 253063,253167,253141
 2.2000e+001 253193 -1.0967e+006 -2.9794e+006 -1.0259e+006 56796 253063,253115,253089
 2.2000e+001 253342 -7.1110e+005 -7.8514e+006  6.2740e+005 56349 253264,253316,253290
 2.2000e+001 253543 -8.7060e+005 -8.7034e+006 -5.9786e+005 56009 253367,253419,253393
 2.2000e+001 253520 -5.9324e+005 -5.5741e+006 -3.3331e+005 56009 253367,253445,253419
 2.2000e+001 253497 -3.4449e+005 -6.6784e+006  1.7785e+005 56009 253367,253471,253445
 2.2000e+001 253695 -2.5213e+004 -4.0673e+006 -2.3054e+004 55733 253594,253646,253620
 2.2000e+001 253672 -1.5127e+005 -3.2580e+006  1.7620e+003 55733 253568,253646,253594
 2.2000e+001 253798 -4.8303e+005 -2.3497e+006 -1.1442e+005 55557 253720,253772,253746
 2.2000e+001 253950 -5.8889e+005 -4.2912e+006  4.2440e+005 55153 253849,253901,253875
 2.2000e+001 253927  2.1211e+005 -4.8971e+006 -3.3510e+005 55153 253823,253901,253849
 2.2000e+001 254151 -1.2581e+006 -4.8324e+006  8.2011e+005 54863 253975,254053,254001
 2.2000e+001 254128 -6.7968e+005 -4.8658e+006  1.1301e+005 54863 253975,254079,254053
 2.2000e+001 254105 -4.9026e+005 -3.9113e+006  2.7147e+005 54863 254001,254053,254027
 2.2000e+001 254303  1.4970e+005 -5.5432e+006  7.6860e+004 54373 254176,254228,254202
 2.2000e+001 254280 -7.1028e+005 -4.2398e+006  8.0514e+004 54373 254176,254254,254228
 2.2000e+001 254455 -2.4511e+005 -5.2352e+006 -3.6413e+005 53975 254354,254406,254380
 2.2000e+001 254432 -7.7616e+005 -1.7175e+006  9.8277e+004 53975 254328,254406,254354
 2.2000e+001 254607 -3.8594e+005 -4.9659e+006 -4.3544e+005 53585 254480,254532,254506
 2.2000e+001 254584 -3.6260e+005 -4.8022e+006 -4.7707e+005 53585 254480,254558,254532
 2.2000e+001 254808 -8.5400e+005 -3.7606e+006  3.7260e+004 53245 254658,254736,254684
 2.2000e+001 254785 -1.0244e+006 -2.0751e+006 -3.5471e+005 53245 254632,254736,254658
 2.2000e+001 254762 -4.4072e+005 -2.5706e+006 -2.6308e+005 53245 254684,254736,254710
 2.2000e+001 254911 -3.4452e+005 -5.8352e+006 -1.0141e+004 52955 254833,254885,254859
 2.2000e+001 255063 -7.4488e+005 -5.8854e+006 -9.3274e+004 52551 254962,255014,254988
 2.2000e+001 255040 -6.5644e+005 -6.4392e+006 -3.1693e+005 52551 254936,255014,254962
 2.2000e+001 255264 -9.3659e+005 -1.8521e+006  1.9787e+005 52261 255114,255166,255140
 2.2000e+001 255241 -1.1392e+006 -4.4910e+006  1.0193e+006 52261 255114,255192,255166
 2.2000e+001 255218  2.9954e+005 -7.6968e+006 -1.9193e+006 52261 255088,255192,255114
 2.2000e+001 255416 -3.6900e+005 -4.9127e+006  1.4898e+006 51971 255289,255341,255315
 2.2000e+001 255393 -2.8601e+005 -4.5346e+006 -1.5817e+005 51971 255289,255367,255341
 2.2000e+001 255568 -9.8940e+005 -2.3230e+006 -2.5828e+005 51681 255441,255493,255467
 2.2000e+001 255545  1.2278e+005 -8.5476e+006  7.8434e+005 51681 255441,255519,255493
 2.2000e+001 255769 -2.4565e+005 -3.7400e+006 -8.0961e+004 51291 255619,255697,255671
 2.2000e+001 255746 -2.1334e+005 -3.3547e+006 -3.5746e+005 51291 255593,255697,255619
 2.2000e+001 255723 -1.4934e+005 -5.2411e+006 -4.1723e+005 51291 255619,255671,255645
 2.2000e+001 255921 -4.1168e+005 -3.1640e+006  7.6270e+005 50951 255820,255872,255846
 2.2000e+001 255898 -2.1912e+005 -2.5975e+006  1.4394e+005 50951 255794,255872,255820
 2.2000e+001 256171 -1.2058e+006 -4.4451e+006  7.2588e+004 50547 256024,256076,256050
 2.2000e+001 256148 -9.2297e+005 -4.6084e+006  5.2185e+005 50547 255972,256076,256024
 2.2000e+001 256125 -2.1205e+005 -5.3333e+006 -1.6799e+004 50547 255946,256076,255972
 2.2000e+001 256102 -8.2129e+005 -4.0230e+006  3.0677e+005 50547 255972,256024,255998
 2.2000e+001 256323  2.4064e+005 -5.2347e+006  8.8871e+005 50093 256196,256248,256222
 2.2000e+001 256300 -8.7126e+005 -2.8532e+006 -9.8419e+005 50093 256196,256274,256248
 2.2000e+001 256426  2.8995e+002 -2.0447e+005 -1.3424e+002 49845 256348,256400,256374
 2.2000e+001 256627 -1.4747e+005 -5.2385e+006  1.9134e+005 49555 256477,256555,256503
 2.2000e+001 256604 -3.3112e+005 -4.3085e+006  1.5742e+005 49555 256451,256555,256477
 2.2000e+001 256581 -4.1365e+005 -4.4488e+006  3.4299e+005 49555 256503,256555,256529
 2.2000e+001 256828 -4.7790e+005 -3.6685e+006 -1.0056e+005 49056 256652,256730,256678
 2.2000e+001 256805 -4.9888e+005 -3.3167e+006 -8.8832e+004 49056 256652,256756,256730
 2.2000e+001 256782 -5.8592e+005 -3.3281e+006 -3.2467e+005 49056 256678,256730,256704
 2.2000e+001 256931 -1.0008e+006 -2.0211e+006 -7.4736e+005 48766 256853,256905,256879
 2.2000e+001 257083 -7.8847e+005 -4.8406e+006 -5.6129e+005 48568 256982,257034,257008
 2.2000e+001 257060 -5.9269e+005 -4.0440e+006 -6.4647e+005 48568 256956,257034,256982
 2.2000e+001 257186 -7.2723e+003 -1.9074e+006  2.3504e+003 48228 257108,257160,257134
 2.2000e+001 257338 -3.9897e+005 -2.1823e+006  6.0043e+005 47888 257237,257289,257263
 2.2000e+001 257315 -4.5632e+005 -2.0528e+006  4.5537e+005 47888 257211,257289,257237
 2.2000e+001 257539 -2.9876e+005 -4.2658e+006  1.2827e+005 47548 257363,257441,257415
 2.2000e+001 257516 -5.8593e+005 -4.1061e+006 -1.9896e+005 47548 257363,257467,257441
 2.2000e+001 257493 -5.6394e+005 -3.1121e+006 -1.6196e+005 47548 257363,257415,257389
 2.2000e+001 257740 -2.4635e+005 -4.7120e+006  4.5715e+005 46994 257564,257642,257616
 2.2000e+001 257717 -4.4366e+005 -3.9329e+006  1.7160e+005 46994 257564,257668,257642
 2.2000e+001 257694 -7.3071e+005 -5.0259e+006  7.5377e+004 46994 257564,257616,257590
 2.2000e+001 257843 -1.1191e+006 -3.4997e+006  1.3826e+005 46654 257765,257817,257791
 2.2000e+001 257995 -7.6856e+005 -3.4431e+006  3.2967e+005 46364 257894,257946,257920
 2.2000e+001 257972 -6.7817e+005 -4.3278e+006 -1.6504e+005 46364 257868,257946,257894
 2.2000e+001 258147 -1.9582e+005 -3.5011e+006  2.7251e+005 46024 258046,258098,258072
 2.2000e+001 258124 -3.5702e+005 -3.3140e+006  3.1450e+005 46024 258020,258098,258046
 2.2000e+001 258250 -7.4217e+005 -3.0188e+006  7.9134e+005 45741 258172,258224,258198
 2.2000e+001 258402 -1.2190e+005 -3.2413e+006  2.6830e+005 45401 258301,258353,258327
 2.2000e+001 258379 -5.2770e+005 -2.4374e+006  1.7491e+005 45401 258275,258353,258301
 2.2000e+001 258603 -6.5558e+005 -2.1436e+006  3.3326e+004 45071 258427,258505,258479
 2.2000e+001 258580 -2.5296e+005 -4.8903e+006  3.3637e+005 45071 258427,258531,258505
 2.2000e+001 258557 -2.1286e+005 -2.7669e+006  2.5301e+005 45071 258427,258479,258453
 2.2000e+001 258755 -1.6805e+005 -3.9744e+006 -2.6754e+005 44681 258654,258706,258680
 2.2000e+001 258732 -1.9984e+005 -4.0947e+006 -2.9684e+005 44681 258628,258706,258654
 2.2000e+001 258907 -4.7843e+005 -2.4513e+006 -1.9611e+005 44157 258806,258858,258832
 2.2000e+001 258884 -5.0591e+005 -2.4605e+006 -2.0659e+005 44157 258780,258858,258806
 2.2000e+001 259010 -6.3005e+005 -1.6895e+006  7.1425e+003 43705 258932,258984,258958
 2.2000e+001 259113 -3.1316e+005 -4.0973e+006  3.2943e+005 43284 259035,259087,259061
 2.2000e+001 259216 -5.2878e+005 -3.6982e+006 -2.1111e+005 42954 259138,259190,259164
 2.2000e+001 259319 -9.1875e+005 -2.0222e+006  1.7263e+003 42116 259241,259293,259267
 2.2000e+001 259422 -3.5923e+005 -3.6231e+006 -2.4684e+005 41804 259344,259396,259370
 2.2000e+001 259525 -6.2022e+005 -5.8986e+006  7.9393e+005 41219 259447,259499,259473
 2.2000e+001 259628 -8.3083e+005 -3.0779e+006 -3.3577e+005 385 259550,259602,259576
 2.4000e+001 190120 -8.7716e+005 -2.1402e+006  1.7221e+005 189630 189993,190045,190019
 2.4000e+001 190097 -4.6585e+005 -2.1487e+006  2.5044e+005 189630 189993,190071,190045
 2.4000e+001 190319 -1.1954e+006 -5.3937e+006  1.2159e+005 189312 190169,190221,190195
 2.4000e+001 190296 -4.7429e+005 -4.3619e+006 -7.9380e+005 189312 190169,190247,190221
 2.4000e+001 190273 -7.4100e+005 -4.0155e+006 -4.8764e+004 189312 190143,190247,190169
 2.4000e+001 190518 -5.1972e+005 -2.3374e+006 -6.3445e+005 189124 190368,190446,190420
 2.4000e+001 190495 -7.9568e+005 -1.1591e+006  2.6092e+005 189124 190342,190446,190368
 2.4000e+001 190472 -1.9510e+006 -2.4799e+006 -1.3001e+006 189124 190368,190420,190394
 2.4000e+001 190619 -4.9312e+005 -2.5589e+005 -1.2761e+004 188926 190541,190593,190567
 2.4000e+001 190771 -3.7102e+005 -3.2545e+006 -3.8910e+005 188614 190670,190722,190696
 2.4000e+001 190748 -2.6156e+005 -1.1378e+006  2.1559e+005 188614 190644,190722,190670
 2.4000e+001 190972 -7.8780e+004 -2.9495e+006 -4.6822e+005 188324 190848,190900,190874
 2.4000e+001 190949 -1.8939e+005 -2.3857e+006 -1.6233e+005 188324 190796,190900,190848
 2.4000e+001 190926 -5.6761e+005 -3.7140e+006 -5.0586e+005 188324 190796,190848,190822
 2.4000e+001 191124 -5.2665e+005 -2.1639e+006 -1.6083e+005 188034 191023,191075,191049
 2.4000e+001 191101 -3.2604e+005 -2.1293e+006 -1.9576e+005 188034 190997,191075,191023
 2.4000e+001 191276 -2.0003e+005 -2.6142e+006 -1.7295e+005 187836 191149,191201,191175
 2.4000e+001 191253 -4.7672e+005 -2.1231e+006  7.5849e+004 187836 191149,191227,191201
 2.4000e+001 191379 -4.1180e+005 -1.1427e+006 -1.6290e+005 187546 191301,191353,191327
 2.4000e+001 191531 -1.0096e+005 -7.3109e+006 -2.3104e+006 187256 191430,191482,191456
 2.4000e+001 191508 -6.3356e+005 -5.4233e+006  3.9201e+005 187256 191404,191482,191430
 2.4000e+001 191634 -2.2721e+005 -3.4643e+006 -2.2834e+005 187058 191556,191608,191582
 2.4000e+001 191835 -6.2978e+004 -2.3758e+006  3.1271e+005 186860 191659,191711,191685
 2.4000e+001 191812 -3.6009e+005 -1.3506e+006  4.8223e+005 186860 191659,191737,191711
 2.4000e+001 191789 -1.1397e+005 -8.8853e+005  9.2669e+004 186860 191659,191763,191737
 2.4000e+001 191987 -5.7454e+005 -2.4173e+006 -2.5740e+005 186662 191886,191938,191912
 2.4000e+001 191964 -3.7764e+005 -2.4999e+006 -2.0070e+005 186662 191860,191938,191886
 2.4000e+001 192090 -7.0167e+005 -1.9152e+006 -3.7484e+004 186486 192012,192064,192038
 2.4000e+001 192242 -5.2145e+005 -6.4507e+006  1.8657e+004 186288 192115,192167,192141
 2.4000e+001 192219 -4.4143e+005 -5.8704e+006  1.8867e+005 186288 192115,192193,192167
 2.4000e+001 192394 -1.3455e+005 -5.6877e+006 -3.0913e+005 185935 192293,192345,192319
 2.4000e+001 192371 -4.1019e+005 -4.9234e+006 -4.7483e+005 185935 192267,192345,192293
 2.4000e+001 192546 -7.4666e+005 -2.2405e+006 -1.5254e+005 185675 192419,192471,192445
 2.4000e+001 192523 -3.7970e+005 -2.4969e+006  1.0812e+004 185675 192419,192497,192471
 2.4000e+001 192649 -4.1631e+005 -1.8575e+006  5.0556e+004 185499 192571,192623,192597
 2.4000e+001 192801 -1.2059e+006 -1.9349e+006  1.0492e+004 185301 192674,192726,192700
 2.4000e+001 192778 -6.6353e+005 -1.7665e+006 -1.2117e+005 185301 192674,192752,192726
 2.4000e+001 193002 -1.5603e+005 -3.3487e+006 -5.2604e+005 185046 192852,192930,192878
 2.4000e+001 192979 -4.3564e+005 -4.4084e+006 -4.2935e+005 185046 192826,192930,192852
 2.4000e+001 192956  3.8786e+005 -5.4450e+006  1.1264e+005 185046 192878,192930,192904
 2.4000e+001 193203 -1.9228e+006 -3.5763e+006 -6.7416e+005 184798 193079,193131,193105
 2.4000e+001 193180  2.6358e+005 -6.9291e+006 -1.7278e+006 184798 193027,193131,193079
 2.4000e+001 193157 -1.3592e+005 -7.3010e+006  1.8750e+006 184798 193027,193079,193053
 2.4000e+001 193404 -3.0503e+005 -5.2957e+006 -1.0689e+006 184600 193254,193306,193280
 2.4000e+001 193381 -9.6245e+005 -3.0795e+006  2.6315e+005 184600 193254,193332,193306
 2.4000e+001 193358 -1.1913e+006 -2.0291e+006  2.4833e+004 184600 193228,193332,193254
 2.4000e+001 193556 -1.2063e+005 -3.1004e+006 -2.1780e+005 184402 193429,193481,193455
 2.4000e+001 193533 -8.8557e+005 -1.8635e+006 -1.1541e+006 184402 193429,193507,193481
 2.4000e+001 193708 -5.3101e+005 -5.2307e+006 -5.0570e+005 184204 193607,193659,193633
 2.4000e+001 193685 -8.8534e+005 -6.0583e+006 -8.3577e+005 184204 193581,193659,193607
 2.4000e+001 193860 -2.9456e+005 -2.6186e+006  6.9016e+004 183908 193759,193811,193785
 2.4000e+001 193837 -1.7772e+005 -2.4120e+006  1.5847e+005 183908 193733,193811,193759
 2.4000e+001 194061 -2.6409e+005 -1.8447e+006 -2.1719e+005 183710 193911,193989,193937
 2.4000e+001 194038 -5.5644e+005 -1.6993e+006  2.1078e+005 183710 193885,193989,193911
 2.4000e+001 194015 -1.8064e+005 -2.7780e+006 -6.4954e+004 183710 193937,193989,193963
 2.4000e+001 194262 -1.2961e+006 -5.3681e+006 -1.5577e+006 183420 194086,194164,194112
 2.4000e+001 194239 -1.1026e+006 -3.7711e+006  3.1579e+004 183420 194086,194190,194164
 2.4000e+001 194216 -2.4329e+006 -1.0918e+007  1.3560e+006 183420 194112,194164,194138
 2.4000e+001 194414 -1.6034e+005 -6.2793e+006  3.8248e+005 183222 194287,194339,194313
 2.4000e+001 194391 -6.1613e+005 -2.4242e+006 -4.3475e+005 183222 194287,194365,194339
 2.4000e+001 194517 -1.3586e+006 -2.7852e+006 -7.4078e+004 183024 194439,194491,194465
 2.4000e+001 194718  4.9423e+005 -1.7853e+007  1.6591e+006 182734 194568,194620,194594
 2.4000e+001 194695 -8.4931e+005 -6.2911e+006 -3.4840e+006 182734 194542,194620,194568
 2.4000e+001 194672 -3.0629e+006 -2.9780e+006 -1.7420e+006 182734 194542,194646,194620
 2.4000e+001 194870 -6.5741e+005 -3.8125e+006 -9.3595e+003 182444 194769,194821,194795
 2.4000e+001 194847 -2.9562e+005 -2.0257e+006 -3.4353e+005 182444 194743,194821,194769
 2.4000e+001 195071 -1.6628e+006 -3.7328e+006 -6.6216e+005 182154 194895,194947,194921
 2.4000e+001 195048 -9.1213e+005 -2.3012e+006  4.9412e+005 182154 194895,194999,194947
 2.4000e+001 195025  1.2663e+005 -7.5567e+006  7.0336e+005 182154 194947,194999,194973
 2.4000e+001 195223 -7.1466e+005 -3.8152e+006 -4.7986e+004 181814 195096,195148,195122
 2.4000e+001 195200 -3.6764e+005 -2.2497e+006  2.6363e+005 181814 195096,195174,195148
 2.4000e+001 195375 -5.0068e+004 -5.2835e+006  5.9055e+005 181524 195248,195300,195274
 2.4000e+001 195352 -1.9874e+005 -3.9034e+006  3.3154e+005 181524 195248,195326,195300
 2.4000e+001 195527 -4.3632e+004 -6.1623e+005  2.0582e+005 181326 195426,195478,195452
 2.4000e+001 195504 -4.0120e+005 -1.3947e+006  4.8155e+005 181326 195400,195478,195426
 2.4000e+001 195679  7.1532e+005 -1.3224e+007  1.9413e+005 180936 195578,195630,195604
 2.4000e+001 195656 -1.0305e+006 -5.3099e+006  4.8962e+004 180936 195552,195630,195578
 2.4000e+001 195831 -5.8753e+005 -2.9918e+005 -1.6677e+005 180646 195704,195756,195730
 2.4000e+001 195808 -5.1426e+005 -9.6598e+004 -3.7734e+004 180646 195704,195782,195756
 2.4000e+001 196032 -3.2809e+005 -2.9971e+006  1.2117e+006 180306 195882,195960,195934
 2.4000e+001 196009 -7.4507e+005 -1.8261e+006 -6.9918e+004 180306 195856,195960,195882
 2.4000e+001 195986  4.8352e+005 -4.6259e+006 -5.9836e+005 180306 195882,195934,195908
 2.4000e+001 196233 -1.1420e+005 -1.4843e+006 -1.6685e+006 179944 196057,196109,196083
 2.4000e+001 196210 -1.9117e+006 -9.8912e+006  1.3179e+006 179944 196057,196135,196109
 2.4000e+001 196187 -4.1418e+006  8.7231e+006 -3.2426e+006 179944 196057,196161,196135
 2.4000e+001 196385 -1.1443e+005 -9.0924e+005 -3.3264e+005 179604 196258,196310,196284
 2.4000e+001 196362 -8.4477e+004 -8.6802e+005 -2.6281e+005 179604 196258,196336,196310
 2.4000e+001 196586  9.4495e+004 -2.6052e+006 -2.4616e+005 179114 196410,196488,196436
 2.4000e+001 196563  1.5526e+004 -2.7194e+006 -1.9052e+005 179114 196410,196514,196488
 2.4000e+001 196540 -2.6408e+004 -2.6296e+006 -2.6440e+005 179114 196436,196488,196462
 2.4000e+001 196738 -6.5564e+005 -3.1283e+006 -4.0817e+005 178674 196611,196663,196637
 2.4000e+001 196715 -7.1237e+004 -4.4677e+006 -9.6739e+004 178674 196611,196689,196663
 2.4000e+001 196939  1.6089e+006 -1.1121e+007 -1.0363e+006 178334 196789,196867,196841
 2.4000e+001 196916 -1.0311e+006 -1.0940e+007  8.5962e+005 178334 196763,196867,196789
 2.4000e+001 196893 -1.7938e+006 -8.6285e+006 -4.6079e+006 178334 196789,196841,196815
 2.4000e+001 197091 -2.0565e+005 -5.7844e+006 -4.9890e+005 177930 196990,197042,197016
 2.4000e+001 197068 -1.0186e+005 -5.1115e+006 -1.6679e+005 177930 196964,197042,196990
 2.4000e+001 197194 -2.0433e+002 -1.5367e+006 -2.9517e+002 177732 197116,197168,197142
 2.4000e+001 197346 -3.6348e+005 -8.0736e+006 -4.6196e+005 177534 197219,197271,197245
 2.4000e+001 197323  3.8801e+005 -1.0588e+007  8.8408e+005 177534 197219,197297,197271
 2.4000e+001 197547 -6.6263e+005 -4.9269e+006 -1.5427e+006 177130 197397,197449,197423
 2.4000e+001 197524 -7.7391e+005 -5.0870e+006 -8.1029e+005 177130 197397,197475,197449
 2.4000e+001 197501 -7.8794e+005 -1.2503e+007 -1.6066e+006 177130 197371,197475,197397
 2.4000e+001 197748 -2.8334e+005 -8.9009e+006  6.0917e+004 176790 197598,197676,197624
 2.4000e+001 197725 -1.9700e+005 -6.5956e+006  2.6290e+005 176790 197572,197676,197598
 2.4000e+001 197702 -5.4707e+005 -7.2156e+006  6.3874e+005 176790 197624,197676,197650
 2.4000e+001 197900 -2.0032e+005 -5.5475e+006 -9.1948e+005 176300 197773,197825,197799
 2.4000e+001 197877  2.9260e+005 -6.2805e+006 -1.0308e+006 176300 197773,197851,197825
 2.4000e+001 198052 -3.1678e+005 -1.2264e+007 -2.4507e+006 176010 197925,197977,197951
 2.4000e+001 198029 -1.4117e+006 -5.8279e+006 -1.3319e+006 176010 197925,198003,197977
 2.4000e+001 198204 -2.5817e+006 -7.4050e+006  1.4673e+006 175670 198103,198155,198129
 2.4000e+001 198181 -1.3658e+006 -7.2608e+006 -9.4295e+005 175670 198077,198155,198103
 2.4000e+001 198405 -4.7183e+005 -9.0436e+006 -1.3488e+006 175266 198255,198307,198281
 2.4000e+001 198382 -1.7216e+005 -7.4748e+006 -8.0425e+004 175266 198229,198307,198255
 2.4000e+001 198359 -6.3725e+005 -5.5567e+006 -1.5425e+006 175266 198229,198333,198307
 2.4000e+001 198606  4.7432e+004 -3.4461e+006 -1.1746e+005 174876 198430,198508,198482
 2.4000e+001 198583 -4.3030e+005 -3.5715e+006 -5.0786e+004 174876 198430,198534,198508
 2.4000e+001 198560 -6.1431e+005 -1.3368e+006 -7.5810e+005 174876 198430,198482,198456
 2.4000e+001 198758 -2.3809e+004 -1.1523e+005 -5.2834e+004 174536 198657,198709,198683
 2.4000e+001 198735 -2.3944e+004 -1.1254e+005 -5.1419e+004 174536 198631,198709,198657
 2.4000e+001 199008  5.8403e+004 -1.3742e+007  4.3973e+005 174132 198835,198913,198887
 2.4000e+001 198985 -2.8370e+005 -7.7338e+006  4.2250e+005 174132 198809,198913,198835
 2.4000e+001 198962 -6.9081e+004 -8.0233e+006 -1.8579e+006 174132 198783,198913,198809
 2.4000e+001 198939  3.6141e+005 -1.2755e+007  8.4826e+005 174132 198835,198887,198861
 2.4000e+001 199160 -7.0961e+005 -7.4010e+006  3.1270e+005 173842 199059,199111,199085
 2.4000e+001 199137 -1.1416e+006 -4.9000e+006 -5.8520e+005 173842 199033,199111,199059
 2.4000e+001 199361 -6.8422e+005 -1.0811e+007  1.2509e+006 173438 199237,199289,199263
 2.4000e+001 199338 -8.9019e+005 -7.9259e+006  1.8181e+006 173438 199211,199289,199237
 2.4000e+001 199315 -9.9814e+005 -1.0322e+007 -2.0663e+005 173438 199185,199289,199211
 2.4000e+001 199513  5.8425e+005 -1.3143e+007  2.2604e+006 173190 199386,199438,199412
 2.4000e+001 199490  1.0501e+005 -9.7630e+006 -2.1581e+004 173190 199386,199464,199438
 2.4000e+001 199665 -4.5857e+005 -4.4591e+006  2.4682e+005 172750 199564,199616,199590
 2.4000e+001 199642 -1.1096e+006 -2.5785e+006 -1.4666e+005 172750 199538,199616,199564
 2.4000e+001 199817 -7.6538e+005 -8.8830e+006 -3.0164e+006 172524 199690,199742,199716
 2.4000e+001 199794 -3.9446e+006 -4.8123e+006 -1.7112e+006 172524 199690,199768,199742
 2.4000e+001 199969 -1.8146e+004 -9.3807e+006 -4.4037e+005 172348 199842,199894,199868
 2.4000e+001 199946  7.9707e+005 -9.2715e+006  3.5079e+005 172348 199842,199920,199894
 2.4000e+001 200121  4.6023e+005 -9.8163e+006 -8.3502e+005 172008 199994,200046,200020
 2.4000e+001 200098 -6.7052e+005 -4.4873e+006 -2.8960e+005 172008 199994,200072,200046
 2.4000e+001 200273 -4.2194e+005 -1.1717e+007  7.2198e+005 171668 200172,200224,200198
 2.4000e+001 200250 -1.3415e+005 -9.6722e+006  4.7576e+005 171668 200146,200224,200172
 2.4000e+001 200474 -4.7828e+005 -1.3479e+007 -1.1782e+006 171264 200350,200402,200376
 2.4000e+001 200451 -6.6600e+005 -9.7498e+006 -1.2441e+004 171264 200324,200402,200350
 2.4000e+001 200428 -9.5792e+005 -9.5146e+006  3.2752e+005 171264 200298,200402,200324
 2.4000e+001 200626  6.2200e+005 -1.2765e+007  4.6566e+005 170832 200525,200577,200551
 2.4000e+001 200603 -2.6030e+005 -9.6242e+006  1.6452e+005 170832 200499,200577,200525
 2.4000e+001 200827  3.0458e+005 -1.1570e+007  1.8469e+006 170492 200677,200729,200703
 2.4000e+001 200804 -1.5526e+006 -4.9955e+006 -3.2193e+006 170492 200651,200729,200677
 2.4000e+001 200781 -3.3091e+006 -3.8852e+006 -1.8876e+006 170492 200651,200755,200729
 2.4000e+001 201077  8.7714e+005 -4.4266e+006  1.9705e+005 170088 200878,200956,200904
 2.4000e+001 201054 -4.0121e+005 -4.1329e+006 -1.3572e+006 170088 200852,200956,200878
 2.4000e+001 201031  3.6512e+005 -3.8643e+006  3.4100e+006 170088 200904,200956,200930
 2.4000e+001 201008  4.1202e+006 -9.3097e+006  2.2462e+006 170088 200852,200982,200956
 2.4000e+001 201278  8.8399e+005 -4.2231e+006  4.2221e+005 169798 201102,201154,201128
 2.4000e+001 201255 -1.6290e+006 -1.3862e+007 -8.7978e+005 169798 201102,201206,201154
 2.4000e+001 201232 -1.6460e+006 -4.0048e+006  1.4362e+006 169798 201154,201206,201180
 2.4000e+001 201430 -9.6428e+005 -1.7002e+007 -1.6841e+006 169337 201303,201355,201329
 2.4000e+001 201407 -5.2598e+005 -6.3058e+006 -2.6784e+005 169337 201303,201381,201355
 2.4000e+001 201631 -3.9958e+005 -7.8399e+006  2.9187e+004 168883 201481,201559,201507
 2.4000e+001 201608  6.6660e+005 -7.3546e+006  4.0026e+005 168883 201455,201559,201481
 2.4000e+001 201585 -8.2130e+005 -8.1524e+006 -2.6571e+005 168883 201507,201559,201533
 2.4000e+001 201832 -5.5763e+005 -1.5595e+007  5.1694e+005 168479 201682,201734,201708
 2.4000e+001 201809 -2.0938e+006 -1.3454e+007 -1.3265e+006 168479 201656,201734,201682
 2.4000e+001 201786 -1.5661e+006 -1.1355e+007 -4.1149e+004 168479 201656,201760,201734
 2.4000e+001 202033 -2.5731e+005 -8.4149e+006  1.4717e+006 167825 201883,201935,201909
 2.4000e+001 202010 -6.1459e+005 -9.5435e+006 -9.1074e+005 167825 201857,201935,201883
 2.4000e+001 201987  3.0186e+005 -1.5281e+007  1.3143e+005 167825 201857,201961,201935
 2.4000e+001 202234 -1.0185e+006 -9.8947e+006 -2.8811e+006 167435 202058,202136,202084
 2.4000e+001 202211 -1.2069e+006 -1.4167e+007  2.4756e+006 167435 202058,202162,202136
 2.4000e+001 202188 -8.6972e+005 -4.9038e+006  5.3411e+005 167435 202084,202136,202110
 2.4000e+001 202386  4.6684e+005 -9.1336e+006  3.7028e+005 167002 202285,202337,202311
 2.4000e+001 202363 -9.0378e+005 -2.0012e+006  7.9956e+005 167002 202259,202337,202285
 2.4000e+001 202538  8.6093e+004 -9.3329e+006 -3.6416e+005 166662 202411,202463,202437
 2.4000e+001 202515 -6.4699e+005 -4.9470e+006  8.9268e+004 166662 202411,202489,202463
 2.4000e+001 202690  8.2747e+004 -8.4389e+006 -7.5753e+005 166322 202589,202641,202615
 2.4000e+001 202667  5.5755e+005 -8.4993e+006 -7.9265e+005 166322 202563,202641,202589
 2.4000e+001 202891 -9.2964e+005 -4.2952e+006  2.8240e+005 165918 202715,202767,202741
 2.4000e+001 202868 -1.4165e+006 -6.4133e+006 -7.1593e+004 165918 202715,202793,202767
 2.4000e+001 202845 -3.0169e+005 -5.6599e+006 -6.0212e+005 165918 202715,202819,202793
 2.4000e+001 203092 -1.5527e+006 -8.2694e+006 -1.0801e+006 165628 202916,202968,202942
 2.4000e+001 203069 -2.1886e+004 -1.3720e+007 -5.3416e+005 165628 202916,202994,202968
 2.4000e+001 203046 -1.1110e+006 -1.3731e+007 -6.4550e+005 165628 202916,203020,202994
 2.4000e+001 203293 -4.1025e+006 -1.3404e+007  1.7982e+006 165266 203143,203195,203169
 2.4000e+001 203270 -3.8529e+006 -1.0379e+007 -2.0387e+005 165266 203143,203221,203195
 2.4000e+001 203247  1.2654e+005 -1.4494e+007 -4.8410e+006 165266 203117,203221,203143
 2.4000e+001 203445  1.0625e+005 -6.5276e+006  1.3445e+006 164826 203318,203370,203344
 2.4000e+001 203422 -4.4306e+005 -3.9990e+006 -6.6034e+005 164826 203318,203396,203370
 2.4000e+001 203597 -1.0832e+006 -9.0991e+006 -4.4607e+005 164386 203470,203522,203496
 2.4000e+001 203574 -2.2463e+005 -6.2748e+006  1.2823e+005 164386 203470,203548,203522
 2.4000e+001 203798  5.6124e+004 -8.4253e+006  1.0511e+006 163996 203622,203674,203648
 2.4000e+001 203775 -9.7764e+005 -2.8760e+006 -1.9502e+005 163996 203622,203726,203674
 2.4000e+001 203752 -2.4699e+006 -7.1190e+006  2.7854e+006 163996 203674,203726,203700
 2.4000e+001 203901 -4.8736e+005 -4.8955e+006 -8.8326e+005 163770 203823,203875,203849
 2.4000e+001 204053 -1.8090e+006 -7.3247e+006  1.3741e+006 163474 203952,204004,203978
 2.4000e+001 204030 -6.1466e+005 -8.6012e+006 -1.3676e+006 163474 203926,204004,203952
 2.4000e+001 204205 -5.1398e+003 -5.2058e+006 -3.6273e+005 163034 204104,204156,204130
 2.4000e+001 204182 -5.1751e+005 -9.3621e+006 -4.0543e+006 163034 204078,204156,204104
 2.4000e+001 204357 -2.8990e+005 -7.9338e+006  8.8832e+005 162624 204256,204308,204282
 2.4000e+001 204334 -4.1726e+004 -3.4245e+006 -2.7508e+004 162624 204230,204308,204256
 2.4000e+001 204509  2.2759e+002 -5.9154e+002  1.4320e+002 162200 204382,204434,204408
 2.4000e+001 204486  7.6954e-001 -8.5486e+001 -2.8179e+002 162200 204382,204460,204434
 2.4000e+001 204710 -3.0591e+005 -2.2728e+006  7.2194e+005 161810 204560,204638,204586
 2.4000e+001 204687 -1.0311e+005 -3.5028e+006 -5.0040e+005 161810 204534,204638,204560
 2.4000e+001 204664 -3.8289e+005 -9.0680e+005  1.3608e+005 161810 204586,204638,204612
 2.4000e+001 204862 -1.2061e+006 -6.1700e+006 -1.5158e+006 161406 204735,204787,204761
 2.4000e+001 204839 -1.6757e+006 -6.6938e+006 -1.1802e+006 161406 204735,204813,204787
 2.4000e+001 205014 -4.3396e+004 -1.8757e+006  4.2034e+005 161180 204887,204939,204913
 2.4000e+001 204991 -9.6255e+003 -1.0087e+006 -2.4873e+004 161180 204887,204965,204939
 2.4000e+001 205215  7.2917e+005 -3.2605e+006 -2.1859e+005 160726 205039,205091,205065
 2.4000e+001 205192 -9.5464e+005 -9.7976e+006 -7.8973e+005 160726 205039,205143,205091
 2.4000e+001 205169 -2.5422e+005 -2.1969e+006 -9.3885e+004 160726 205091,205143,205117
 2.4000e+001 205416  1.2829e+003 -5.0939e+006  1.5928e+006 160272 205292,205344,205318
 2.4000e+001 205393 -8.5068e+005 -2.0772e+006  1.0242e+006 160272 205240,205344,205292
 2.4000e+001 205370 -7.3481e+005 -2.3619e+006  1.9860e+004 160272 205240,205292,205266
 2.4000e+001 205568 -2.9167e+005 -2.4846e+006  4.8745e+005 159932 205441,205493,205467
 2.4000e+001 205545 -1.8832e+005 -2.3609e+006  4.0367e+005 159932 205441,205519,205493
 2.4000e+001 205720 -1.0696e+004 -1.2740e+006 -2.4949e+005 159542 205593,205645,205619
 2.4000e+001 205697 -7.1559e+004 -2.0363e+005 -7.7253e+004 159542 205593,205671,205645
 2.4000e+001 205872  1.8060e+005 -7.2838e+005  6.2944e+004 159252 205745,205797,205771
 2.4000e+001 205849 -2.2862e+005 -2.4738e+006  8.3831e+003 159252 205745,205823,205797
 2.4000e+001 206024 -2.3278e+006 -3.1660e+006 -5.7166e+005 159004 205923,205975,205949
 2.4000e+001 206001 -7.7215e+005 -5.1865e+006  4.7076e+005 159004 205897,205975,205923
 2.4000e+001 206127 -5.7874e+002 -1.7572e+002 -8.4990e+001 158364 206049,206101,206075
 2.4000e+001 206328 -7.4548e+004 -2.2253e+006  1.2856e+005 157960 206178,206256,206204
 2.4000e+001 206305 -1.9045e+005 -1.9815e+006  4.5535e+005 157960 206152,206256,206178
 2.4000e+001 206282 -5.2435e+004 -1.4772e+006  2.3499e+005 157960 206204,206256,206230
 2.4000e+001 206529 -1.1065e+005 -1.0090e+007  7.5237e+004 157648 206405,206457,206431
 2.4000e+001 206506 -3.1089e+006 -7.7787e+006 -1.2028e+006 157648 206379,206457,206405
 2.4000e+001 206483 -8.8511e+005 -6.3649e+006  1.0653e+005 157648 206353,206457,206379
 2.4000e+001 206730  8.9963e+005 -1.9504e+007 -5.8002e+005 157208 206554,206606,206580
 2.4000e+001 206707  9.7382e+005 -2.1635e+007  1.0414e+004 157208 206554,206632,206606
 2.4000e+001 206684 -3.9779e+006 -6.7196e+006 -9.7022e+005 157208 206554,206658,206632
 2.4000e+001 206882 -7.6505e+004 -1.2129e+006  1.0207e+005 157010 206755,206807,206781
 2.4000e+001 206859 -3.1489e+003 -1.7925e+006  3.5183e+005 157010 206755,206833,206807
 2.4000e+001 207034 -3.5346e+005 -8.5028e+006 -2.2534e+005 156620 206907,206959,206933
 2.4000e+001 207011  3.2114e+005 -1.6232e+007  1.5396e+005 156620 206907,206985,206959
 2.4000e+001 207186 -5.2072e+004 -4.3811e+006  2.1278e+005 156330 207085,207137,207111
 2.4000e+001 207163 -1.6586e+005 -4.4873e+006 -7.3132e+005 156330 207059,207137,207085
 2.4000e+001 207387 -2.5088e+005 -8.6001e+006  5.2340e+005 155890 207211,207289,207237
 2.4000e+001 207364 -5.0900e+005 -8.7093e+006 -4.1699e+005 155890 207211,207315,207289
 2.4000e+001 207341 -1.4459e+006 -5.8031e+006  2.1966e+006 155890 207237,207289,207263
 2.4000e+001 207588  1.2465e+006 -2.3867e+007  5.1973e+006 155436 207438,207490,207464
 2.4000e+001 207565 -4.4013e+005 -2.0160e+007 -2.9992e+005 155436 207412,207490,207438
 2.4000e+001 207542 -1.1155e+006 -1.3843e+007 -7.0167e+005 155436 207412,207516,207490
 2.4000e+001 207789  1.0373e+006 -3.6114e+007 -2.5649e+006 155260 207639,207691,207665
 2.4000e+001 207766 -3.6072e+006 -1.4979e+007  4.4059e+006 155260 207613,207691,207639
 2.4000e+001 207743 -6.5195e+005 -1.2230e+007 -6.7758e+005 155260 207613,207717,207691
 2.4000e+001 207990 -3.1421e+004 -3.2001e+005  4.4665e+004 154920 207840,207918,207892
 2.4000e+001 207967 -2.8625e+005 -4.8115e+005 -2.5789e+005 154920 207814,207918,207840
 2.4000e+001 207944 -2.7499e+004 -1.6892e+005 -4.7655e+004 154920 207840,207892,207866
 2.4000e+001 208191 -1.2724e+004 -1.5762e+007 -9.5447e+005 154630 208015,208093,208041
 2.4000e+001 208168  1.5776e+005 -1.0629e+007 -1.2499e+006 154630 208015,208119,208093
 2.4000e+001 208145 -2.3145e+006 -1.0904e+007 -5.0241e+006 154630 208041,208093,208067
 2.4000e+001 208343  1.0108e+004 -2.3289e+005 -2.8521e+003 154240 208216,208268,208242
 2.4000e+001 208320  3.2738e+004 -1.6128e+005 -3.2093e+004 154240 208216,208294,208268
 2.4000e+001 208495  1.5054e+006 -2.9620e+007 -6.0383e+006 153950 208394,208446,208420
 2.4000e+001 208472 -2.1200e+006 -1.4876e+007  4.3344e+006 153950 208368,208446,208394
 2.4000e+001 208647 -6.3700e+005 -1.7363e+007  7.6561e+006 153603 208520,208572,208546
 2.4000e+001 208624 -4.9523e+006 -6.0347e+006 -3.2313e+006 153603 208520,208598,208572
 2.4000e+001 208848 -7.5068e+005 -8.1392e+006  2.1900e+006 153149 208698,208776,208724
 2.4000e+001 208825  4.2644e+005 -1.6234e+007 -1.9503e+006 153149 208672,208776,208698
 2.4000e+001 208802 -2.8334e+006 -7.0516e+006  1.1497e+006 153149 208724,208776,208750
 2.4000e+001 209000 -1.0041e+006 -1.2787e+007 -3.1546e+004 152859 208873,208925,208899
 2.4000e+001 208977 -2.7138e+004 -1.7716e+007  6.7477e+005 152859 208873,208951,208925
 2.4000e+001 209152  4.6484e+005 -1.5639e+007 -2.7032e+005 152569 209051,209103,209077
 2.4000e+001 209129  3.5567e+005 -1.5754e+007 -3.4689e+005 152569 209025,209103,209051
 2.4000e+001 209304 -4.2767e+004 -1.6823e+005 -3.9578e+003 152065 209177,209229,209203
 2.4000e+001 209281  3.2692e+004 -3.0443e+005  3.4926e+004 152065 209177,209255,209229
 2.4000e+001 209456  6.6396e+005 -1.4192e+007  1.8908e+005 151775 209355,209407,209381
 2.4000e+001 209433  1.0659e+006 -1.8337e+007  4.3843e+004 151775 209329,209407,209355
 2.4000e+001 209608 -9.0988e+005 -1.7919e+007 -2.6218e+005 151371 209481,209533,209507
 2.4000e+001 209585  5.9013e+005 -2.1411e+007  6.3992e+005 151371 209481,209559,209533
 2.4000e+001 209760 -9.8087e+005 -9.8337e+006 -5.6555e+005 150981 209659,209711,209685
 2.4000e+001 209737 -6.9356e+005 -1.2769e+007 -3.7289e+006 150981 209633,209711,209659
 2.4000e+001 209912  2.1767e+006 -3.6335e+007 -2.6384e+006 150619 209811,209863,209837
 2.4000e+001 209889 -5.4906e+005 -2.1799e+007  2.6468e+006 150619 209785,209863,209811
 2.4000e+001 210064 -1.8049e+006 -9.0914e+006 -1.5138e+006 150279 209937,209989,209963
 2.4000e+001 210041  5.8879e+005 -1.8577e+007 -1.5686e+006 150279 209937,210015,209989
 2.4000e+001 210265  4.6471e+004 -1.8444e+007 -2.1487e+006 149989 210115,210167,210141
 2.4000e+001 210242 -1.2612e+006 -1.6233e+007  5.0622e+005 149989 210115,210193,210167
 2.4000e+001 210219 -1.0025e+006 -2.0872e+007  4.8019e+005 149989 210089,210193,210115
 2.4000e+001 210417 -2.3483e+006 -9.9429e+006 -6.0537e+005 149599 210316,210368,210342
 2.4000e+001 210394 -4.6541e+005 -1.5889e+007 -1.5121e+006 149599 210290,210368,210316
 2.4000e+001 210618 -3.2926e+006 -1.2940e+007  1.3783e+006 149095 210468,210520,210494
 2.4000e+001 210595 -3.7512e+006 -1.3081e+007  1.6059e+006 149095 210442,210520,210468
 2.4000e+001 210572 -1.6541e+006 -2.6496e+007  2.9755e+006 149095 210442,210546,210520
 2.4000e+001 210819 -1.3044e+005 -2.0268e+006  1.3010e+005 148748 210695,210747,210721
 2.4000e+001 210796 -9.5773e+004 -3.7108e+006  4.3799e+005 148748 210669,210747,210695
 2.4000e+001 210773 -4.8321e+005 -2.9482e+006  1.1935e+006 148748 210643,210747,210669
 2.4000e+001 210971  1.8991e+004 -2.4375e+005 -3.8981e+004 148408 210870,210922,210896
 2.4000e+001 210948  8.9412e+004 -1.7195e+005  2.9897e+004 148408 210844,210922,210870
 2.4000e+001 211123 -8.4484e+004 -1.3242e+007  1.7571e+006 148118 210996,211048,211022
 2.4000e+001 211100  6.3339e+005 -1.6551e+007  4.8885e+006 148118 210996,211074,211048
 2.4000e+001 211275 -3.9674e+006 -1.3560e+007 -9.1215e+003 147778 211148,211200,211174
 2.4000e+001 211252 -7.9102e+005 -2.6772e+007  8.0779e+006 147778 211148,211226,211200
 2.4000e+001 211427 -3.5244e+006 -8.8550e+006  1.5807e+006 147324 211326,211378,211352
 2.4000e+001 211404  5.9990e+005 -1.7154e+007 -1.0930e+006 147324 211300,211378,211326
 2.4000e+001 211628  1.9557e+004 -1.1760e+005  6.0327e+003 147012 211452,211504,211478
 2.4000e+001 211605 -1.3145e+003 -3.0610e+005 -5.3827e+003 147012 211452,211556,211504
 2.4000e+001 211582 -1.0083e+004 -3.7757e+005  2.4201e+003 147012 211504,211556,211530
 2.4000e+001 211829 -2.1686e+006 -8.9358e+006  3.0532e+006 146636 211679,211757,211731
 2.4000e+001 211806  4.7844e+006 -2.5016e+007 -2.2865e+006 146636 211653,211757,211679
 2.4000e+001 211783  1.4498e+006 -8.7991e+006  3.4254e+006 146636 211679,211731,211705
 2.4000e+001 211981  1.0170e+003 -4.1525e+005 -5.5934e+003 146246 211880,211932,211906
 2.4000e+001 211958  3.7821e+004 -3.5126e+005  2.2064e+004 146246 211854,211932,211880
 2.4000e+001 212133 -3.8661e+004 -1.6612e+005 -6.3854e+004 145956 212006,212058,212032
 2.4000e+001 212110 -6.2627e+004 -2.8686e+005  1.0259e+004 145956 212006,212084,212058
 2.4000e+001 212285  3.5991e+003 -4.2755e+005 -1.3411e+003 145544 212184,212236,212210
 2.4000e+001 212262  1.2378e+004 -3.9073e+005  3.9880e+003 145544 212158,212236,212184
 2.4000e+001 212486  3.2335e+005 -1.1294e+007  1.3883e+006 144990 212362,212414,212388
 2.4000e+001 212463  6.5929e+004 -8.9364e+006  2.6454e+006 144990 212310,212414,212362
 2.4000e+001 212440 -1.5581e+006 -4.0474e+006  1.5661e+006 144990 212310,212362,212336
 2.4000e+001 212638 -6.3776e+005 -2.4048e+006  7.8863e+005 144600 212537,212589,212563
 2.4000e+001 212615 -2.7350e+005 -1.1447e+006 -9.5140e+004 144600 212511,212589,212537
 2.4000e+001 212839 -9.1692e+004 -1.1523e+006 -2.5007e+005 144210 212689,212741,212715
 2.4000e+001 212816 -1.8183e+004 -1.3794e+006 -6.9940e+004 144210 212663,212741,212689
 2.4000e+001 212793  7.9787e+004 -8.4174e+005 -9.3595e+004 144210 212663,212767,212741
 2.4000e+001 212991 -7.2245e+005 -1.0747e+006  6.1358e+005 143920 212890,212942,212916
 2.4000e+001 212968  9.6177e+004 -6.1390e+006  2.3273e+003 143920 212864,212942,212890
 2.4000e+001 213143 -3.5497e+004 -3.8235e+005 -8.6907e+004 143480 213016,213068,213042
 2.4000e+001 213120 -7.5233e+003 -5.4095e+005  6.6240e+004 143480 213016,213094,213068
 2.4000e+001 213295 -1.1450e+006 -4.6375e+006  2.8623e+006 142990 213194,213246,213220
 2.4000e+001 213272 -1.8027e+006 -1.6030e+006  8.5626e+005 142990 213168,213246,213194
 2.4000e+001 213447 -1.4641e+006 -5.6206e+006  1.5107e+006 142600 213320,213372,213346
 2.4000e+001 213424 -2.5616e+006 -2.6640e+006 -5.9040e+005 142600 213320,213398,213372
 2.4000e+001 213599 -5.8074e+005 -2.5069e+006 -1.4247e+005 142260 213472,213524,213498
 2.4000e+001 213576  9.0371e+004 -2.5240e+006  3.3972e+005 142260 213472,213550,213524
 2.4000e+001 213751 -1.1757e+006 -2.7114e+006  2.4131e+005 141870 213624,213676,213650
 2.4000e+001 213728 -1.2853e+006 -3.7613e+006  1.6333e+006 141870 213624,213702,213676
 2.4000e+001 213903 -1.6424e+006 -4.1767e+006 -2.2505e+006 141530 213776,213828,213802
 2.4000e+001 213880 -6.7820e+005 -4.6623e+006 -1.3177e+006 141530 213776,213854,213828
 2.4000e+001 214055 -3.0736e+002 -2.4903e+003 -2.0019e+002 141218 213928,213980,213954
 2.4000e+001 214032  6.6278e+002 -8.3503e+003  1.2792e+003 141218 213928,214006,213980
 2.4000e+001 214207 -2.6154e+001 -3.0903e+004  1.1161e+002 140928 214080,214132,214106
 2.4000e+001 214184 -4.2810e+002 -3.0996e+004  6.2476e+001 140928 214080,214158,214132
 2.4000e+001 214359 -1.2295e+006 -2.5268e+006 -1.5391e+006 140538 214232,214284,214258
 2.4000e+001 214336  7.6515e+005 -5.7132e+006  7.2170e+005 140538 214232,214310,214284
 2.4000e+001 214560 -5.8031e+004 -1.9535e+006  1.1956e+005 140248 214384,214462,214410
 2.4000e+001 214537 -4.3308e+004 -8.9188e+005 -6.6354e+004 140248 214384,214488,214462
 2.4000e+001 214514 -2.1360e+005 -9.4240e+005 -2.1506e+005 140248 214410,214462,214436
 2.4000e+001 214712 -4.1798e+005 -8.8325e+006  1.1513e+006 140000 214611,214663,214637
 2.4000e+001 214689 -1.3609e+006 -4.0021e+006  1.6096e+005 140000 214585,214663,214611
 2.4000e+001 214913 -6.2763e+005 -3.6248e+006 -1.3641e+006 139596 214737,214815,214763
 2.4000e+001 214890 -5.0358e+005 -1.5154e+006 -2.2782e+005 139596 214737,214841,214815
 2.4000e+001 214867  4.3925e+005 -5.4032e+006 -1.0844e+006 139596 214763,214815,214789
 2.4000e+001 215016 -4.8273e+002 -8.6186e+001 -9.5133e+001 139420 214938,214990,214964
 2.4000e+001 215168 -4.0324e+005 -8.2708e+006  1.5223e+006 139130 215067,215119,215093
 2.4000e+001 215145 -9.3168e+005 -8.2561e+006  2.8224e+006 139130 215041,215119,215067
 2.4000e+001 215320 -1.3088e+006 -1.8445e+006  1.0085e+006 138790 215219,215271,215245
 2.4000e+001 215297  4.1619e+005 -1.0397e+007  2.6652e+006 138790 215193,215271,215219
 2.4000e+001 215472 -3.0661e+005 -1.6225e+006  6.8158e+005 138514 215345,215397,215371
 2.4000e+001 215449 -1.7080e+005 -8.4876e+005  8.2432e+004 138514 215345,215423,215397
 2.4000e+001 215624 -3.2057e+005 -8.5541e+006  2.8301e+005 138174 215497,215549,215523
 2.4000e+001 215601 -1.5507e+005 -6.6906e+006 -2.4620e+004 138174 215497,215575,215549
 2.4000e+001 215776 -1.0193e+006 -4.1264e+006  1.3297e+006 137734 215649,215701,215675
 2.4000e+001 215753 -1.2488e+006 -3.8900e+006  7.8914e+005 137734 215649,215727,215701
 2.4000e+001 215977 -3.7231e+006 -1.4203e+007  3.5953e+006 137344 215801,215879,215827
 2.4000e+001 215954  1.4373e+006 -1.0711e+007  8.7227e+005 137344 215801,215905,215879
 2.4000e+001 215931  4.7402e+006 -2.5631e+007 -4.2186e+006 137344 215827,215879,215853
 2.4000e+001 216129 -5.6456e+005 -9.4414e+006 -6.0742e+004 136940 216028,216080,216054
 2.4000e+001 216106 -6.4672e+005 -7.5016e+006 -7.5335e+005 136940 216002,216080,216028
 2.4000e+001 216330 -3.1406e+005 -7.5863e+006  8.4320e+004 136600 216180,216232,216206
 2.4000e+001 216307 -5.2751e+005 -7.9405e+006  1.1931e+006 136600 216154,216232,216180
 2.4000e+001 216284 -3.4495e+005 -6.6391e+006  5.3965e+005 136600 216154,216258,216232
 2.4000e+001 216482  6.3928e+005 -6.2588e+006  4.9341e+004 136260 216381,216433,216407
 2.4000e+001 216459  2.2496e+005 -6.7804e+006 -2.2630e+005 136260 216355,216433,216381
 2.4000e+001 216634  3.8583e+003 -8.1780e+006  1.4510e+006 135970 216533,216585,216559
 2.4000e+001 216611 -2.3225e+005 -9.6408e+006  1.2504e+006 135970 216507,216585,216533
 2.4000e+001 216835 -9.6508e+005 -5.3949e+006 -7.9705e+005 135608 216685,216763,216711
 2.4000e+001 216812 -9.9079e+004 -4.9038e+006 -3.1346e+005 135608 216659,216763,216685
 2.4000e+001 216789 -8.2350e+005 -1.0541e+007  2.6990e+005 135608 216711,216763,216737
 2.4000e+001 217036 -7.9307e+001 -6.6195e+006  9.3432e+005 135312 216912,216964,216938
 2.4000e+001 217013 -1.2342e+005 -7.2189e+006  9.2236e+005 135312 216886,216964,216912
 2.4000e+001 216990 -8.2399e+005 -6.8996e+006  8.7514e+005 135312 216860,216964,216886
 2.4000e+001 217237  2.2901e+004 -6.9058e+005 -1.2114e+004 134908 217061,217139,217113
 2.4000e+001 217214 -1.3262e+005 -8.5687e+005  4.9903e+005 134908 217061,217165,217139
 2.4000e+001 217191 -1.5257e+005 -2.6615e+005 -1.4983e+005 134908 217061,217113,217087
 2.4000e+001 217438 -1.3849e+006 -2.0577e+007  2.2241e+006 134568 217288,217366,217314
 2.4000e+001 217415 -3.7582e+005 -2.1805e+007  2.4367e+006 134568 217262,217366,217288
 2.4000e+001 217392  4.1925e+005 -1.5837e+007  9.2003e+005 134568 217314,217366,217340
 2.4000e+001 217590 -1.7571e+005 -1.8205e+006  3.3844e+005 134106 217463,217515,217489
 2.4000e+001 217567  2.6857e+004 -1.6817e+006  1.8508e+005 134106 217463,217541,217515
 2.4000e+001 217791 -4.6345e+006 -3.2383e+007 -1.7485e+007 133816 217641,217693,217667
 2.4000e+001 217768  4.5763e+006 -3.9811e+007  9.0393e+006 133816 217641,217719,217693
 2.4000e+001 217745 -9.2880e+006  1.8003e+006  6.0963e+006 133816 217615,217719,217641
 2.4000e+001 217992 -2.1355e+006 -5.5870e+006  3.3285e+006 133355 217842,217920,217894
 2.4000e+001 217969  8.5583e+004 -1.3670e+007 -1.0021e+006 133355 217816,217920,217842
 2.4000e+001 217946 -4.7932e+005 -3.4506e+006  2.0116e+005 133355 217842,217894,217868
 2.4000e+001 218193 -2.4481e+005 -5.3189e+006 -4.1820e+006 132851 218017,218095,218069
 2.4000e+001 218170 -1.8150e+006 -9.5518e+006  6.1541e+006 132851 218017,218121,218095
 2.4000e+001 218147 -3.8638e+006 -5.9683e+006 -2.5039e+006 132851 218017,218069,218043
 2.4000e+001 218345 -6.8594e+005 -3.7758e+006  1.0107e+006 132511 218244,218296,218270
 2.4000e+001 218322 -1.2476e+006 -3.6712e+006  4.1068e+005 132511 218218,218296,218244
 2.4000e+001 218497 -1.7175e+006 -3.2538e+007 -2.8827e+006 132235 218396,218448,218422
 2.4000e+001 218474 -3.0092e+006 -1.0006e+007  7.8606e+005 132235 218370,218448,218396
 2.4000e+001 218698 -1.7395e+005 -1.3992e+007  6.9067e+005 131945 218574,218626,218600
 2.4000e+001 218675 -6.7261e+005 -1.6722e+007  1.1480e+006 131945 218522,218626,218574
 2.4000e+001 218652 -1.0436e+006 -1.2531e+007  3.3724e+004 131945 218522,218574,218548
 2.4000e+001 218850 -6.3456e+005 -2.1522e+007 -2.6732e+006 131655 218723,218775,218749
 2.4000e+001 218827 -1.2980e+006 -1.3511e+007 -7.6982e+005 131655 218723,218801,218775
 2.4000e+001 218953 -8.5265e+005 -6.4136e+006 -3.4929e+004 131215 218875,218927,218901
 2.4000e+001 219105 -6.8216e+005 -9.3052e+006 -5.3224e+005 130875 218978,219030,219004
 2.4000e+001 219082 -5.7305e+005 -4.4384e+006  2.8980e+005 130875 218978,219056,219030
 2.4000e+001 219306  1.3552e+005 -5.5174e+006  1.4998e+005 130429 219156,219234,219208
 2.4000e+001 219283  2.3118e+004 -4.1193e+006  4.7032e+005 130429 219130,219234,219156
 2.4000e+001 219260 -6.9505e+005 -5.7377e+006  2.9701e+005 130429 219156,219208,219182
 2.4000e+001 219507  4.0173e+003 -2.5323e+006 -2.0061e+005 130025 219383,219435,219409
 2.4000e+001 219484 -6.2018e+004 -2.9091e+006 -1.9481e+005 130025 219331,219435,219383
 2.4000e+001 219461 -2.9828e+005 -2.5729e+006 -3.0187e+005 130025 219331,219383,219357
 2.4000e+001 219659 -2.4879e+005 -1.5056e+007 -1.3163e+006 129685 219558,219610,219584
 2.4000e+001 219636  4.0591e+005 -1.7214e+007 -4.0570e+006 129685 219532,219610,219558
 2.4000e+001 219860 -1.3356e+004 -3.9119e+006  7.1386e+005 129395 219710,219788,219762
 2.4000e+001 219837 -3.9327e+005 -4.6323e+006  4.3010e+005 129395 219684,219788,219710
 2.4000e+001 219814  4.1777e+005 -5.1854e+006 -2.4545e+005 129395 219710,219762,219736
 2.4000e+001 220061  1.4801e+005 -3.9504e+006  3.9738e+005 128991 219937,219989,219963
 2.4000e+001 220038 -6.5493e+004 -6.0349e+006 -1.3616e+005 128991 219885,219989,219937
 2.4000e+001 220015  2.8204e+005 -5.1051e+006  3.2602e+005 128991 219885,219937,219911
 2.4000e+001 220262 -4.4230e+005 -3.3824e+006 -1.7656e+005 128701 220086,220164,220112
 2.4000e+001 220239  3.3286e+005 -4.9452e+006  3.4531e+005 128701 220086,220190,220164
 2.4000e+001 220216 -1.4412e+005 -2.8560e+006  6.4227e+005 128701 220112,220164,220138
 2.4000e+001 220463 -3.5930e+006 -1.2517e+007  1.9698e+006 128297 220339,220391,220365
 2.4000e+001 220440  2.1216e+006 -1.7549e+007  1.4550e+006 128297 220313,220391,220339
 2.4000e+001 220417  2.2131e+004 -2.1039e+007 -4.1058e+006 128297 220287,220391,220313
 2.4000e+001 220615 -1.5338e+006 -1.0195e+007 -1.8045e+006 128007 220488,220540,220514
 2.4000e+001 220592  1.1993e+006 -1.6852e+007 -1.1057e+006 128007 220488,220566,220540
 2.4000e+001 220767  9.3553e+004 -4.1963e+006 -2.2155e+005 127567 220640,220692,220666
 2.4000e+001 220744 -2.5110e+005 -2.2045e+006 -1.4205e+005 127567 220640,220718,220692
 2.4000e+001 220919  1.2169e+006 -1.8657e+007 -4.1640e+005 127163 220792,220844,220818
 2.4000e+001 220896  1.2624e+006 -1.9664e+007  5.7824e+005 127163 220792,220870,220844
 2.4000e+001 221071 -9.8556e+005 -4.4519e+006  1.2647e+006 126915 220970,221022,220996
 2.4000e+001 221048 -9.5057e+005 -4.7371e+006  1.1576e+006 126915 220944,221022,220970
 2.4000e+001 221272 -1.2430e+006 -9.2521e+006  1.6549e+006 126461 221122,221174,221148
 2.4000e+001 221249 -3.7950e+006 -1.0338e+007  1.0119e+005 126461 221122,221200,221174
 2.4000e+001 221226  1.8297e+005 -1.8069e+007 -3.4637e+006 126461 221096,221200,221122
 2.4000e+001 221375 -1.0726e+001 -2.2843e+005 -7.6183e+001 126213 221297,221349,221323
 2.4000e+001 221478  3.5850e+002 -2.4660e+005  6.4102e+002 125766 221400,221452,221426
 2.4000e+001 221679 -8.7323e+004 -2.2544e+006  2.2405e+005 125212 221503,221555,221529
 2.4000e+001 221656 -1.4196e+005 -2.8761e+006  4.6082e+004 125212 221503,221581,221555
 2.4000e+001 221633  2.2971e+005 -5.4155e+006  1.2435e+006 125212 221503,221607,221581
 2.4000e+001 221929 -2.3954e+005 -1.1970e+006  3.1810e+005 124872 221782,221834,221808
 2.4000e+001 221906 -3.2212e+005 -1.0606e+006  4.5500e+005 124872 221756,221834,221782
 2.4000e+001 221883 -1.8087e+005 -2.3171e+006  8.0786e+005 124872 221704,221834,221756
 2.4000e+001 221860 -5.2814e+005 -3.1056e+006  1.1694e+006 124872 221704,221756,221730
 2.4000e+001 222130 -7.5624e+005 -1.1281e+007 -1.8876e+006 124582 221980,222058,222006
 2.4000e+001 222107 -1.6230e+006 -1.1749e+007 -2.2660e+006 124582 221954,222058,221980
 2.4000e+001 222084 -1.8240e+006 -1.3242e+007 -2.7609e+006 124582 222006,222058,222032
 2.4000e+001 222282 -3.0279e+006 -1.5369e+007 -3.8684e+006 124192 222181,222233,222207
 2.4000e+001 222259 -1.1630e+006 -1.5146e+007 -3.9530e+006 124192 222155,222233,222181
 2.4000e+001 222483 -3.4689e+005 -5.2806e+006 -4.6463e+005 123702 222333,222385,222359
 2.4000e+001 222460 -3.4603e+005 -5.1770e+006 -3.0607e+005 123702 222333,222411,222385
 2.4000e+001 222437 -1.2750e+005 -2.7044e+006 -4.4262e+005 123702 222307,222411,222333
 2.4000e+001 222635 -6.8837e+005 -2.2873e+006 -5.6694e+005 123312 222508,222560,222534
 2.4000e+001 222612  4.0616e+005 -8.0583e+006 -3.6171e+005 123312 222508,222586,222560
 2.4000e+001 222787 -2.8072e+005 -4.3507e+006 -1.4743e+005 122858 222686,222738,222712
 2.4000e+001 222764 -3.1657e+005 -4.0279e+006 -5.5223e+005 122858 222660,222738,222686
 2.4000e+001 222939 -7.0728e+004 -1.8438e+006 -8.0147e+003 122568 222812,222864,222838
 2.4000e+001 222916 -2.4684e+004 -1.5709e+006  5.6135e+004 122568 222812,222890,222864
 2.4000e+001 223091 -3.5600e+005 -4.1260e+006 -9.6727e+005 122392 222964,223016,222990
 2.4000e+001 223068  5.7287e+005 -5.4983e+006  2.6576e+005 122392 222964,223042,223016
 2.4000e+001 223292 -2.8873e+005 -1.4644e+007 -2.1837e+006 121852 223142,223220,223194
 2.4000e+001 223269 -1.6522e+006 -1.3138e+007 -1.2595e+006 121852 223116,223220,223142
 2.4000e+001 223246 -4.3968e+005 -1.4527e+007 -2.5277e+006 121852 223142,223194,223168
 2.4000e+001 223493 -6.6550e+005 -1.4203e+007  7.8633e+005 121406 223343,223395,223369
 2.4000e+001 223470 -1.6609e+006 -9.3111e+006 -3.2689e+006 121406 223343,223421,223395
 2.4000e+001 223447 -1.0976e+006 -6.5144e+006  1.8048e+006 121406 223317,223421,223343
 2.4000e+001 223645  8.3700e+004 -1.1309e+007  5.8752e+005 121002 223544,223596,223570
 2.4000e+001 223622 -1.3677e+006 -5.5944e+006  1.0729e+006 121002 223518,223596,223544
 2.4000e+001 223846 -6.2815e+004 -1.3100e+007  7.4578e+005 120662 223670,223748,223696
 2.4000e+001 223823  1.1591e+006 -8.7113e+006 -3.5632e+004 120662 223670,223774,223748
 2.4000e+001 223800 -1.3209e+006 -5.6398e+006 -1.2935e+006 120662 223696,223748,223722
 2.4000e+001 224047 -6.4021e+005 -6.5355e+006  1.8278e+006 120222 223897,223949,223923
 2.4000e+001 224024 -1.5670e+005 -8.4413e+006 -5.4860e+005 120222 223871,223949,223897
 2.4000e+001 224001  1.5251e+005 -1.1675e+007  4.4940e+005 120222 223871,223975,223949
 2.4000e+001 224248  1.0848e+006 -7.6656e+006 -2.0039e+005 119875 224124,224176,224150
 2.4000e+001 224225 -1.1574e+006 -1.6646e+007 -1.5072e+006 119875 224098,224176,224124
 2.4000e+001 224202 -7.4567e+005 -3.1088e+006  2.8105e+005 119875 224072,224176,224098
 2.4000e+001 224449 -1.9386e+005 -6.1384e+006 -2.1790e+005 119677 224325,224377,224351
 2.4000e+001 224426 -7.8554e+005 -8.5222e+006  1.0356e+005 119677 224299,224377,224325
 2.4000e+001 224403 -4.1403e+005 -8.9553e+006  4.0444e+005 119677 224273,224377,224299
 2.4000e+001 224552 -9.6348e+005 -6.8276e+006 -2.0591e+005 119273 224474,224526,224500
 2.4000e+001 224704 -2.0231e+006 -1.6663e+007 -3.4091e+006 118983 224603,224655,224629
 2.4000e+001 224681 -1.8057e+006 -1.4825e+007 -2.2069e+006 118983 224577,224655,224603
 2.4000e+001 224856 -5.4889e+005 -1.3559e+007 -1.2189e+006 118529 224755,224807,224781
 2.4000e+001 224833  1.5386e+004 -1.6548e+007 -1.9804e+006 118529 224729,224807,224755
 2.4000e+001 225008 -1.1306e+005 -8.7938e+006  2.8777e+004 118353 224881,224933,224907
 2.4000e+001 224985 -1.7556e+005 -7.0182e+006  1.2494e+005 118353 224881,224959,224933
 2.4000e+001 225209 -8.3281e+005 -8.5225e+006 -5.9990e+005 117949 225059,225137,225111
 2.4000e+001 225186 -5.4206e+005 -8.8506e+006 -1.6119e+006 117949 225033,225137,225059
 2.4000e+001 225163  2.4708e+005 -1.0989e+007  2.6706e+005 117949 225059,225111,225085
 2.4000e+001 225410  1.6695e+005 -7.4050e+006 -2.6232e+004 117559 225260,225338,225312
 2.4000e+001 225387 -6.0018e+005 -7.3939e+006  5.7344e+005 117559 225234,225338,225260
 2.4000e+001 225364 -6.9584e+005 -5.7491e+006 -2.0004e+006 117559 225260,225312,225286
 2.4000e+001 225611 -1.5663e+006 -1.2811e+007 -6.8175e+006 117361 225461,225513,225487
 2.4000e+001 225588  2.4509e+006 -1.3188e+007  1.1476e+006 117361 225461,225539,225513
 2.4000e+001 225565 -2.9743e+006 -6.5025e+006  5.3332e+006 117361 225435,225539,225461
 2.4000e+001 225812  2.2033e+005 -8.4692e+006 -4.4596e+005 116900 225636,225714,225662
 2.4000e+001 225789  8.5174e+005 -9.1312e+006 -5.8375e+005 116900 225636,225740,225714
 2.4000e+001 225766 -6.6127e+004 -8.4712e+006 -7.5045e+005 116900 225662,225714,225688
 2.4000e+001 225964 -1.6082e+005 -7.3273e+006 -6.5782e+004 116560 225837,225889,225863
 2.4000e+001 225941  1.1316e+005 -8.2827e+006  2.6017e+004 116560 225837,225915,225889
 2.4000e+001 226165  1.7016e+005 -1.1113e+007  5.1924e+005 116106 226015,226093,226041
 2.4000e+001 226142  9.2717e+005 -1.4486e+007 -3.2916e+006 116106 225989,226093,226015
 2.4000e+001 226119 -3.0853e+006 -5.7640e+006  6.2309e+005 116106 226041,226093,226067
 2.4000e+001 226268 -1.8835e+006 -1.2064e+007  3.6610e+005 115716 226190,226242,226216
 2.4000e+001 226420  2.8871e+005 -8.5654e+006  2.0370e+006 115376 226293,226345,226319
 2.4000e+001 226397 -1.6644e+003 -8.1280e+006  1.1695e+006 115376 226293,226371,226345
 2.4000e+001 226621  2.2546e+005 -6.0107e+006  4.8955e+005 114972 226497,226549,226523
 2.4000e+001 226598 -3.8539e+005 -1.1424e+007 -5.4402e+005 114972 226445,226549,226497
 2.4000e+001 226575  2.9345e+005 -6.9524e+006  4.4376e+005 114972 226445,226497,226471
 2.4000e+001 226773 -1.0142e+006 -5.9292e+006 -6.9294e+005 114670 226646,226698,226672
 2.4000e+001 226750  4.4975e+005 -9.1325e+006  3.9412e+005 114670 226646,226724,226698
 2.4000e+001 226974  1.4007e+005 -4.0866e+006 -2.8580e+005 114082 226798,226850,226824
 2.4000e+001 226951  1.2767e+005 -4.1419e+006 -2.6214e+005 114082 226798,226902,226850
 2.4000e+001 226928  2.3855e+004 -5.4770e+006 -6.2508e+005 114082 226850,226902,226876
 2.4000e+001 227175 -9.1774e+005 -7.3636e+006 -8.2447e+005 113678 226999,227051,227025
 2.4000e+001 227152 -1.9196e+006 -9.7093e+006 -1.8995e+006 113678 226999,227077,227051
 2.4000e+001 227129 -6.6650e+005 -1.2209e+007 -3.0908e+006 113678 226999,227103,227077
 2.4000e+001 227425 -4.3297e+002 -1.2020e+007 -9.8216e+004 113274 227226,227278,227252
 2.4000e+001 227402  5.6681e+005 -1.1778e+007 -3.5479e+006 113274 227226,227330,227278
 2.4000e+001 227379 -9.8627e+004 -9.7664e+006 -3.2235e+006 113274 227200,227330,227226
 2.4000e+001 227356 -5.5728e+006 -2.8583e+006 -7.9802e+005 113274 227278,227330,227304
 2.4000e+001 227626  4.0540e+005 -5.1680e+006 -5.7183e+005 112934 227502,227554,227528
 2.4000e+001 227603 -7.5637e+004 -4.3184e+006 -1.5081e+005 112934 227450,227554,227502
 2.4000e+001 227580 -1.0358e+006 -5.9160e+006 -8.7319e+005 112934 227450,227502,227476
 2.4000e+001 227876 -1.1678e+004 -3.7096e+006 -2.8882e+005 112437 227677,227755,227703
 2.4000e+001 227853 -7.7497e+005 -4.0828e+006  1.0817e+006 112437 227677,227781,227755
 2.4000e+001 227830 -5.5752e+005 -1.7348e+006  8.5529e+005 112437 227703,227755,227729
 2.4000e+001 227807 -5.2302e+005 -7.8588e+006 -3.4149e+005 112437 227651,227781,227677
 2.4000e+001 228126 -1.0966e+006 -5.0497e+006  7.8998e+005 112041 227927,228005,227953
 2.4000e+001 228103 -2.9810e+005 -9.5721e+006 -1.8973e+006 112041 227927,228031,228005
 2.4000e+001 228080 -1.7397e+006 -6.1186e+006  3.1638e+005 112041 227953,228005,227979
 2.4000e+001 228057  2.6760e+005 -7.9680e+006 -1.4574e+006 112041 227901,228031,227927
 2.4000e+001 228327 -8.2729e+005 -7.5685e+006 -9.2497e+005 111693 228151,228203,228177
 2.4000e+001 228304 -6.1415e+005 -4.2958e+006 -1.2914e+006 111693 228151,228229,228203
 2.4000e+001 228281  5.4703e+005 -7.0563e+006  7.2304e+005 111693 228151,228255,228229
 2.4000e+001 228479 -3.1733e+006 -1.6405e+007 -5.9918e+006 111253 228352,228404,228378
 2.4000e+001 228456 -3.2624e+006 -1.0561e+007 -1.3319e+006 111253 228352,228430,228404
 2.4000e+001 228582  9.9732e-001 -6.9437e+004 -5.0796e+000 110906 228504,228556,228530
 2.4000e+001 228783 -4.1642e+005 -4.1441e+006  1.3170e+006 110416 228633,228711,228659
 2.4000e+001 228760 -4.3511e+005 -1.6093e+006  3.5723e+005 110416 228607,228711,228633
 2.4000e+001 228737 -2.3249e+005 -3.7401e+006  1.1771e+006 110416 228659,228711,228685
 2.4000e+001 228935 -2.5614e+005 -4.1497e+006 -3.6530e+004 110012 228808,228860,228834
 2.4000e+001 228912 -5.3660e+005 -8.9711e+006 -7.1574e+005 110012 228808,228886,228860
 2.4000e+001 229087 -1.1688e+006 -3.5705e+006 -1.4592e+006 109672 228960,229012,228986
 2.4000e+001 229064 -5.9170e+005 -8.1419e+006  1.0098e+005 109672 228960,229038,229012
 2.4000e+001 229190  2.7547e+004 -5.8949e+005 -7.1050e+004 109332 229112,229164,229138
 2.4000e+001 229391  3.6058e+004 -2.6439e+005 -5.5014e+004 109156 229267,229319,229293
 2.4000e+001 229368 -8.5725e+004 -6.9921e+005 -1.3050e+005 109156 229215,229319,229267
 2.4000e+001 229345  2.0329e+004 -1.7311e+005 -3.3322e+004 109156 229215,229267,229241
 2.4000e+001 229543  1.6280e+005 -1.1254e+007  7.0066e+005 108752 229416,229468,229442
 2.4000e+001 229520 -4.7135e+005 -1.1872e+007  1.0803e+006 108752 229416,229494,229468
 2.4000e+001 229744 -1.8475e+005 -8.7929e+006  1.5239e+005 108198 229594,229646,229620
 2.4000e+001 229721 -1.3437e+006 -9.1655e+006  1.0916e+006 108198 229594,229672,229646
 2.4000e+001 229698  5.8591e+005 -1.3144e+007 -1.0796e+006 108198 229568,229672,229594
 2.4000e+001 229847 -3.3626e+004 -5.8208e+005 -1.3829e+005 107758 229769,229821,229795
 2.4000e+001 230048 -9.8805e+005 -4.3826e+006 -1.1039e+006 107468 229898,229950,229924
 2.4000e+001 230025 -4.1614e+005 -3.7200e+006  8.3600e+003 107468 229872,229950,229898
 2.4000e+001 230002 -9.0620e+005 -4.0819e+006  2.9956e+005 107468 229872,229976,229950
 2.4000e+001 230298  2.3751e+004 -3.8185e+006  6.3623e+005 107121 230099,230203,230177
 2.4000e+001 230275 -8.4679e+005 -1.6419e+006  2.8589e+005 107121 230073,230203,230099
 2.4000e+001 230252 -1.0454e+006 -4.4925e+006 -7.0702e+005 107121 230099,230177,230151
 2.4000e+001 230229  1.4210e+005 -6.0627e+006  6.4564e+005 107121 230099,230151,230125
 2.4000e+001 230450  5.0318e+005 -5.5949e+006 -6.2323e+005 106823 230349,230401,230375
 2.4000e+001 230427 -3.7203e+005 -1.0954e+006  3.5749e+005 106823 230323,230401,230349
 2.4000e+001 230602 -7.2454e+005 -1.0374e+007 -1.8605e+006 106533 230501,230553,230527
 2.4000e+001 230579 -9.3634e+005 -1.1725e+007 -3.9494e+006 106533 230475,230553,230501
 2.4000e+001 230803 -3.5297e+005 -1.5125e+006  3.8765e+005 106029 230679,230731,230705
 2.4000e+001 230780 -5.6660e+005 -2.7119e+006  1.0796e+006 106029 230653,230731,230679
 2.4000e+001 230757  5.9738e+005 -5.6537e+006  9.8906e+005 106029 230627,230731,230653
 2.4000e+001 231004 -2.3982e+005 -4.5211e+006  2.9468e+005 105689 230854,230906,230880
 2.4000e+001 230981  3.8122e+005 -5.2045e+006 -5.1430e+005 105689 230828,230906,230854
 2.4000e+001 230958 -8.4596e+005 -3.6405e+006 -1.7548e+006 105689 230828,230932,230906
 2.4000e+001 231156 -1.2336e+006 -4.9823e+006  1.3311e+006 105377 231055,231107,231081
 2.4000e+001 231133  1.3957e+006 -1.6253e+007 -1.8006e+006 105377 231029,231107,231055
 2.4000e+001 231406 -1.4807e+005 -9.4579e+006 -3.7481e+005 104858 231207,231259,231233
 2.4000e+001 231383 -1.4717e+006 -9.2710e+006 -9.7913e+005 104858 231207,231311,231259
 2.4000e+001 231360 -8.9741e+005 -1.5253e+007 -1.7364e+006 104858 231259,231311,231285
 2.4000e+001 231337 -1.2323e+005 -1.3163e+007 -1.9047e+006 104858 231181,231311,231207
 2.4000e+001 231558 -6.5139e+005 -5.6777e+006  3.0500e+006 104418 231457,231509,231483
 2.4000e+001 231535 -3.0217e+005 -5.7190e+006  5.6029e+005 104418 231431,231509,231457
 2.4000e+001 231710 -3.7616e+005 -3.9805e+006 -3.0884e+005 103978 231583,231635,231609
 2.4000e+001 231687 -5.1358e+005 -2.4306e+006 -3.7344e+005 103978 231583,231661,231635
 2.4000e+001 231862 -5.9407e+003 -3.5755e+005 -4.2774e+004 103588 231761,231813,231787
 2.4000e+001 231839 -1.1969e+004 -3.7978e+005 -4.5320e+004 103588 231735,231813,231761
 2.4000e+001 232014 -2.8065e+006 -8.1923e+006 -2.7064e+006 103248 231887,231939,231913
 2.4000e+001 231991  1.2208e+006 -2.2979e+007 -5.3883e+006 103248 231887,231965,231939
 2.4000e+001 232215 -2.7461e+005 -3.6927e+006  6.8760e+005 102844 232039,232117,232065
 2.4000e+001 232192  3.3682e+004 -4.4899e+006 -2.3101e+005 102844 232039,232143,232117
 2.4000e+001 232169 -2.7716e+005 -2.3913e+006 -2.1434e+005 102844 232065,232117,232091
 2.4000e+001 232416 -3.8553e+006 -1.1701e+007 -3.9103e+006 102554 232240,232318,232292
 2.4000e+001 232393  1.1629e+006 -1.7754e+007 -2.3911e+005 102554 232240,232344,232318
 2.4000e+001 232370 -4.0555e+006 -4.7662e+006 -1.9533e+006 102554 232240,232292,232266
 2.4000e+001 232568  3.3122e+005 -5.6253e+006  1.2703e+006 102100 232441,232493,232467
 2.4000e+001 232545  1.6121e+005 -5.1059e+006  1.2621e+005 102100 232441,232519,232493
 2.4000e+001 232769 -3.0394e+005 -2.7013e+006 -4.2100e+005 101596 232645,232697,232671
 2.4000e+001 232746 -3.0810e+005 -2.6635e+006 -5.9848e+005 101596 232593,232697,232645
 2.4000e+001 232723  3.0422e+005 -6.8450e+006 -7.8620e+005 101596 232593,232645,232619
 2.4000e+001 232921 -9.7025e+002 -1.7460e+005 -3.0902e+002 101420 232794,232846,232820
 2.4000e+001 232898  1.9749e+002 -1.6298e+005  3.5916e+002 101420 232794,232872,232846
 2.4000e+001 233073 -1.2809e+006 -4.5482e+006 -8.2307e+005 101023 232946,232998,232972
 2.4000e+001 233050 -1.4784e+005 -7.7093e+006  1.5516e+006 101023 232946,233024,232998
 2.4000e+001 233225 -4.1816e+005 -3.7213e+006  4.0133e+003 100661 233098,233150,233124
 2.4000e+001 233202  3.6572e+005 -7.7200e+006  2.6892e+005 100661 233098,233176,233150
 2.4000e+001 233426 -1.2659e+006 -8.0684e+006 -2.3137e+006 100265 233276,233328,233302
 2.4000e+001 233403 -1.4241e+006 -7.3657e+006 -3.8382e+005 100265 233276,233354,233328
 2.4000e+001 233380 -1.3687e+006 -1.2154e+007 -1.3298e+006 100265 233250,233354,233276
 2.4000e+001 233578 -1.1991e+004 -1.3290e+005 -1.0369e+005 100032 233451,233503,233477
 2.4000e+001 233555  1.5426e+003 -1.4054e+005  4.9479e+004 100032 233451,233529,233503
 2.4000e+001 233681 -6.1756e+004 -3.0670e+005  5.9041e+004 99742 233603,233655,233629
 2.4000e+001 233784 -4.9820e+005 -4.6448e+006  2.8374e+005 99402 233706,233758,233732
 2.4000e+001 233936 -7.3332e+005 -3.8766e+006  3.6683e+005 99062 233835,233887,233861
 2.4000e+001 233913 -3.7730e+005 -2.2648e+006 -3.3433e+005 99062 233809,233887,233835
 2.4000e+001 234088 -2.9108e+005 -4.9751e+006 -3.4146e+005 98772 233987,234039,234013
 2.4000e+001 234065 -1.5345e+006 -5.1650e+006  3.7102e+006 98772 233961,234039,233987
 2.4000e+001 234240 -4.3187e+004 -8.7023e+005  1.7003e+005 98160 234139,234191,234165
 2.4000e+001 234217  2.5468e+004 -5.5008e+005  1.3939e+005 98160 234113,234191,234139
 2.4000e+001 234441 -2.3921e+004 -2.8277e+006  1.2638e+005 97820 234317,234369,234343
 2.4000e+001 234418 -1.6420e+004 -2.8005e+006  1.4427e+005 97820 234291,234369,234317
 2.4000e+001 234395  2.4470e+005 -3.5261e+006  1.2015e+005 97820 234265,234369,234291
 2.4000e+001 234593 -5.0815e+005 -3.0342e+006  8.7793e+004 97366 234466,234518,234492
 2.4000e+001 234570 -2.4949e+005 -6.2738e+006  2.4873e+005 97366 234466,234544,234518
 2.4000e+001 234794 -8.0902e+005 -1.5542e+006 -7.1098e+005 96976 234618,234670,234644
 2.4000e+001 234771  1.2192e+004 -5.5790e+006  1.2065e+005 96976 234618,234722,234670
 2.4000e+001 234748 -2.6605e+005 -3.2234e+006 -1.0510e+006 96976 234670,234722,234696
 2.4000e+001 234946 -6.3904e+005 -3.0282e+006  1.3122e+006 96568 234845,234897,234871
 2.4000e+001 234923 -4.6332e+005 -1.3483e+006  5.2290e+005 96568 234819,234897,234845
 2.4000e+001 235196 -4.4086e+004 -1.7230e+006  2.8679e+005 96216 234997,235075,235049
 2.4000e+001 235173 -5.6063e+005 -5.3998e+006  1.8263e+006 96216 234997,235101,235075
 2.4000e+001 235150 -9.0002e+005 -4.0949e+006  1.0240e+006 96216 234997,235049,235023
 2.4000e+001 235127 -1.8848e+005 -6.9580e+006 -2.3369e+006 96216 234971,235101,234997
 2.4000e+001 235348 -1.5648e+006 -2.8952e+006 -1.4010e+006 95863 235247,235299,235273
 2.4000e+001 235325 -1.0467e+006 -1.6459e+006 -9.6042e+005 95863 235221,235299,235247
 2.4000e+001 235500 -1.8660e+006 -3.5336e+006 -3.0714e+006 95339 235373,235425,235399
 2.4000e+001 235477 -4.7100e+005 -8.4413e+006  4.2850e+006 95339 235373,235451,235425
 2.4000e+001 235701 -3.7703e+005 -4.2736e+006  1.7199e+006 95023 235525,235577,235551
 2.4000e+001 235678 -4.4981e+004 -1.8802e+006 -1.4868e+005 95023 235525,235629,235577
 2.4000e+001 235655 -6.2696e+005 -1.8655e+006  8.7643e+004 95023 235577,235629,235603
 2.4000e+001 235853  9.4333e+005 -1.0003e+007  1.1425e+006 94671 235726,235778,235752
 2.4000e+001 235830 -3.1091e+005 -7.6514e+006 -6.2241e+005 94671 235726,235804,235778
 2.4000e+001 236005 -1.3009e+006 -7.3363e+006 -7.8828e+005 94261 235904,235956,235930
 2.4000e+001 235982 -1.9883e+006 -8.8358e+006 -2.1479e+006 94261 235878,235956,235904
 2.4000e+001 236206 -8.7033e+005 -1.8745e+006  1.3228e+006 93853 236056,236134,236082
 2.4000e+001 236183 -1.5214e+005 -1.7492e+006  1.7490e+005 93853 236030,236134,236056
 2.4000e+001 236160 -9.7204e+004 -4.3278e+006  9.8543e+005 93853 236082,236134,236108
 2.4000e+001 236407 -7.7446e+005 -6.4644e+006  1.0489e+004 93557 236257,236309,236283
 2.4000e+001 236384 -2.2032e+006 -7.2130e+006 -1.8230e+006 93557 236231,236309,236257
 2.4000e+001 236361 -7.4747e+005 -1.1737e+007 -3.7670e+005 93557 236231,236335,236309
 2.4000e+001 236559 -2.7878e+005 -1.1838e+006 -2.2250e+004 93149 236432,236484,236458
 2.4000e+001 236536 -1.1668e+005 -5.8303e+005  6.0840e+004 93149 236432,236510,236484
 2.4000e+001 236711 -1.2404e+005 -2.5385e+006  7.1406e+005 92853 236584,236636,236610
 2.4000e+001 236688 -1.0124e+005 -1.8194e+006  5.4947e+005 92853 236584,236662,236636
 2.4000e+001 236912 -1.0245e+005 -4.3278e+006  1.3099e+006 92501 236736,236788,236762
 2.4000e+001 236889 -1.6766e+005 -2.5628e+006  2.9920e+005 92501 236736,236840,236788
 2.4000e+001 236866 -5.2077e+005 -3.5244e+006  6.5455e+005 92501 236788,236840,236814
 2.4000e+001 237113 -1.8191e+005 -4.3135e+006  2.6776e+005 92291 236963,237041,237015
 2.4000e+001 237090  2.3332e+004 -2.8412e+006  2.0666e+005 92291 236937,237041,236963
 2.4000e+001 237067 -2.0775e+005 -3.9491e+006  9.0459e+005 92291 236963,237015,236989
 2.4000e+001 237265 -5.7468e+004 -1.5254e+006 -1.6030e+005 91871 237138,237190,237164
 2.4000e+001 237242 -6.2854e+005 -2.1378e+006 -7.0055e+005 91871 237138,237216,237190
 2.4000e+001 237368 -9.5157e+002 -3.4663e+006  6.3969e+002 91581 237290,237342,237316
 2.4000e+001 237520 -1.9604e+005 -1.2966e+006  4.2978e+005 91184 237419,237471,237445
 2.4000e+001 237497 -2.2504e+005 -1.6502e+006  1.1712e+005 91184 237393,237471,237419
 2.4000e+001 237672 -4.2419e+005 -2.9536e+006  7.7273e+005 90894 237545,237597,237571
 2.4000e+001 237649 -1.4223e+005 -2.9279e+006  7.1392e+005 90894 237545,237623,237597
 2.4000e+001 237873 -9.8189e+005 -5.0408e+006  6.7941e+005 90490 237749,237801,237775
 2.4000e+001 237850 -4.7327e+005 -4.4161e+006  1.0974e+006 90490 237723,237801,237749
 2.4000e+001 237827 -5.3007e+005 -4.4326e+006 -1.2166e+006 90490 237697,237801,237723
 2.4000e+001 238074 -7.3495e+005 -6.6372e+006  1.1921e+005 90100 237898,237976,237950
 2.4000e+001 238051 -2.1319e+006 -6.8330e+006  1.5940e+004 90100 237898,238002,237976
 2.4000e+001 238028 -6.3313e+005 -6.2729e+006  4.4727e+004 90100 237898,237950,237924
 2.4000e+001 238275 -1.0228e+006 -3.8860e+006  5.7682e+004 89696 238125,238177,238151
 2.4000e+001 238252 -3.5079e+005 -3.5326e+006 -3.5295e+005 89696 238099,238177,238125
 2.4000e+001 238229 -3.2468e+005 -4.0182e+006 -3.3010e+005 89696 238099,238203,238177
 2.4000e+001 238427 -4.3623e+004 -4.8676e+005 -8.3727e+004 89206 238326,238378,238352
 2.4000e+001 238404  7.9539e+004 -1.6179e+006 -5.6607e+004 89206 238300,238378,238326
 2.4000e+001 238579 -1.1477e+006 -5.3182e+006  1.1931e+006 88908 238452,238504,238478
 2.4000e+001 238556 -1.1777e+005 -4.7553e+006  4.4844e+005 88908 238452,238530,238504
 2.4000e+001 238682 -1.7297e+002 -5.0314e+005 -4.3694e+002 88568 238604,238656,238630
 2.4000e+001 238883  2.0254e+005 -5.4200e+006  1.0719e+006 88278 238733,238811,238785
 2.4000e+001 238860 -4.3707e+005 -3.7893e+006  9.1087e+005 88278 238707,238811,238733
 2.4000e+001 238837 -1.9169e+005 -5.5260e+006  1.0284e+006 88278 238733,238785,238759
 2.4000e+001 239035 -7.3265e+005 -6.6324e+006 -2.1482e+005 87988 238908,238960,238934
 2.4000e+001 239012 -1.2760e+006 -4.8207e+006  9.1448e+005 87988 238908,238986,238960
 2.4000e+001 239138 -8.2520e+004 -1.2329e+006  1.3515e+004 87648 239060,239112,239086
 2.4000e+001 239339 -7.8196e+005 -3.4363e+006 -1.8218e+006 87358 239163,239215,239189
 2.4000e+001 239316 -8.9987e+005 -2.9275e+006 -5.5886e+005 87358 239163,239241,239215
 2.4000e+001 239293 -9.6184e+005 -1.4248e+006 -1.1238e+006 87358 239163,239267,239241
 2.4000e+001 239589  1.9583e+002 -3.4950e+005  2.5671e+004 86961 239390,239468,239416
 2.4000e+001 239566  2.9515e+004 -3.6574e+005 -1.1091e+004 86961 239390,239494,239468
 2.4000e+001 239543 -9.6851e+003 -1.1456e+005  1.1506e+004 86961 239416,239468,239442
 2.4000e+001 239520 -2.7957e+004 -1.5141e+005  3.5220e+004 86961 239364,239494,239390
 2.4000e+001 239741 -1.2508e+006 -4.6053e+006 -4.4205e+005 86621 239640,239692,239666
 2.4000e+001 239718 -5.9927e+005 -6.0797e+006 -1.4616e+006 86621 239614,239692,239640
 2.4000e+001 239893 -2.4538e+005 -5.5177e+006  1.0854e+006 86217 239792,239844,239818
 2.4000e+001 239870 -3.5107e+005 -4.2107e+006  5.0820e+005 86217 239766,239844,239792
 2.4000e+001 240045 -7.3646e+005 -5.1073e+006  4.1122e+005 85827 239918,239970,239944
 2.4000e+001 240022 -2.0960e+005 -4.9688e+006  2.1683e+005 85827 239918,239996,239970
 2.4000e+001 240197 -3.2409e+005 -7.3169e+006  9.4919e+005 85437 240096,240148,240122
 2.4000e+001 240174 -1.3530e+006 -2.9895e+006 -4.8171e+005 85437 240070,240148,240096
 2.4000e+001 240349 -2.0145e+005 -2.2000e+006  8.4638e+005 85147 240222,240274,240248
 2.4000e+001 240326 -2.5097e+005 -1.3057e+006  9.1971e+003 85147 240222,240300,240274
 2.4000e+001 240501 -8.6736e+005 -2.4203e+006  9.2574e+005 84807 240374,240426,240400
 2.4000e+001 240478 -1.2607e+006 -2.1445e+006  5.9860e+005 84807 240374,240452,240426
 2.4000e+001 240653 -6.9849e+003 -2.1905e+005 -3.7912e+004 84303 240552,240604,240578
 2.4000e+001 240630 -6.2999e+003 -2.1514e+005 -3.8125e+004 84303 240526,240604,240552
 2.4000e+001 240854  1.2429e+005 -9.6673e+006 -3.2546e+006 83929 240704,240756,240730
 2.4000e+001 240831  1.1213e+006 -8.3962e+006  1.2945e+006 83929 240704,240782,240756
 2.4000e+001 240808 -2.1790e+006  2.6708e+005  1.8073e+006 83929 240678,240782,240704
 2.4000e+001 241055  1.1269e+004 -3.2156e+005 -2.6293e+004 83539 240879,240957,240931
 2.4000e+001 241032 -1.0777e+005 -3.5176e+005 -1.4632e+004 83539 240879,240983,240957
 2.4000e+001 241009 -5.1111e+004 -1.3852e+005 -3.2933e+004 83539 240879,240931,240905
 2.4000e+001 241207  1.1802e+005 -2.7561e+006  3.7260e+005 83079 241106,241158,241132
 2.4000e+001 241184 -3.5157e+005 -1.0792e+006  4.2450e+005 83079 241080,241158,241106
 2.4000e+001 241408  1.1580e+006 -4.9185e+006  5.4224e+005 82665 241232,241284,241258
 2.4000e+001 241385 -1.7909e+006 -1.4199e+007 -4.1816e+006 82665 241232,241336,241284
 2.4000e+001 241362 -4.4280e+006  5.1498e+006  7.3954e+006 82665 241284,241336,241310
 2.4000e+001 241658 -1.8322e+005 -4.0203e+006  3.5782e+005 82375 241485,241563,241511
 2.4000e+001 241635  6.6470e+004 -2.9243e+006  3.7995e+005 82375 241433,241563,241485
 2.4000e+001 241612 -5.4608e+004 -3.3350e+006  4.6322e+005 82375 241433,241485,241459
 2.4000e+001 241589 -4.7317e+005 -4.7203e+006  6.3695e+005 82375 241511,241563,241537
 2.4000e+001 241810 -9.3270e+005 -4.1145e+006  1.8637e+005 82035 241683,241735,241709
 2.4000e+001 241787 -8.2535e+005 -4.1776e+006  2.9740e+005 82035 241683,241761,241735
 2.4000e+001 241962 -8.9620e+005 -3.9884e+006  3.6979e+005 81695 241861,241913,241887
 2.4000e+001 241939 -7.2264e+005 -4.5524e+006 -6.2935e+005 81695 241835,241913,241861
 2.4000e+001 242114 -7.3184e+005 -6.0883e+006  1.3122e+006 81355 242013,242065,242039
 2.4000e+001 242091 -3.0676e+005 -4.7188e+006  7.5293e+005 81355 241987,242065,242013
 2.4000e+001 242266 -1.4811e+005 -8.8079e+005 -1.7813e+005 80951 242139,242191,242165
 2.4000e+001 242243 -1.7077e+005 -1.0209e+006 -3.8849e+004 80951 242139,242217,242191
 2.4000e+001 242467 -2.4350e+005 -4.6986e+006  5.6562e+005 80311 242291,242369,242343
 2.4000e+001 242444  1.0345e+005 -3.4298e+006  4.0899e+005 80311 242291,242395,242369
 2.4000e+001 242421 -2.9611e+005 -3.3294e+006  2.5987e+005 80311 242291,242343,242317
 2.4000e+001 242619 -1.4511e+006 -3.2464e+006  2.6008e+005 80021 242492,242544,242518
 2.4000e+001 242596 -1.3471e+006 -2.8931e+006  7.1561e+005 80021 242492,242570,242544
 2.4000e+001 242869 -2.9222e+005 -1.8323e+006  4.3588e+005 79631 242644,242722,242696
 2.4000e+001 242846 -5.4445e+004 -1.8074e+006  3.5086e+005 79631 242644,242774,242722
 2.4000e+001 242823 -2.4562e+005 -2.4449e+006  5.1294e+005 79631 242722,242774,242748
 2.4000e+001 242800 -3.8053e+005 -2.3447e+006  5.6552e+005 79631 242644,242696,242670
 2.4000e+001 243070 -4.4880e+004 -1.3414e+007  2.5537e+006 79341 242920,242972,242946
 2.4000e+001 243047 -7.4478e+005 -7.7495e+006 -2.4042e+005 79341 242920,242998,242972
 2.4000e+001 243024 -9.1270e+005 -5.1072e+006  2.1592e+006 79341 242894,242998,242920
 2.4000e+001 243222 -1.0702e+005 -2.7012e+006  8.0632e+005 78801 243121,243173,243147
 2.4000e+001 243199 -6.8311e+005 -4.5895e+006  1.4576e+006 78801 243095,243173,243121
 2.4000e+001 243423 -5.1454e+005 -6.2913e+006 -6.3870e+005 78511 243273,243325,243299
 2.4000e+001 243400  1.7412e+005 -9.7722e+006  1.2248e+006 78511 243273,243351,243325
 2.4000e+001 243377 -5.8991e+003 -9.8781e+006  2.4703e+005 78511 243247,243351,243273
 2.4000e+001 243624 -3.4062e+005 -3.6052e+006 -5.2884e+005 78107 243474,243552,243526
 2.4000e+001 243601 -4.6386e+005 -3.2186e+006 -7.9143e+005 78107 243448,243552,243474
 2.4000e+001 243578 -8.5062e+005 -4.9149e+006 -1.7542e+006 78107 243474,243526,243500
 2.4000e+001 243776 -8.1926e+005 -4.3207e+006 -1.1362e+006 77653 243649,243701,243675
 2.4000e+001 243753 -1.9749e+006 -7.8850e+006 -3.8938e+005 77653 243649,243727,243701
 2.4000e+001 243977 -5.2457e+005 -5.7538e+006  3.6904e+003 77093 243801,243853,243827
 2.4000e+001 243954 -1.4894e+005 -4.5611e+006  5.7181e+005 77093 243801,243879,243853
 2.4000e+001 243931  7.5972e+004 -3.9003e+006  2.9638e+005 77093 243801,243905,243879
 2.4000e+001 244080 -1.6984e+006 -5.2678e+006  1.3438e+005 76791 244002,244054,244028
 2.4000e+001 244232  7.3709e+004 -5.8462e+006  9.7477e+004 76311 244131,244183,244157
 2.4000e+001 244209  2.1527e+005 -8.9694e+006  5.1817e+005 76311 244105,244183,244131
 2.4000e+001 244433 -1.2376e+006 -1.4220e+007  1.8712e+006 75903 244283,244335,244309
 2.4000e+001 244410 -5.0498e+005 -1.2175e+007  3.8285e+005 75903 244283,244361,244335
 2.4000e+001 244387 -2.4253e+006 -9.4302e+006  2.4310e+006 75903 244257,244361,244283
 2.4000e+001 244585  5.6820e+004 -1.4432e+007  1.1618e+006 75419 244458,244510,244484
 2.4000e+001 244562 -5.2752e+005 -1.0254e+007  2.6344e+005 75419 244458,244536,244510
 2.4000e+001 244737 -3.7120e+005 -1.9060e+006 -1.4949e+005 75215 244636,244688,244662
 2.4000e+001 244714 -2.2346e+005 -5.5394e+006 -1.5677e+005 75215 244610,244688,244636
 2.4000e+001 244889 -1.0749e+006 -5.0554e+006 -3.9734e+005 74857 244788,244840,244814
 2.4000e+001 244866 -5.3148e+005 -3.0541e+006 -9.5314e+004 74857 244762,244840,244788
 2.4000e+001 245041 -6.1741e+003 -1.7142e+005  2.0411e+004 74653 244940,244992,244966
 2.4000e+001 245018  3.1737e+003 -1.9402e+005 -1.0585e+004 74653 244914,244992,244940
 2.4000e+001 245144 -7.6988e+004 -7.5200e+006 -1.0863e+006 74359 245066,245118,245092
 2.4000e+001 245296 -3.8423e+005 -3.0068e+006 -8.8398e+005 74007 245169,245221,245195
 2.4000e+001 245273 -5.6654e+005 -3.7459e+006 -9.7780e+005 74007 245169,245247,245221
 2.4000e+001 245448 -1.1503e+006 -7.9494e+006  2.6850e+006 73711 245321,245373,245347
 2.4000e+001 245425 -1.8435e+005 -7.6986e+006 -3.2841e+006 73711 245321,245399,245373
 2.4000e+001 245600  7.4558e+005 -1.1387e+007 -1.1391e+006 73301 245499,245551,245525
 2.4000e+001 245577 -1.5274e+006 -7.9743e+006  1.6098e+006 73301 245473,245551,245499
 2.4000e+001 245752 -9.2371e+005 -3.4227e+006 -1.2708e+006 72995 245625,245677,245651
 2.4000e+001 245729  6.5771e+005 -8.9960e+006 -1.1923e+006 72995 245625,245703,245677
 2.4000e+001 245953 -2.8672e+006 -1.1334e+007  1.1999e+006 72585 245777,245829,245803
 2.4000e+001 245930 -1.5721e+006 -1.2548e+007  2.9424e+006 72585 245777,245855,245829
 2.4000e+001 245907 -7.8402e+005 -1.1191e+007  2.3008e+006 72585 245777,245881,245855
 2.4000e+001 246154 -2.9383e+005 -6.1082e+006  1.2017e+006 72127 246030,246082,246056
 2.4000e+001 246131 -9.8311e+005 -8.1591e+006  6.9347e+005 72127 245978,246082,246030
 2.4000e+001 246108 -1.0981e+005 -7.7893e+006  1.7519e+005 72127 245978,246030,246004
 2.4000e+001 246257 -1.2813e+006 -2.9603e+006  9.7509e+003 71737 246179,246231,246205
 2.4000e+001 246360 -1.4848e+005 -2.9306e+006  3.4444e+005 71447 246282,246334,246308
 2.4000e+001 246512 -2.0080e+005 -2.9655e+006  8.2550e+005 71157 246385,246437,246411
 2.4000e+001 246489 -8.0752e+004 -2.7285e+006  4.2463e+005 71157 246385,246463,246437
 2.4000e+001 246664 -1.6787e+005 -2.9789e+006 -2.5121e+005 70753 246537,246589,246563
 2.4000e+001 246641 -6.0300e+005 -1.8865e+006 -5.8184e+004 70753 246537,246615,246589
 2.4000e+001 246865 -1.6487e+006 -9.9552e+006  5.1687e+006 70249 246715,246767,246741
 2.4000e+001 246842 -1.8709e+006 -8.9365e+006  6.6920e+004 70249 246715,246793,246767
 2.4000e+001 246819 -7.7817e+005 -1.1227e+007 -1.4145e+006 70249 246689,246793,246715
 2.4000e+001 247066 -1.7334e+005 -2.3229e+006  4.9377e+005 70023 246916,246994,246942
 2.4000e+001 247043  9.3817e+004 -2.8698e+006  2.7449e+005 70023 246890,246994,246916
 2.4000e+001 247020 -1.5277e+005 -1.9670e+006  2.4934e+005 70023 246942,246994,246968
 2.4000e+001 247267 -3.2671e+005 -4.5448e+006 -3.3429e+005 69633 247091,247143,247117
 2.4000e+001 247244 -1.0317e+005 -3.6981e+006 -1.8904e+005 69633 247091,247169,247143
 2.4000e+001 247221 -7.1869e+003 -3.0543e+006 -1.8579e+005 69633 247091,247195,247169
 2.4000e+001 247419 -8.9862e+005 -5.9113e+006  8.0988e+005 69457 247318,247370,247344
 2.4000e+001 247396 -1.0683e+006 -4.2935e+006  9.3058e+005 69457 247292,247370,247318
 2.4000e+001 247522  6.4730e+000 -6.1807e+004 -3.3640e+002 69209 247444,247496,247470
 2.4000e+001 247625 -1.7772e+006 -1.9706e+006 -6.4716e+005 68919 247547,247599,247573
 2.4000e+001 247777  3.5503e+005 -6.4912e+006 -4.4513e+005 68579 247650,247702,247676
 2.4000e+001 247754 -2.6855e+005 -2.6264e+006 -9.5588e+004 68579 247650,247728,247702
 2.4000e+001 247929  3.1722e+004 -4.1804e+006  1.5083e+006 68289 247802,247854,247828
 2.4000e+001 247906  1.6415e+005 -3.0249e+006  4.8695e+005 68289 247802,247880,247854
 2.4000e+001 248081 -3.2291e+005 -5.0125e+006  1.2701e+006 67949 247980,248032,248006
 2.4000e+001 248058 -5.2770e+005 -1.4192e+006  9.8808e+004 67949 247954,248032,247980
 2.4000e+001 248233 -1.7085e+006 -5.9933e+006 -6.9215e+005 67616 248132,248184,248158
 2.4000e+001 248210 -6.5523e+005 -6.5202e+006 -4.4544e+005 67616 248106,248184,248132
 2.4000e+001 248434 -1.2624e+005 -4.1308e+006 -2.4759e+005 67212 248284,248336,248310
 2.4000e+001 248411 -5.5412e+004 -4.1778e+006 -4.6978e+005 67212 248258,248336,248284
 2.4000e+001 248388 -1.3605e+006 -3.1332e+006 -4.7239e+005 67212 248258,248362,248336
 2.4000e+001 248586 -2.6661e+004 -5.1753e+006  5.3724e+005 66872 248485,248537,248511
 2.4000e+001 248563 -7.7879e+005 -1.8234e+006 -1.6091e+005 66872 248459,248537,248485
 2.4000e+001 248738 -2.2871e+005 -5.3543e+006  9.9339e+004 66510 248637,248689,248663
 2.4000e+001 248715 -3.3840e+005 -8.7979e+006  1.9549e+005 66510 248611,248689,248637
 2.4000e+001 248890 -4.1177e+004 -9.4536e+005  1.9762e+005 66220 248789,248841,248815
 2.4000e+001 248867 -2.3681e+005 -1.2695e+006 -3.4096e+005 66220 248763,248841,248789
 2.4000e+001 249091 -8.7979e+005 -8.3834e+006  2.5970e+006 65759 248915,248967,248941
 2.4000e+001 249068 -6.2577e+005 -7.4023e+006  2.4976e+006 65759 248915,248993,248967
 2.4000e+001 249045 -3.1651e+005 -5.6410e+006  1.3251e+006 65759 248915,249019,248993
 2.4000e+001 249243 -2.1302e+005 -8.6262e+006  1.9108e+006 65419 249142,249194,249168
 2.4000e+001 249220 -3.5903e+005 -4.7467e+006  5.5835e+005 65419 249116,249194,249142
 2.4000e+001 249395 -3.7146e+005 -2.8632e+006 -2.6224e+005 65079 249268,249320,249294
 2.4000e+001 249372 -3.7460e+005 -3.8305e+006 -5.5239e+005 65079 249268,249346,249320
 2.4000e+001 249547 -1.7438e+004 -6.4936e+005 -7.9629e+004 64739 249420,249472,249446
 2.4000e+001 249524 -1.3484e+005 -6.7154e+005 -9.0974e+004 64739 249420,249498,249472
 2.4000e+001 249650 -1.2186e+006 -5.8489e+006 -2.2570e+006 64342 249572,249624,249598
 2.4000e+001 249851 -5.4421e+005 -6.0519e+006 -1.8143e+006 63938 249701,249779,249753
 2.4000e+001 249828 -5.2534e+005 -6.8347e+006  2.8854e+006 63938 249675,249779,249701
 2.4000e+001 249805 -1.5836e+006 -9.6965e+006 -9.3066e+005 63938 249701,249753,249727
 2.4000e+001 250052 -8.3654e+005 -6.1532e+006 -3.5019e+005 63341 249876,249954,249902
 2.4000e+001 250029 -1.0913e+006 -6.1562e+006 -6.6123e+004 63341 249876,249980,249954
 2.4000e+001 250006  7.7346e+005 -7.3711e+006  6.6060e+005 63341 249902,249954,249928
 2.4000e+001 250253 -7.0679e+004 -6.3021e+006 -7.5603e+005 63058 250077,250129,250103
 2.4000e+001 250230 -5.6679e+005 -4.7555e+006 -1.9560e+005 63058 250077,250155,250129
 2.4000e+001 250207 -2.3287e+005 -4.3067e+006 -8.3791e+005 63058 250077,250181,250155
 2.4000e+001 250454 -1.0942e+006 -8.1133e+006  1.6253e+006 62832 250304,250382,250330
 2.4000e+001 250431  2.8825e+005 -1.0170e+007 -2.5976e+006 62832 250278,250382,250304
 2.4000e+001 250408 -2.6651e+006 -4.9834e+006  4.5595e+005 62832 250330,250382,250356
 2.4000e+001 250606  3.1547e+004 -1.6813e+007  1.3822e+006 62428 250479,250531,250505
 2.4000e+001 250583 -4.7480e+005 -9.8006e+006 -2.1721e+005 62428 250479,250557,250531
 2.4000e+001 250758 -1.8878e+005 -7.8475e+006  7.9618e+005 62202 250631,250683,250657
 2.4000e+001 250735 -9.7257e+004 -8.8357e+006  2.2726e+006 62202 250631,250709,250683
 2.4000e+001 250861 -1.7309e+006 -3.1481e+006  4.7456e+004 61954 250783,250835,250809
 2.4000e+001 251062 -1.6802e+006 -1.0689e+007  4.5713e+004 61557 250912,250990,250938
 2.4000e+001 251039 -1.5598e+005 -1.1082e+007  3.9341e+005 61557 250886,250990,250912
 2.4000e+001 251016 -7.5051e+005 -1.0282e+007 -1.1643e+006 61557 250938,250990,250964
 2.4000e+001 251263 -1.0376e+006 -8.3693e+006  1.2125e+004 61167 251113,251165,251139
 2.4000e+001 251240 -3.9896e+005 -8.0023e+006 -3.4954e+005 61167 251113,251191,251165
 2.4000e+001 251217 -1.2479e+006 -7.7463e+006  2.3512e+006 61167 251087,251191,251113
 2.4000e+001 251415 -1.0173e+006 -3.5010e+006  9.2722e+005 60827 251288,251340,251314
 2.4000e+001 251392 -5.7003e+005 -1.8168e+006  1.7560e+004 60827 251288,251366,251340
 2.4000e+001 251567  1.3113e+005 -6.1391e+006  7.1286e+005 60487 251466,251518,251492
 2.4000e+001 251544 -3.3216e+004 -3.9913e+006 -3.1326e+005 60487 251440,251518,251466
 2.4000e+001 251719  2.2116e+005 -1.1018e+007 -1.2105e+005 59983 251592,251644,251618
 2.4000e+001 251696 -7.8543e+005 -8.9840e+006  1.4117e+005 59983 251592,251670,251644
 2.4000e+001 251920  6.0697e+004 -2.1397e+006  3.6585e+004 59807 251770,251848,251796
 2.4000e+001 251897  4.8019e+004 -2.0394e+006 -7.9186e+003 59807 251744,251848,251770
 2.4000e+001 251874  1.0687e+004 -2.5294e+006 -7.0285e+004 59807 251796,251848,251822
 2.4000e+001 252023 -3.0312e+005 -4.8872e+006  8.9299e+004 59517 251945,251997,251971
 2.4000e+001 252175  1.4543e+006 -1.5822e+007 -9.1283e+005 59269 252074,252126,252100
 2.4000e+001 252152 -1.5338e+006 -3.9845e+005  1.2933e+006 59269 252048,252126,252074
 2.4000e+001 252278 -4.6194e+005 -2.4234e+006  1.0897e+006 58979 252200,252252,252226
 2.4000e+001 252381 -2.2848e+006 -2.9420e+006  1.1193e+006 58689 252303,252355,252329
 2.4000e+001 252533 -1.0219e+006 -5.6230e+006 -4.3940e+004 58249 252432,252484,252458
 2.4000e+001 252510 -8.9898e+005 -6.1317e+006 -8.4744e+005 58249 252406,252484,252432
 2.4000e+001 252734 -4.1809e+005 -5.1262e+006  2.4609e+005 57902 252584,252662,252610
 2.4000e+001 252711  8.7414e+005 -6.0610e+006 -7.5904e+004 57902 252558,252662,252584
 2.4000e+001 252688 -3.1878e+005 -3.7048e+006 -3.8173e+005 57902 252610,252662,252636
 2.4000e+001 252886 -1.0834e+005 -4.6664e+006 -1.8123e+005 57540 252785,252837,252811
 2.4000e+001 252863  1.8602e+005 -4.8120e+006 -1.3571e+005 57540 252759,252837,252785
 2.4000e+001 253038 -5.4712e+005 -5.9492e+006  1.3724e+006 57086 252937,252989,252963
 2.4000e+001 253015 -2.8265e+005 -2.8189e+006  2.2675e+005 57086 252911,252989,252937
 2.4000e+001 253239 -7.4197e+005 -5.4905e+006 -1.2853e+006 56796 253063,253141,253115
 2.4000e+001 253216  1.4120e+005 -6.4130e+006 -1.2226e+005 56796 253063,253167,253141
 2.4000e+001 253193 -9.8894e+005 -4.5313e+006 -1.1585e+006 56796 253063,253115,253089
 2.4000e+001 253342 -9.2686e+005 -1.3723e+007  8.5881e+005 56349 253264,253316,253290
 2.4000e+001 253543 -8.8154e+005 -9.1758e+006 -5.5855e+005 56009 253367,253419,253393
 2.4000e+001 253520 -5.3804e+005 -5.8265e+006 -3.3300e+005 56009 253367,253445,253419
 2.4000e+001 253497 -3.2633e+005 -7.0395e+006  2.3682e+005 56009 253367,253471,253445
 2.4000e+001 253695 -2.7122e+004 -4.1132e+006 -4.2618e+004 55733 253594,253646,253620
 2.4000e+001 253672 -1.5669e+005 -3.2490e+006 -1.3740e+004 55733 253568,253646,253594
 2.4000e+001 253798 -4.7426e+005 -2.4926e+006 -1.2313e+005 55557 253720,253772,253746
 2.4000e+001 253950 -5.8411e+005 -4.4675e+006  4.3755e+005 55153 253849,253901,253875
 2.4000e+001 253927  2.2056e+005 -5.1340e+006 -3.8774e+005 55153 253823,253901,253849
 2.4000e+001 254151 -1.2866e+006 -5.0106e+006  8.5065e+005 54863 253975,254053,254001
 2.4000e+001 254128 -6.5382e+005 -5.1105e+006  6.5741e+004 54863 253975,254079,254053
 2.4000e+001 254105 -4.5977e+005 -3.9586e+006  2.3248e+005 54863 254001,254053,254027
 2.4000e+001 254303  1.9915e+005 -5.6133e+006  9.1884e+004 54373 254176,254228,254202
 2.4000e+001 254280 -5.7274e+005 -4.1078e+006  1.4323e+004 54373 254176,254254,254228
 2.4000e+001 254455 -2.1111e+005 -5.4935e+006 -3.8107e+005 53975 254354,254406,254380
 2.4000e+001 254432 -7.8383e+005 -1.7025e+006  1.1708e+005 53975 254328,254406,254354
 2.4000e+001 254607 -3.7031e+005 -5.1565e+006 -4.9295e+005 53585 254480,254532,254506
 2.4000e+001 254584 -3.5667e+005 -5.0089e+006 -5.2737e+005 53585 254480,254558,254532
 2.4000e+001 254808 -8.6692e+005 -3.8469e+006  1.5834e+004 53245 254658,254736,254684
 2.4000e+001 254785 -1.0383e+006 -2.0674e+006 -3.8856e+005 53245 254632,254736,254658
 2.4000e+001 254762 -4.4314e+005 -2.7194e+006 -3.2355e+005 53245 254684,254736,254710
 2.4000e+001 254911 -3.6177e+005 -6.0756e+006  2.3132e+004 52955 254833,254885,254859
 2.4000e+001 255063 -7.6518e+005 -6.1456e+006 -1.1161e+005 52551 254962,255014,254988
 2.4000e+001 255040 -6.7781e+005 -6.7456e+006 -3.5536e+005 52551 254936,255014,254962
 2.4000e+001 255264 -8.2005e+005 -1.9230e+006  3.5327e+005 52261 255114,255166,255140
 2.4000e+001 255241 -9.6477e+005 -4.5257e+006  1.1454e+006 52261 255114,255192,255166
 2.4000e+001 255218  6.6897e+005 -7.4810e+006 -1.5857e+006 52261 255088,255192,255114
 2.4000e+001 255416 -3.4947e+005 -5.0958e+006  1.5174e+006 51971 255289,255341,255315
 2.4000e+001 255393 -2.7594e+005 -4.7076e+006 -1.9113e+005 51971 255289,255367,255341
 2.4000e+001 255568 -1.2814e+006 -2.3179e+006 -1.9319e+005 51681 255441,255493,255467
 2.4000e+001 255545  4.4462e+004 -8.9457e+006  8.6156e+005 51681 255441,255519,255493
 2.4000e+001 255769 -2.3757e+005 -3.7856e+006 -1.0079e+005 51291 255619,255697,255671
 2.4000e+001 255746 -2.0459e+005 -3.4097e+006 -3.6363e+005 51291 255593,255697,255619
 2.4000e+001 255723 -1.5230e+005 -5.2693e+006 -4.3689e+005 51291 255619,255671,255645
 2.4000e+001 255921 -3.7330e+005 -3.2137e+006  7.6109e+005 50951 255820,255872,255846
 2.4000e+001 255898 -1.6552e+005 -2.5852e+006  1.4191e+005 50951 255794,255872,255820
 2.4000e+001 256171 -1.2681e+006 -4.5210e+006  2.2252e+004 50547 256024,256076,256050
 2.4000e+001 256148 -9.4572e+005 -4.7253e+006  5.3877e+005 50547 255972,256076,256024
 2.4000e+001 256125 -2.3714e+005 -5.5487e+006 -7.3417e+004 50547 255946,256076,255972
 2.4000e+001 256102 -8.3608e+005 -4.0587e+006  2.9565e+005 50547 255972,256024,255998
 2.4000e+001 256323  2.7521e+005 -5.5000e+006  9.2182e+005 50093 256196,256248,256222
 2.4000e+001 256300 -8.7869e+005 -2.9692e+006 -1.0695e+006 50093 256196,256274,256248
 2.4000e+001 256426 -2.0731e+002 -2.6623e+005 -1.2347e+002 49845 256348,256400,256374
 2.4000e+001 256627 -1.5251e+005 -5.3018e+006  1.6676e+005 49555 256477,256555,256503
 2.4000e+001 256604 -3.3247e+005 -4.3429e+006  1.3752e+005 49555 256451,256555,256477
 2.4000e+001 256581 -4.0409e+005 -4.5395e+006  3.0969e+005 49555 256503,256555,256529
 2.4000e+001 256828 -5.1299e+005 -3.7090e+006 -6.3566e+004 49056 256652,256730,256678
 2.4000e+001 256805 -4.8956e+005 -3.3724e+006 -8.3996e+004 49056 256652,256756,256730
 2.4000e+001 256782 -5.8010e+005 -3.2956e+006 -3.3810e+005 49056 256678,256730,256704
 2.4000e+001 256931 -9.4636e+005 -2.2237e+006 -7.1270e+005 48766 256853,256905,256879
 2.4000e+001 257083 -8.1594e+005 -4.8576e+006 -5.9361e+005 48568 256982,257034,257008
 2.4000e+001 257060 -6.2290e+005 -4.0751e+006 -6.5710e+005 48568 256956,257034,256982
 2.4000e+001 257186  5.9047e+003 -2.1037e+006 -1.0541e+003 48228 257108,257160,257134
 2.4000e+001 257338 -3.7663e+005 -2.4133e+006  6.3687e+005 47888 257237,257289,257263
 2.4000e+001 257315 -4.2041e+005 -1.9706e+006  4.0625e+005 47888 257211,257289,257237
 2.4000e+001 257539 -2.7727e+005 -4.4745e+006  1.2370e+005 47548 257363,257441,257415
 2.4000e+001 257516 -5.7991e+005 -4.3107e+006 -2.1466e+005 47548 257363,257467,257441
 2.4000e+001 257493 -5.6671e+005 -3.2493e+006 -1.8264e+005 47548 257363,257415,257389
 2.4000e+001 257740 -2.5566e+005 -4.7626e+006  4.6934e+005 46994 257564,257642,257616
 2.4000e+001 257717 -4.4665e+005 -4.0023e+006  1.9049e+005 46994 257564,257668,257642
 2.4000e+001 257694 -7.2953e+005 -5.1038e+006  9.6796e+004 46994 257564,257616,257590
 2.4000e+001 257843 -1.2000e+006 -3.5822e+006  1.3779e+005 46654 257765,257817,257791
 2.4000e+001 257995 -7.8279e+005 -3.5631e+006  3.3431e+005 46364 257894,257946,257920
 2.4000e+001 257972 -6.8519e+005 -4.5065e+006 -1.9292e+005 46364 257868,257946,257894
 2.4000e+001 258147 -1.9940e+005 -3.5990e+006  2.9379e+005 46024 258046,258098,258072
 2.4000e+001 258124 -3.2828e+005 -3.4138e+006  3.4170e+005 46024 258020,258098,258046
 2.4000e+001 258250 -7.8661e+005 -3.0636e+006  6.3996e+005 45741 258172,258224,258198
 2.4000e+001 258402 -9.1152e+004 -3.5012e+006  2.5047e+005 45401 258301,258353,258327
 2.4000e+001 258379 -5.8803e+005 -2.3711e+006  1.5629e+005 45401 258275,258353,258301
 2.4000e+001 258603 -6.7068e+005 -2.2599e+006  2.7685e+004 45071 258427,258505,258479
 2.4000e+001 258580 -2.2783e+005 -5.1894e+006  3.4662e+005 45071 258427,258531,258505
 2.4000e+001 258557 -2.0755e+005 -2.9158e+006  2.5794e+005 45071 258427,258479,258453
 2.4000e+001 258755 -1.6953e+005 -4.1003e+006 -3.0461e+005 44681 258654,258706,258680
 2.4000e+001 258732 -1.8789e+005 -4.2489e+006 -3.2878e+005 44681 258628,258706,258654
 2.4000e+001 258907 -5.0487e+005 -2.4010e+006 -1.9168e+005 44157 258806,258858,258832
 2.4000e+001 258884 -4.8656e+005 -2.4637e+006 -2.0747e+005 44157 258780,258858,258806
 2.4000e+001 259010 -6.4145e+005 -1.6358e+006  1.7530e+004 43705 258932,258984,258958
 2.4000e+001 259113 -3.4154e+005 -3.9322e+006  3.0192e+005 43284 259035,259087,259061
 2.4000e+001 259216 -5.3966e+005 -3.6162e+006 -2.0341e+005 42954 259138,259190,259164
 2.4000e+001 259319 -9.3898e+005 -2.1162e+006  1.6351e+004 42116 259241,259293,259267
 2.4000e+001 259422 -3.0200e+005 -3.8640e+006 -2.9299e+005 41804 259344,259396,259370
 2.4000e+001 259525 -6.2351e+005 -5.9906e+006  8.1659e+005 41219 259447,259499,259473
 2.4000e+001 259628 -8.5736e+005 -3.1288e+006 -3.4991e+005 385 259550,259602,259576
 2.6000e+001 190120 -9.0233e+005 -2.4770e+006  2.0608e+005 189630 189993,190045,190019
 2.6000e+001 190097 -4.6673e+005 -2.5243e+006  2.7315e+005 189630 189993,190071,190045
 2.6000e+001 190319 -1.2391e+006 -5.9978e+006  2.4535e+005 189312 190169,190221,190195
 2.6000e+001 190296 -7.7075e+005 -4.4390e+006 -1.1867e+006 189312 190169,190247,190221
 2.6000e+001 190273 -7.2486e+005 -3.8858e+006 -1.7378e+005 189312 190143,190247,190169
 2.6000e+001 190518 -4.9935e+005 -2.3340e+006 -6.5384e+005 189124 190368,190446,190420
 2.6000e+001 190495 -7.9409e+005 -1.1423e+006  2.5168e+005 189124 190342,190446,190368
 2.6000e+001 190472 -1.9732e+006 -2.4870e+006 -1.3181e+006 189124 190368,190420,190394
 2.6000e+001 190619 -4.9355e+005 -2.4693e+005 -1.2327e+004 188926 190541,190593,190567
 2.6000e+001 190771 -3.9341e+005 -3.2903e+006 -3.9570e+005 188614 190670,190722,190696
 2.6000e+001 190748 -3.2265e+005 -1.0862e+006  2.1958e+005 188614 190644,190722,190670
 2.6000e+001 190972 -1.0846e+005 -2.8317e+006 -5.1205e+005 188324 190848,190900,190874
 2.6000e+001 190949 -1.7502e+005 -2.3814e+006 -2.6575e+005 188324 190796,190900,190848
 2.6000e+001 190926 -5.2988e+005 -3.6611e+006 -5.9117e+005 188324 190796,190848,190822
 2.6000e+001 191124 -4.8521e+005 -2.4104e+006 -1.6761e+005 188034 191023,191075,191049
 2.6000e+001 191101 -3.6343e+005 -2.3500e+006 -2.1310e+005 188034 190997,191075,191023
 2.6000e+001 191276 -1.9896e+005 -2.6395e+006 -1.8891e+005 187836 191149,191201,191175
 2.6000e+001 191253 -4.9337e+005 -2.1719e+006  4.5547e+004 187836 191149,191227,191201
 2.6000e+001 191379 -4.4405e+005 -6.6968e+005 -1.2849e+005 187546 191301,191353,191327
 2.6000e+001 191531 -9.7033e+004 -7.7029e+006 -2.5132e+006 187256 191430,191482,191456
 2.6000e+001 191508 -7.1453e+005 -5.5430e+006  5.8939e+005 187256 191404,191482,191430
 2.6000e+001 191634 -2.1580e+005 -3.3728e+006 -1.9878e+005 187058 191556,191608,191582
 2.6000e+001 191835 -9.3254e+004 -2.2755e+006  3.5693e+005 186860 191659,191711,191685
 2.6000e+001 191812 -3.5482e+005 -1.4636e+006  4.8495e+005 186860 191659,191737,191711
 2.6000e+001 191789 -1.0507e+005 -9.6571e+005  1.0231e+005 186860 191659,191763,191737
 2.6000e+001 191987 -5.5950e+005 -2.3700e+006 -2.8430e+005 186662 191886,191938,191912
 2.6000e+001 191964 -3.3176e+005 -2.5803e+006 -1.3615e+005 186662 191860,191938,191886
 2.6000e+001 192090 -6.8730e+005 -2.0183e+006 -8.6520e+004 186486 192012,192064,192038
 2.6000e+001 192242 -5.2573e+005 -6.5491e+006  2.2629e+004 186288 192115,192167,192141
 2.6000e+001 192219 -4.3430e+005 -6.0226e+006  1.8369e+005 186288 192115,192193,192167
 2.6000e+001 192394 -1.3568e+005 -5.7892e+006 -3.1141e+005 185935 192293,192345,192319
 2.6000e+001 192371 -4.0877e+005 -5.0422e+006 -4.7226e+005 185935 192267,192345,192293
 2.6000e+001 192546 -7.5545e+005 -2.5000e+006 -1.6369e+005 185675 192419,192471,192445
 2.6000e+001 192523 -3.9022e+005 -2.6684e+006  9.4510e+003 185675 192419,192497,192471
 2.6000e+001 192649 -3.8298e+005 -2.0931e+006 -4.3602e+004 185499 192571,192623,192597
 2.6000e+001 192801 -1.1998e+006 -1.8213e+006 -8.6168e+004 185301 192674,192726,192700
 2.6000e+001 192778 -6.5515e+005 -1.7334e+006  4.5605e+004 185301 192674,192752,192726
 2.6000e+001 193002 -1.5804e+005 -3.5183e+006 -5.2911e+005 185046 192852,192930,192878
 2.6000e+001 192979 -4.3798e+005 -4.5743e+006 -4.2817e+005 185046 192826,192930,192852
 2.6000e+001 192956  3.9577e+005 -5.6621e+006  1.2440e+005 185046 192878,192930,192904
 2.6000e+001 193203 -2.0377e+006 -3.4290e+006 -7.8000e+005 184798 193079,193131,193105
 2.6000e+001 193180  4.4278e+005 -7.3847e+006 -1.9641e+006 184798 193027,193131,193079
 2.6000e+001 193157 -4.5206e+004 -7.8290e+006  2.2998e+006 184798 193027,193079,193053
 2.6000e+001 193404 -3.1429e+005 -5.7451e+006 -9.4547e+005 184600 193254,193306,193280
 2.6000e+001 193381 -8.7335e+005 -3.3675e+006  3.0857e+005 184600 193254,193332,193306
 2.6000e+001 193358 -1.2388e+006 -1.9070e+006 -4.0244e+003 184600 193228,193332,193254
 2.6000e+001 193556 -4.7345e+004 -3.1572e+006 -2.2880e+005 184402 193429,193481,193455
 2.6000e+001 193533 -9.4849e+005 -1.8344e+006 -1.2313e+006 184402 193429,193507,193481
 2.6000e+001 193708 -4.4601e+005 -5.6339e+006 -6.0718e+005 184204 193607,193659,193633
 2.6000e+001 193685 -8.3994e+005 -6.1732e+006 -8.8076e+005 184204 193581,193659,193607
 2.6000e+001 193860 -3.4786e+005 -2.8498e+006  7.4651e+004 183908 193759,193811,193785
 2.6000e+001 193837 -1.9215e+005 -2.6740e+006  1.7428e+005 183908 193733,193811,193759
 2.6000e+001 194061 -2.4776e+005 -1.7637e+006 -2.0508e+005 183710 193911,193989,193937
 2.6000e+001 194038 -5.6739e+005 -1.6912e+006  2.4366e+005 183710 193885,193989,193911
 2.6000e+001 194015 -1.7223e+005 -2.8054e+006 -2.8218e+004 183710 193937,193989,193963
 2.6000e+001 194262 -1.4817e+006 -5.5927e+006 -1.7079e+006 183420 194086,194164,194112
 2.6000e+001 194239 -1.2884e+006 -3.9392e+006  2.0903e+004 183420 194086,194190,194164
 2.6000e+001 194216 -2.6381e+006 -1.2078e+007  1.6673e+006 183420 194112,194164,194138
 2.6000e+001 194414 -1.6318e+005 -6.9827e+006  4.8848e+005 183222 194287,194339,194313
 2.6000e+001 194391 -5.4001e+005 -1.9469e+006 -3.5210e+005 183222 194287,194365,194339
 2.6000e+001 194517 -1.3135e+006 -2.5431e+006 -4.5517e+004 183024 194439,194491,194465
 2.6000e+001 194718  8.7849e+005 -1.9636e+007  2.1351e+006 182734 194568,194620,194594
 2.6000e+001 194695 -9.0678e+005 -6.4526e+006 -3.6528e+006 182734 194542,194620,194568
 2.6000e+001 194672 -3.2334e+006 -3.1841e+006 -1.8078e+006 182734 194542,194646,194620
 2.6000e+001 194870 -6.1666e+005 -3.6150e+006  7.1300e+002 182444 194769,194821,194795
 2.6000e+001 194847 -2.8588e+005 -1.9917e+006 -2.9189e+005 182444 194743,194821,194769
 2.6000e+001 195071 -1.5613e+006 -4.1929e+006 -3.4649e+005 182154 194895,194947,194921
 2.6000e+001 195048 -7.8221e+005 -2.2375e+006  5.5626e+005 182154 194895,194999,194947
 2.6000e+001 195025  1.4520e+005 -7.0861e+006  7.3018e+005 182154 194947,194999,194973
 2.6000e+001 195223 -6.5936e+005 -3.8741e+006 -9.3232e+004 181814 195096,195148,195122
 2.6000e+001 195200 -3.0079e+005 -2.2971e+006  1.5081e+005 181814 195096,195174,195148
 2.6000e+001 195375 -5.8563e+004 -4.8661e+006  6.1401e+005 181524 195248,195300,195274
 2.6000e+001 195352 -1.3508e+005 -3.6913e+006  3.7467e+005 181524 195248,195326,195300
 2.6000e+001 195527 -4.6554e+004 -5.8303e+005  1.9159e+005 181326 195426,195478,195452
 2.6000e+001 195504 -4.2419e+005 -1.3259e+006  4.7603e+005 181326 195400,195478,195426
 2.6000e+001 195679  7.4518e+005 -1.4791e+007  1.5199e+005 180936 195578,195630,195604
 2.6000e+001 195656 -1.1911e+006 -5.6523e+006  4.2102e+004 180936 195552,195630,195578
 2.6000e+001 195831 -5.8688e+005 -2.9152e+005 -1.6302e+005 180646 195704,195756,195730
 2.6000e+001 195808 -5.1307e+005 -9.3667e+004 -3.6821e+004 180646 195704,195782,195756
 2.6000e+001 196032 -3.1506e+005 -3.0781e+006  1.2017e+006 180306 195882,195960,195934
 2.6000e+001 196009 -6.5314e+005 -1.6389e+006 -3.1341e+004 180306 195856,195960,195882
 2.6000e+001 195986  4.8479e+005 -4.7372e+006 -6.4346e+005 180306 195882,195934,195908
 2.6000e+001 196233 -1.3226e+005 -1.4952e+006 -1.6920e+006 179944 196057,196109,196083
 2.6000e+001 196210 -1.9082e+006 -9.8141e+006  1.2917e+006 179944 196057,196135,196109
 2.6000e+001 196187 -4.1649e+006  8.7157e+006 -3.2365e+006 179944 196057,196161,196135
 2.6000e+001 196385 -1.0007e+005 -8.6864e+005 -3.1704e+005 179604 196258,196310,196284
 2.6000e+001 196362 -1.2728e+005 -9.6351e+005 -3.3325e+005 179604 196258,196336,196310
 2.6000e+001 196586  7.9011e+003 -2.5577e+006 -2.4926e+005 179114 196410,196488,196436
 2.6000e+001 196563  5.4644e+004 -3.1554e+006 -2.1362e+005 179114 196410,196514,196488
 2.6000e+001 196540 -2.5456e+004 -2.5637e+006 -2.5714e+005 179114 196436,196488,196462
 2.6000e+001 196738 -5.7752e+005 -3.1488e+006 -3.3923e+005 178674 196611,196663,196637
 2.6000e+001 196715 -4.7031e+004 -4.5928e+006  2.0725e+004 178674 196611,196689,196663
 2.6000e+001 196939  1.6776e+006 -1.2328e+007 -4.6331e+005 178334 196789,196867,196841
 2.6000e+001 196916 -1.0075e+006 -1.2467e+007  7.1333e+005 178334 196763,196867,196789
 2.6000e+001 196893 -1.8651e+006 -9.1802e+006 -4.7669e+006 178334 196789,196841,196815
 2.6000e+001 197091 -2.3742e+005 -7.2858e+006 -7.1873e+005 177930 196990,197042,197016
 2.6000e+001 197068 -6.5401e+004 -6.2594e+006 -2.8472e+005 177930 196964,197042,196990
 2.6000e+001 197194 -3.1865e+001 -1.6417e+006 -5.0432e+001 177732 197116,197168,197142
 2.6000e+001 197346 -3.9061e+005 -8.5984e+006 -5.7738e+005 177534 197219,197271,197245
 2.6000e+001 197323  5.4614e+005 -1.1594e+007  1.0223e+006 177534 197219,197297,197271
 2.6000e+001 197547 -3.4027e+005 -6.3124e+006 -1.0670e+006 177130 197397,197449,197423
 2.6000e+001 197524 -7.2512e+005 -6.4153e+006 -1.0203e+006 177130 197397,197475,197449
 2.6000e+001 197501 -4.6145e+005 -1.5371e+007 -1.8343e+006 177130 197371,197475,197397
 2.6000e+001 197748 -2.9585e+005 -9.6736e+006 -5.5306e+004 176790 197598,197676,197624
 2.6000e+001 197725 -1.6607e+005 -7.1843e+006  1.8463e+005 176790 197572,197676,197598
 2.6000e+001 197702 -5.4265e+005 -7.7446e+006  5.4083e+005 176790 197624,197676,197650
 2.6000e+001 197900 -1.7399e+005 -6.2147e+006 -9.7176e+005 176300 197773,197825,197799
 2.6000e+001 197877  3.1874e+005 -6.9787e+006 -1.0785e+006 176300 197773,197851,197825
 2.6000e+001 198052 -4.1054e+005 -1.3243e+007 -2.8020e+006 176010 197925,197977,197951
 2.6000e+001 198029 -1.5449e+006 -6.6866e+006 -1.6398e+006 176010 197925,198003,197977
 2.6000e+001 198204 -2.7513e+006 -7.8287e+006  9.0109e+005 175670 198103,198155,198129
 2.6000e+001 198181 -1.8420e+006 -9.1171e+006 -1.5185e+006 175670 198077,198155,198103
 2.6000e+001 198405 -4.3164e+005 -9.7130e+006 -1.5300e+006 175266 198255,198307,198281
 2.6000e+001 198382 -1.8014e+005 -8.2534e+006 -3.4682e+005 175266 198229,198307,198255
 2.6000e+001 198359 -8.7838e+005 -6.1136e+006 -1.9750e+006 175266 198229,198333,198307
 2.6000e+001 198606  4.4047e+004 -3.0227e+006 -9.3644e+004 174876 198430,198508,198482
 2.6000e+001 198583 -4.2252e+005 -3.1531e+006  4.9897e+004 174876 198430,198534,198508
 2.6000e+001 198560 -5.3436e+005 -1.1706e+006 -6.5699e+005 174876 198430,198482,198456
 2.6000e+001 198758 -2.2223e+004 -1.1040e+005 -4.9894e+004 174536 198657,198709,198683
 2.6000e+001 198735 -2.2452e+004 -1.0792e+005 -4.8401e+004 174536 198631,198709,198657
 2.6000e+001 199008 -2.8787e+004 -1.4038e+007  4.4032e+005 174132 198835,198913,198887
 2.6000e+001 198985 -1.7641e+005 -7.6449e+006  5.6429e+005 174132 198809,198913,198835
 2.6000e+001 198962 -8.8588e+004 -8.0475e+006 -2.2295e+006 174132 198783,198913,198809
 2.6000e+001 198939  3.9840e+005 -1.3160e+007  8.4611e+005 174132 198835,198887,198861
 2.6000e+001 199160 -7.6999e+005 -7.3641e+006  2.3278e+005 173842 199059,199111,199085
 2.6000e+001 199137 -1.1569e+006 -4.8049e+006 -6.2502e+005 173842 199033,199111,199059
 2.6000e+001 199361 -7.0715e+005 -1.2141e+007  1.3544e+006 173438 199237,199289,199263
 2.6000e+001 199338 -9.5808e+005 -8.7873e+006  2.0095e+006 173438 199211,199289,199237
 2.6000e+001 199315 -1.0276e+006 -1.1488e+007 -2.7538e+005 173438 199185,199289,199211
 2.6000e+001 199513  7.1806e+005 -1.4677e+007  2.6516e+006 173190 199386,199438,199412
 2.6000e+001 199490  1.7644e+005 -1.0648e+007 -6.5734e+004 173190 199386,199464,199438
 2.6000e+001 199665 -5.0190e+005 -4.4962e+006  2.7006e+005 172750 199564,199616,199590
 2.6000e+001 199642 -1.1795e+006 -2.5266e+006 -1.3916e+005 172750 199538,199616,199564
 2.6000e+001 199817 -8.3160e+005 -9.6500e+006 -3.2775e+006 172524 199690,199742,199716
 2.6000e+001 199794 -4.3192e+006 -5.1941e+006 -1.8426e+006 172524 199690,199768,199742
 2.6000e+001 199969 -2.3601e+004 -1.0437e+007 -5.0014e+005 172348 199842,199894,199868
 2.6000e+001 199946  9.1131e+005 -1.0310e+007  3.7464e+005 172348 199842,199920,199894
 2.6000e+001 200121  4.6511e+005 -1.0062e+007 -9.4151e+005 172008 199994,200046,200020
 2.6000e+001 200098 -7.0738e+005 -4.5263e+006 -3.3850e+005 172008 199994,200072,200046
 2.6000e+001 200273 -1.6654e+005 -1.1578e+007  5.9682e+005 171668 200172,200224,200198
 2.6000e+001 200250 -1.6159e+005 -1.0334e+007  1.3578e+005 171668 200146,200224,200172
 2.6000e+001 200474 -1.9687e+005 -1.4166e+007 -1.2696e+006 171264 200350,200402,200376
 2.6000e+001 200451 -6.0447e+005 -1.0319e+007 -1.2994e+005 171264 200324,200402,200350
 2.6000e+001 200428 -9.6367e+005 -9.5945e+006  8.1419e+005 171264 200298,200402,200324
 2.6000e+001 200626  5.6728e+005 -1.3178e+007  3.6338e+005 170832 200525,200577,200551
 2.6000e+001 200603 -2.9840e+005 -9.5345e+006  1.0567e+005 170832 200499,200577,200525
 2.6000e+001 200827  3.0174e+005 -1.1776e+007  1.7798e+006 170492 200677,200729,200703
 2.6000e+001 200804 -1.6202e+006 -5.1047e+006 -3.3337e+006 170492 200651,200729,200677
 2.6000e+001 200781 -3.4143e+006 -3.9771e+006 -1.9651e+006 170492 200651,200755,200729
 2.6000e+001 201077  9.9766e+005 -4.5859e+006  2.2505e+005 170088 200878,200956,200904
 2.6000e+001 201054 -4.3443e+005 -4.2976e+006 -1.5092e+006 170088 200852,200956,200878
 2.6000e+001 201031  4.4757e+005 -3.8831e+006  3.7962e+006 170088 200904,200956,200930
 2.6000e+001 201008  4.7379e+006 -1.0048e+007  2.4909e+006 170088 200852,200982,200956
 2.6000e+001 201278  8.1985e+005 -3.7026e+006  3.3669e+005 169798 201102,201154,201128
 2.6000e+001 201255 -1.5285e+006 -1.2660e+007 -8.6899e+005 169798 201102,201206,201154
 2.6000e+001 201232 -1.4428e+006 -3.7515e+006  1.3081e+006 169798 201154,201206,201180
 2.6000e+001 201430 -9.8420e+005 -1.7384e+007 -1.8693e+006 169337 201303,201355,201329
 2.6000e+001 201407 -5.3984e+005 -6.4049e+006 -3.3476e+005 169337 201303,201381,201355
 2.6000e+001 201631 -4.4465e+005 -8.5186e+006  7.2120e+004 168883 201481,201559,201507
 2.6000e+001 201608  7.4712e+005 -8.0156e+006  4.6230e+005 168883 201455,201559,201481
 2.6000e+001 201585 -8.5566e+005 -8.6798e+006 -2.0937e+005 168883 201507,201559,201533
 2.6000e+001 201832 -5.6379e+005 -1.6134e+007  5.5862e+005 168479 201682,201734,201708
 2.6000e+001 201809 -2.2098e+006 -1.3808e+007 -1.4471e+006 168479 201656,201734,201682
 2.6000e+001 201786 -1.6709e+006 -1.1659e+007 -4.2947e+004 168479 201656,201760,201734
 2.6000e+001 202033 -3.1955e+005 -8.8297e+006  1.4891e+006 167825 201883,201935,201909
 2.6000e+001 202010 -9.7024e+005 -1.0189e+007 -1.2761e+006 167825 201857,201935,201883
 2.6000e+001 201987  1.1038e+004 -1.6757e+007 -6.0821e+004 167825 201857,201961,201935
 2.6000e+001 202234 -7.2780e+005 -9.0798e+006 -2.4486e+006 167435 202058,202136,202084
 2.6000e+001 202211 -9.4334e+005 -1.2721e+007  2.1033e+006 167435 202058,202162,202136
 2.6000e+001 202188 -8.7566e+005 -4.2543e+006  8.4541e+005 167435 202084,202136,202110
 2.6000e+001 202386  4.7210e+005 -9.1804e+006  3.3435e+005 167002 202285,202337,202311
 2.6000e+001 202363 -8.9476e+005 -1.9893e+006  7.8802e+005 167002 202259,202337,202285
 2.6000e+001 202538  1.2378e+005 -9.7594e+006 -2.9699e+005 166662 202411,202463,202437
 2.6000e+001 202515 -6.9126e+005 -4.9887e+006  2.0463e+005 166662 202411,202489,202463
 2.6000e+001 202690  1.4604e+005 -8.8023e+006 -1.0110e+006 166322 202589,202641,202615
 2.6000e+001 202667  5.3046e+005 -8.5659e+006 -8.3502e+005 166322 202563,202641,202589
 2.6000e+001 202891 -5.1117e+005 -3.9475e+006  3.4603e+005 165918 202715,202767,202741
 2.6000e+001 202868 -1.1962e+006 -6.8134e+006  1.1362e+005 165918 202715,202793,202767
 2.6000e+001 202845 -4.3067e+005 -5.4877e+006 -6.4493e+005 165918 202715,202819,202793
 2.6000e+001 203092 -1.4159e+006 -8.7472e+006 -1.2071e+006 165628 202916,202968,202942
 2.6000e+001 203069  4.8125e+004 -1.4053e+007 -7.0204e+005 165628 202916,202994,202968
 2.6000e+001 203046 -1.2268e+006 -1.3697e+007 -1.1918e+006 165628 202916,203020,202994
 2.6000e+001 203293 -4.4199e+006 -1.3913e+007  1.8071e+006 165266 203143,203195,203169
 2.6000e+001 203270 -4.0119e+006 -1.0801e+007 -2.5982e+005 165266 203143,203221,203195
 2.6000e+001 203247  7.1051e+004 -1.4985e+007 -4.9794e+006 165266 203117,203221,203143
 2.6000e+001 203445  1.9759e+005 -6.5091e+006  1.3333e+006 164826 203318,203370,203344
 2.6000e+001 203422 -4.3134e+005 -4.0475e+006 -6.5851e+005 164826 203318,203396,203370
 2.6000e+001 203597 -1.0748e+006 -9.3342e+006 -4.4444e+005 164386 203470,203522,203496
 2.6000e+001 203574 -3.1858e+005 -6.5290e+006 -1.4103e+005 164386 203470,203548,203522
 2.6000e+001 203798  5.1310e+004 -8.7567e+006  1.1192e+006 163996 203622,203674,203648
 2.6000e+001 203775 -1.0351e+006 -2.9336e+006 -1.9397e+005 163996 203622,203726,203674
 2.6000e+001 203752 -2.6025e+006 -7.3449e+006  2.9671e+006 163996 203674,203726,203700
 2.6000e+001 203901 -4.8924e+005 -5.2136e+006 -1.0084e+006 163770 203823,203875,203849
 2.6000e+001 204053 -2.0456e+006 -7.1224e+006  1.4958e+006 163474 203952,204004,203978
 2.6000e+001 204030 -5.1475e+005 -8.5630e+006 -1.6543e+006 163474 203926,204004,203952
 2.6000e+001 204205 -1.8700e+004 -5.2628e+006 -3.8595e+005 163034 204104,204156,204130
 2.6000e+001 204182 -4.7067e+005 -1.0095e+007 -4.6768e+006 163034 204078,204156,204104
 2.6000e+001 204357 -3.0749e+005 -8.2661e+006  9.5093e+005 162624 204256,204308,204282
 2.6000e+001 204334 -3.2618e+004 -3.4736e+006 -1.2934e+004 162624 204230,204308,204256
 2.6000e+001 204509 -5.2506e+002  7.9875e+002  4.1447e+002 162200 204382,204434,204408
 2.6000e+001 204486 -1.1365e+003  1.5787e+003 -5.8524e+002 162200 204382,204460,204434
 2.6000e+001 204710 -3.3643e+005 -2.2865e+006  7.7834e+005 161810 204560,204638,204586
 2.6000e+001 204687 -1.4566e+005 -3.4074e+006 -3.3645e+005 161810 204534,204638,204560
 2.6000e+001 204664 -4.1953e+005 -8.9622e+005  1.7434e+005 161810 204586,204638,204612
 2.6000e+001 204862 -1.2910e+006 -6.3787e+006 -1.6832e+006 161406 204735,204787,204761
 2.6000e+001 204839 -1.6032e+006 -7.1564e+006 -1.2274e+006 161406 204735,204813,204787
 2.6000e+001 205014 -4.1998e+004 -1.3404e+006  2.9993e+005 161180 204887,204939,204913
 2.6000e+001 204991 -4.7089e+004 -7.2352e+005 -1.0489e+004 161180 204887,204965,204939
 2.6000e+001 205215  7.7469e+005 -3.2364e+006 -2.0949e+005 160726 205039,205091,205065
 2.6000e+001 205192 -9.4830e+005 -9.9502e+006 -7.4183e+005 160726 205039,205143,205091
 2.6000e+001 205169 -2.7342e+005 -2.0809e+006 -6.0840e+004 160726 205091,205143,205117
 2.6000e+001 205416  1.8913e+005 -5.3641e+006  1.7682e+006 160272 205292,205344,205318
 2.6000e+001 205393 -9.3943e+005 -1.2911e+006  1.0084e+006 160272 205240,205344,205292
 2.6000e+001 205370 -7.3160e+005 -1.3092e+006 -1.2135e+005 160272 205240,205292,205266
 2.6000e+001 205568 -1.6478e+005 -1.7761e+006  3.2423e+005 159932 205441,205493,205467
 2.6000e+001 205545 -1.1405e+005 -1.6777e+006  2.8522e+005 159932 205441,205519,205493
 2.6000e+001 205720 -1.0705e+004 -9.1229e+005 -1.9433e+005 159542 205593,205645,205619
 2.6000e+001 205697 -7.0850e+004 -1.2842e+005 -5.2186e+004 159542 205593,205671,205645
 2.6000e+001 205872  1.2003e+005 -5.1742e+005  4.9584e+004 159252 205745,205797,205771
 2.6000e+001 205849 -1.6169e+005 -1.7334e+006 -5.1536e+003 159252 205745,205823,205797
 2.6000e+001 206024 -2.3664e+006 -3.0261e+006 -5.0960e+005 159004 205923,205975,205949
 2.6000e+001 206001 -7.5645e+005 -5.1302e+006  6.0007e+005 159004 205897,205975,205923
 2.6000e+001 206127 -1.3653e-004 -3.3409e-003  2.7686e-004 158364 206049,206101,206075
 2.6000e+001 206328 -7.1942e+004 -1.6006e+006  7.5588e+004 157960 206178,206256,206204
 2.6000e+001 206305 -1.2545e+005 -1.4049e+006  3.3265e+005 157960 206152,206256,206178
 2.6000e+001 206282 -1.1508e+004 -1.1384e+006  1.6635e+005 157960 206204,206256,206230
 2.6000e+001 206529 -1.1520e+005 -1.0602e+007  7.8695e+004 157648 206405,206457,206431
 2.6000e+001 206506 -3.2929e+006 -8.1003e+006 -1.2694e+006 157648 206379,206457,206405
 2.6000e+001 206483 -9.3458e+005 -6.6095e+006  1.0885e+005 157648 206353,206457,206379
 2.6000e+001 206730  7.2671e+005 -2.0050e+007 -8.6841e+005 157208 206554,206606,206580
 2.6000e+001 206707  9.9902e+005 -2.2049e+007 -1.0708e+004 157208 206554,206632,206606
 2.6000e+001 206684 -4.0176e+006 -6.6745e+006 -1.1746e+006 157208 206554,206658,206632
 2.6000e+001 206882 -5.2037e+004 -9.2579e+005  9.1784e+004 157010 206755,206807,206781
 2.6000e+001 206859 -2.5472e+003 -1.2851e+006  2.4450e+005 157010 206755,206833,206807
 2.6000e+001 207034 -4.0442e+005 -8.1381e+006 -2.5828e+005 156620 206907,206959,206933
 2.6000e+001 207011  3.8075e+005 -1.7051e+007  1.7515e+005 156620 206907,206985,206959
 2.6000e+001 207186 -3.9100e+004 -4.4011e+006  2.0080e+005 156330 207085,207137,207111
 2.6000e+001 207163 -1.5514e+005 -4.5234e+006 -8.9943e+005 156330 207059,207137,207085
 2.6000e+001 207387 -3.1143e+005 -9.0301e+006  5.8059e+005 155890 207211,207289,207237
 2.6000e+001 207364 -6.0975e+005 -9.1619e+006 -5.6216e+005 155890 207211,207315,207289
 2.6000e+001 207341 -1.5476e+006 -6.1443e+006  2.3003e+006 155890 207237,207289,207263
 2.6000e+001 207588  1.1900e+006 -2.4959e+007  5.5969e+006 155436 207438,207490,207464
 2.6000e+001 207565 -5.9481e+005 -2.0968e+007 -3.4324e+005 155436 207412,207490,207438
 2.6000e+001 207542 -1.2378e+006 -1.4638e+007 -7.7172e+005 155436 207412,207516,207490
 2.6000e+001 207789  1.0209e+006 -3.7793e+007 -2.6350e+006 155260 207639,207691,207665
 2.6000e+001 207766 -3.7829e+006 -1.5749e+007  4.6195e+006 155260 207613,207691,207639
 2.6000e+001 207743 -6.8759e+005 -1.2882e+007 -7.0427e+005 155260 207613,207717,207691
 2.6000e+001 207990 -2.0608e+004 -2.6167e+005  3.9987e+004 154920 207840,207918,207892
 2.6000e+001 207967 -1.7876e+005 -3.7050e+005 -1.7550e+005 154920 207814,207918,207840
 2.6000e+001 207944 -1.9203e+004 -1.3932e+005 -3.4450e+004 154920 207840,207892,207866
 2.6000e+001 208191 -4.4670e+004 -1.6191e+007 -9.3816e+005 154630 208015,208093,208041
 2.6000e+001 208168  2.7910e+005 -1.1090e+007 -1.3078e+006 154630 208015,208119,208093
 2.6000e+001 208145 -2.4234e+006 -1.1020e+007 -5.1684e+006 154630 208041,208093,208067
 2.6000e+001 208343  1.0443e+004 -2.1350e+005 -3.9131e+003 154240 208216,208268,208242
 2.6000e+001 208320  2.9649e+004 -1.5350e+005 -3.1276e+004 154240 208216,208294,208268
 2.6000e+001 208495  1.7908e+006 -3.1922e+007 -6.3835e+006 153950 208394,208446,208420
 2.6000e+001 208472 -2.5274e+006 -1.5938e+007  4.7703e+006 153950 208368,208446,208394
 2.6000e+001 208647 -6.7380e+005 -1.8512e+007  8.2621e+006 153603 208520,208572,208546
 2.6000e+001 208624 -4.8935e+006 -6.0238e+006 -3.8465e+006 153603 208520,208598,208572
 2.6000e+001 208848 -7.4890e+005 -8.0431e+006  2.3035e+006 153149 208698,208776,208724
 2.6000e+001 208825  4.1298e+005 -1.6724e+007 -2.1460e+006 153149 208672,208776,208698
 2.6000e+001 208802 -2.7714e+006 -6.6353e+006  1.3290e+006 153149 208724,208776,208750
 2.6000e+001 209000 -1.0376e+006 -1.3184e+007 -7.6746e+004 152859 208873,208925,208899
 2.6000e+001 208977 -4.2161e+003 -1.8281e+007  6.5258e+005 152859 208873,208951,208925
 2.6000e+001 209152  4.7130e+005 -1.6058e+007 -3.0820e+005 152569 209051,209103,209077
 2.6000e+001 209129  5.0318e+005 -1.6428e+007 -5.1932e+005 152569 209025,209103,209051
 2.6000e+001 209304 -4.1974e+004 -1.5048e+005 -7.0899e+003 152065 209177,209229,209203
 2.6000e+001 209281  3.1551e+004 -2.8109e+005  2.9072e+004 152065 209177,209255,209229
 2.6000e+001 209456  6.4966e+005 -1.4710e+007  1.4001e+005 151775 209355,209407,209381
 2.6000e+001 209433  1.0580e+006 -1.8806e+007  8.7395e+003 151775 209329,209407,209355
 2.6000e+001 209608 -8.3508e+005 -1.8638e+007 -2.5258e+005 151371 209481,209533,209507
 2.6000e+001 209585  5.9966e+005 -2.2132e+007  6.7280e+005 151371 209481,209559,209533
 2.6000e+001 209760 -7.6156e+005 -9.9641e+006 -1.0921e+005 150981 209659,209711,209685
 2.6000e+001 209737 -4.3461e+005 -1.3856e+007 -4.3899e+006 150981 209633,209711,209659
 2.6000e+001 209912  2.2442e+006 -3.7886e+007 -2.7201e+006 150619 209811,209863,209837
 2.6000e+001 209889 -4.8233e+005 -2.3009e+007  2.7021e+006 150619 209785,209863,209811
 2.6000e+001 210064 -2.2881e+006 -8.3983e+006 -1.3100e+006 150279 209937,209989,209963
 2.6000e+001 210041  7.8585e+005 -2.1230e+007 -1.3905e+006 150279 209937,210015,209989
 2.6000e+001 210265  4.9687e+004 -1.9192e+007 -2.2298e+006 149989 210115,210167,210141
 2.6000e+001 210242 -1.3378e+006 -1.6835e+007  5.8727e+005 149989 210115,210193,210167
 2.6000e+001 210219 -1.0830e+006 -2.1590e+007  5.5914e+005 149989 210089,210193,210115
 2.6000e+001 210417 -1.8744e+006 -9.4825e+006 -3.0307e+005 149599 210316,210368,210342
 2.6000e+001 210394  8.3271e+004 -1.8366e+007 -1.9845e+006 149599 210290,210368,210316
 2.6000e+001 210618 -3.6715e+006 -1.3622e+007  1.6362e+006 149095 210468,210520,210494
 2.6000e+001 210595 -3.9504e+006 -1.3699e+007  1.7049e+006 149095 210442,210520,210468
 2.6000e+001 210572 -1.8124e+006 -2.7394e+007  3.1218e+006 149095 210442,210546,210520
 2.6000e+001 210819 -9.7945e+004 -2.1372e+006  2.7680e+004 148748 210695,210747,210721
 2.6000e+001 210796 -8.9297e+004 -3.3325e+006  2.3042e+005 148748 210669,210747,210695
 2.6000e+001 210773 -4.1697e+005 -2.5197e+006  1.0246e+006 148748 210643,210747,210669
 2.6000e+001 210971  6.1890e+002 -4.1054e+002  1.1235e+002 148408 210870,210922,210896
 2.6000e+001 210948  5.5377e+002 -1.3528e+003  1.8648e+002 148408 210844,210922,210870
 2.6000e+001 211123 -1.2163e+005 -1.4188e+007  1.7989e+006 148118 210996,211048,211022
 2.6000e+001 211100  1.0555e+006 -1.7587e+007  5.0919e+006 148118 210996,211074,211048
 2.6000e+001 211275 -4.1850e+006 -1.4109e+007 -3.6389e+005 147778 211148,211200,211174
 2.6000e+001 211252 -3.8796e+005 -2.8821e+007  8.6501e+006 147778 211148,211226,211200
 2.6000e+001 211427 -4.3794e+006 -7.5621e+006  2.0983e+006 147324 211326,211378,211352
 2.6000e+001 211404  6.1626e+005 -1.8766e+007 -1.6716e+006 147324 211300,211378,211326
 2.6000e+001 211628 -1.6015e+002  2.8637e+003 -1.0962e+002 147012 211452,211504,211478
 2.6000e+001 211605  2.2933e+002 -4.1790e+002 -1.2612e+003 147012 211452,211556,211504
 2.6000e+001 211582  7.4009e+002 -5.3421e+002 -4.1450e+002 147012 211504,211556,211530
 2.6000e+001 211829 -2.6935e+006 -8.6786e+006  3.2334e+006 146636 211679,211757,211731
 2.6000e+001 211806  5.6719e+006 -2.7634e+007 -3.0227e+006 146636 211653,211757,211679
 2.6000e+001 211783  1.8130e+006 -8.9727e+006  4.2115e+006 146636 211679,211731,211705
 2.6000e+001 211981 -2.0379e+003 -5.6634e+005 -5.5562e+003 146246 211880,211932,211906
 2.6000e+001 211958  2.4045e+004 -4.1921e+005  1.3678e+004 146246 211854,211932,211880
 2.6000e+001 212133 -5.6301e+002  7.6164e+001 -9.0379e+001 145956 212006,212058,212032
 2.6000e+001 212110 -1.3903e+003 -9.1195e+002  5.6728e+002 145956 212006,212084,212058
 2.6000e+001 212285  1.5520e+003 -5.3571e+005 -4.8593e+002 145544 212184,212236,212210
 2.6000e+001 212262  1.0023e+004 -4.7605e+005  2.8333e+003 145544 212158,212236,212184
 2.6000e+001 212486  5.0097e+005 -1.2274e+007  1.4568e+006 144990 212362,212414,212388
 2.6000e+001 212463  6.8449e+004 -9.4936e+006  2.9174e+006 144990 212310,212414,212362
 2.6000e+001 212440 -1.7625e+006 -4.1308e+006  1.6826e+006 144990 212310,212362,212336
 2.6000e+001 212638 -4.1120e+005 -2.4672e+006  7.9605e+005 144600 212537,212589,212563
 2.6000e+001 212615 -2.9536e+004 -1.0621e+006  2.5633e+005 144600 212511,212589,212537
 2.6000e+001 212839 -8.3659e+004 -1.0907e+006 -2.2961e+005 144210 212689,212741,212715
 2.6000e+001 212816 -1.5714e+004 -1.3032e+006 -5.9792e+004 144210 212663,212741,212689
 2.6000e+001 212793  7.4995e+004 -8.0100e+005 -8.4535e+004 144210 212663,212767,212741
 2.6000e+001 212991 -5.4407e+005 -8.8403e+005  4.4829e+005 143920 212890,212942,212916
 2.6000e+001 212968  2.5144e+005 -5.7127e+006 -1.2167e+005 143920 212864,212942,212890
 2.6000e+001 213143 -4.7738e+004 -5.1251e+005 -9.9574e+004 143480 213016,213068,213042
 2.6000e+001 213120  6.4547e+003 -6.8449e+005  6.8589e+004 143480 213016,213094,213068
 2.6000e+001 213295 -9.2279e+005 -4.2981e+006  2.4888e+006 142990 213194,213246,213220
 2.6000e+001 213272 -1.2936e+006 -1.5464e+006  9.9546e+005 142990 213168,213246,213194
 2.6000e+001 213447 -1.4196e+006 -5.7890e+006  1.6647e+006 142600 213320,213372,213346
 2.6000e+001 213424 -2.7747e+006 -2.5728e+006 -6.2848e+005 142600 213320,213398,213372
 2.6000e+001 213599 -2.1916e+005 -2.7411e+006 -3.4094e+005 142260 213472,213524,213498
 2.6000e+001 213576 -1.4659e+005 -3.0134e+006  4.7281e+005 142260 213472,213550,213524
 2.6000e+001 213751 -1.0589e+006 -2.1845e+006  2.6764e+005 141870 213624,213676,213650
 2.6000e+001 213728 -1.4768e+006 -3.0796e+006  1.3840e+006 141870 213624,213702,213676
 2.6000e+001 213903 -1.7972e+006 -4.5549e+006 -2.3888e+006 141530 213776,213828,213802
 2.6000e+001 213880 -7.0971e+005 -5.0887e+006 -1.3550e+006 141530 213776,213854,213828
 2.6000e+001 214055 -5.7903e+000 -9.5401e+001 -6.2573e-002 141218 213928,213980,213954
 2.6000e+001 214032  2.7955e-001 -1.2626e+002  7.1608e+000 141218 213928,214006,213980
 2.6000e+001 214207  8.0812e+001  1.9464e+002 -2.4997e+002 140928 214080,214132,214106
 2.6000e+001 214184  2.4575e+003  5.8257e+002  2.1435e+003 140928 214080,214158,214132
 2.6000e+001 214359 -1.9540e+006 -1.1427e+006 -1.7215e+006 140538 214232,214284,214258
 2.6000e+001 214336  7.5855e+005 -5.8059e+006  1.5784e+006 140538 214232,214310,214284
 2.6000e+001 214560 -7.6139e+004 -2.0513e+006  1.6314e+005 140248 214384,214462,214410
 2.6000e+001 214537 -1.6343e+005 -1.3308e+006 -8.5922e+004 140248 214384,214488,214462
 2.6000e+001 214514 -2.1837e+005 -9.6028e+005 -2.0591e+005 140248 214410,214462,214436
 2.6000e+001 214712 -6.5817e+005 -7.6844e+006  9.1516e+005 140000 214611,214663,214637
 2.6000e+001 214689 -1.3759e+006 -3.6815e+006  1.2443e+005 140000 214585,214663,214611
 2.6000e+001 214913 -6.4575e+005 -4.0639e+006 -1.3340e+006 139596 214737,214815,214763
 2.6000e+001 214890 -5.1391e+005 -1.9034e+006 -1.8484e+005 139596 214737,214841,214815
 2.6000e+001 214867  4.6149e+005 -6.0942e+006 -9.8418e+005 139596 214763,214815,214789
 2.6000e+001 215016  1.7754e+001  3.9271e+001 -5.9078e+001 139420 214938,214990,214964
 2.6000e+001 215168 -4.4077e+005 -8.9078e+006  1.6807e+006 139130 215067,215119,215093
 2.6000e+001 215145 -9.7328e+005 -8.8833e+006  3.0081e+006 139130 215041,215119,215067
 2.6000e+001 215320 -1.3841e+006 -1.9849e+006  1.0675e+006 138790 215219,215271,215245
 2.6000e+001 215297  4.6852e+005 -1.1317e+007  2.8776e+006 138790 215193,215271,215219
 2.6000e+001 215472 -2.5091e+005 -1.6407e+006  6.8340e+005 138514 215345,215397,215371
 2.6000e+001 215449 -1.5103e+005 -9.1231e+005  1.1858e+005 138514 215345,215423,215397
 2.6000e+001 215624 -2.6497e+005 -8.9128e+006  4.1503e+005 138174 215497,215549,215523
 2.6000e+001 215601 -1.3621e+005 -6.7949e+006  9.4752e+004 138174 215497,215575,215549
 2.6000e+001 215776 -8.6981e+005 -3.7776e+006  1.3780e+006 137734 215649,215701,215675
 2.6000e+001 215753 -1.0655e+006 -3.3506e+006  4.8239e+005 137734 215649,215727,215701
 2.6000e+001 215977 -1.8729e+006 -1.5154e+007  3.5961e+006 137344 215801,215879,215827
 2.6000e+001 215954  1.2603e+006 -1.1319e+007  5.4983e+005 137344 215801,215905,215879
 2.6000e+001 215931  3.4090e+006 -2.4783e+007 -3.2105e+006 137344 215827,215879,215853
 2.6000e+001 216129 -5.1520e+005 -9.2330e+006  2.6011e+005 136940 216028,216080,216054
 2.6000e+001 216106 -5.6680e+005 -6.9798e+006 -4.8296e+005 136940 216002,216080,216028
 2.6000e+001 216330 -3.3587e+005 -7.8737e+006  3.7481e+005 136600 216180,216232,216206
 2.6000e+001 216307 -4.4617e+005 -8.1215e+006  1.1961e+006 136600 216154,216232,216180
 2.6000e+001 216284 -5.7982e+005 -6.6134e+006  4.8784e+005 136600 216154,216258,216232
 2.6000e+001 216482  7.0570e+005 -6.3904e+006  1.6531e+005 136260 216381,216433,216407
 2.6000e+001 216459  2.4818e+005 -6.9923e+006 -1.4430e+005 136260 216355,216433,216381
 2.6000e+001 216634  2.4230e+004 -7.1216e+006  1.3817e+006 135970 216533,216585,216559
 2.6000e+001 216611 -1.3119e+005 -8.1040e+006  1.2514e+006 135970 216507,216585,216533
 2.6000e+001 216835 -1.0104e+006 -5.4354e+006 -5.0737e+005 135608 216685,216763,216711
 2.6000e+001 216812  4.5424e+004 -5.3637e+006 -6.7586e+005 135608 216659,216763,216685
 2.6000e+001 216789 -1.0026e+006 -1.0168e+007  3.2812e+005 135608 216711,216763,216737
 2.6000e+001 217036  3.3594e+004 -7.0914e+006  1.0913e+006 135312 216912,216964,216938
 2.6000e+001 217013 -1.4017e+005 -7.8382e+006  1.0445e+006 135312 216886,216964,216912
 2.6000e+001 216990 -9.9123e+005 -7.1539e+006  1.0944e+006 135312 216860,216964,216886
 2.6000e+001 217237 -2.3825e+004 -9.1556e+005  8.5597e+004 134908 217061,217139,217113
 2.6000e+001 217214 -2.1052e+005 -1.0928e+006  6.1225e+005 134908 217061,217165,217139
 2.6000e+001 217191 -2.4290e+005 -6.2109e+005  9.7077e+003 134908 217061,217113,217087
 2.6000e+001 217438 -1.0977e+006 -2.1485e+007  1.6645e+006 134568 217288,217366,217314
 2.6000e+001 217415 -7.9660e+003 -2.4814e+007  1.5313e+006 134568 217262,217366,217288
 2.6000e+001 217392  4.1943e+005 -1.7445e+007  5.7439e+005 134568 217314,217366,217340
 2.6000e+001 217590 -2.6875e+005 -1.7378e+006  3.9041e+005 134106 217463,217515,217489
 2.6000e+001 217567 -3.9449e+004 -1.6055e+006  2.5434e+005 134106 217463,217541,217515
 2.6000e+001 217791 -3.8720e+006 -3.1578e+007 -1.6239e+007 133816 217641,217693,217667
 2.6000e+001 217768  3.4413e+006 -3.8911e+007  7.4465e+006 133816 217641,217719,217693
 2.6000e+001 217745 -9.9026e+006 -4.4096e+006  6.6081e+006 133816 217615,217719,217641
 2.6000e+001 217992 -2.2905e+006 -5.6099e+006  3.5039e+006 133355 217842,217920,217894
 2.6000e+001 217969  1.8348e+005 -1.4110e+007 -1.0164e+006 133355 217816,217920,217842
 2.6000e+001 217946 -4.4994e+005 -3.4724e+006  4.2097e+005 133355 217842,217894,217868
 2.6000e+001 218193 -3.0401e+005 -5.5224e+006 -4.1257e+006 132851 218017,218095,218069
 2.6000e+001 218170 -2.1019e+006 -9.8012e+006  6.3139e+006 132851 218017,218121,218095
 2.6000e+001 218147 -4.0108e+006 -5.9439e+006 -2.4595e+006 132851 218017,218069,218043
 2.6000e+001 218345 -6.2116e+005 -3.7041e+006  9.8738e+005 132511 218244,218296,218270
 2.6000e+001 218322 -1.1382e+006 -3.4368e+006  4.1333e+005 132511 218218,218296,218244
 2.6000e+001 218497 -9.6611e+005 -3.3706e+007 -3.0971e+006 132235 218396,218448,218422
 2.6000e+001 218474 -2.6727e+006 -9.6725e+006  5.9470e+005 132235 218370,218448,218396
 2.6000e+001 218698 -2.4887e+005 -1.4955e+007  7.0111e+005 131945 218574,218626,218600
 2.6000e+001 218675 -8.9132e+005 -1.8054e+007  9.9144e+005 131945 218522,218626,218574
 2.6000e+001 218652 -1.1142e+006 -1.3725e+007 -2.2285e+005 131945 218522,218574,218548
 2.6000e+001 218850 -6.8901e+005 -2.2202e+007 -2.4627e+006 131655 218723,218775,218749
 2.6000e+001 218827 -1.2305e+006 -1.3512e+007 -6.1567e+005 131655 218723,218801,218775
 2.6000e+001 218953 -7.1846e+005 -6.0771e+006 -2.7327e+005 131215 218875,218927,218901
 2.6000e+001 219105 -6.1839e+005 -8.9914e+006 -6.0117e+005 130875 218978,219030,219004
 2.6000e+001 219082 -5.0451e+005 -4.2102e+006  1.9331e+005 130875 218978,219056,219030
 2.6000e+001 219306 -1.0342e+005 -5.6162e+006  1.4064e+005 130429 219156,219234,219208
 2.6000e+001 219283 -2.2753e+005 -3.9661e+006  5.2051e+005 130429 219130,219234,219156
 2.6000e+001 219260 -1.2617e+006 -5.9672e+006  8.2538e+005 130429 219156,219208,219182
 2.6000e+001 219507 -9.9008e+004 -2.5927e+006  3.3526e+004 130025 219383,219435,219409
 2.6000e+001 219484 -1.2094e+005 -2.8879e+006  8.3283e+004 130025 219331,219435,219383
 2.6000e+001 219461 -3.3708e+005 -2.3337e+006 -1.2430e+005 130025 219331,219383,219357
 2.6000e+001 219659 -3.2607e+004 -1.4054e+007 -6.8581e+005 129685 219558,219610,219584
 2.6000e+001 219636  2.9128e+005 -1.7086e+007 -4.4574e+006 129685 219532,219610,219558
 2.6000e+001 219860 -7.3670e+004 -3.9902e+006  8.7081e+005 129395 219710,219788,219762
 2.6000e+001 219837 -5.2656e+005 -4.4569e+006  5.6479e+005 129395 219684,219788,219710
 2.6000e+001 219814  4.0793e+005 -5.4273e+006 -2.1029e+005 129395 219710,219762,219736
 2.6000e+001 220061  1.6178e+005 -3.8624e+006  3.9180e+005 128991 219937,219989,219963
 2.6000e+001 220038 -5.5145e+004 -5.5335e+006 -5.3365e+004 128991 219885,219989,219937
 2.6000e+001 220015  2.3913e+005 -4.8013e+006  3.8822e+005 128991 219885,219937,219911
 2.6000e+001 220262 -3.9628e+005 -3.2320e+006 -1.0572e+005 128701 220086,220164,220112
 2.6000e+001 220239  2.8113e+005 -4.5859e+006  3.4596e+005 128701 220086,220190,220164
 2.6000e+001 220216 -1.4007e+005 -2.7650e+006  6.2271e+005 128701 220112,220164,220138
 2.6000e+001 220463 -3.7183e+006 -1.2125e+007  2.0239e+006 128297 220339,220391,220365
 2.6000e+001 220440  2.0484e+006 -1.8252e+007  1.1501e+006 128297 220313,220391,220339
 2.6000e+001 220417 -1.6274e+005 -2.1767e+007 -4.3437e+006 128297 220287,220391,220313
 2.6000e+001 220615 -1.8689e+006 -8.5592e+006 -1.7656e+006 128007 220488,220540,220514
 2.6000e+001 220592  1.6591e+006 -1.7123e+007 -8.8851e+005 128007 220488,220566,220540
 2.6000e+001 220767  6.2312e+004 -4.0998e+006 -2.3574e+005 127567 220640,220692,220666
 2.6000e+001 220744 -2.8555e+005 -2.0838e+006 -1.5957e+005 127567 220640,220718,220692
 2.6000e+001 220919  1.1681e+006 -1.8973e+007 -6.6792e+005 127163 220792,220844,220818
 2.6000e+001 220896  1.1783e+006 -2.0083e+007  4.3765e+005 127163 220792,220870,220844
 2.6000e+001 221071 -1.0093e+006 -4.4607e+006  1.3475e+006 126915 220970,221022,220996
 2.6000e+001 221048 -1.0390e+006 -4.6490e+006  1.2659e+006 126915 220944,221022,220970
 2.6000e+001 221272 -1.5388e+006 -7.7721e+006  2.1087e+006 126461 221122,221174,221148
 2.6000e+001 221249 -4.2273e+006 -9.0237e+006  1.2649e+005 126461 221122,221200,221174
 2.6000e+001 221226  3.5576e+005 -1.7969e+007 -4.0029e+006 126461 221096,221200,221122
 2.6000e+001 221375 -1.2591e+003 -1.4613e+003 -1.2799e+003 126213 221297,221349,221323
 2.6000e+001 221478 -1.8604e-002  1.3324e-003 -2.7574e-003 125766 221400,221452,221426
 2.6000e+001 221679 -9.1532e+004 -2.2979e+006  2.2674e+005 125212 221503,221555,221529
 2.6000e+001 221656 -1.4730e+005 -2.9459e+006  3.9277e+004 125212 221503,221581,221555
 2.6000e+001 221633  2.2720e+005 -5.5611e+006  1.2751e+006 125212 221503,221607,221581
 2.6000e+001 221929 -2.0764e+005 -8.5899e+005  2.4069e+005 124872 221782,221834,221808
 2.6000e+001 221906 -3.0833e+005 -7.8409e+005  3.8769e+005 124872 221756,221834,221782
 2.6000e+001 221883 -1.8111e+005 -1.9381e+006  7.1023e+005 124872 221704,221834,221756
 2.6000e+001 221860 -4.5702e+005 -2.4933e+006  1.0274e+006 124872 221704,221756,221730
 2.6000e+001 222130 -7.4380e+005 -1.1281e+007 -1.8253e+006 124582 221980,222058,222006
 2.6000e+001 222107 -1.6143e+006 -1.1664e+007 -2.1162e+006 124582 221954,222058,221980
 2.6000e+001 222084 -1.8299e+006 -1.3159e+007 -2.6824e+006 124582 222006,222058,222032
 2.6000e+001 222282 -2.9815e+006 -1.5093e+007 -3.7864e+006 124192 222181,222233,222207
 2.6000e+001 222259 -1.1034e+006 -1.4773e+007 -3.7511e+006 124192 222155,222233,222181
 2.6000e+001 222483 -3.5003e+005 -4.9214e+006 -5.5826e+005 123702 222333,222385,222359
 2.6000e+001 222460 -3.3469e+005 -4.7083e+006 -2.4060e+005 123702 222333,222411,222385
 2.6000e+001 222437 -1.7036e+005 -2.4336e+006 -4.1641e+005 123702 222307,222411,222333
 2.6000e+001 222635 -6.4649e+005 -2.0776e+006 -5.4158e+005 123312 222508,222560,222534
 2.6000e+001 222612  3.8482e+005 -7.4617e+006 -3.5722e+005 123312 222508,222586,222560
 2.6000e+001 222787 -2.7549e+005 -3.5708e+006 -1.3057e+005 122858 222686,222738,222712
 2.6000e+001 222764 -3.5597e+005 -3.2669e+006 -6.8088e+005 122858 222660,222738,222686
 2.6000e+001 222939 -9.1370e+004 -1.3638e+006 -1.0667e+004 122568 222812,222864,222838
 2.6000e+001 222916  4.7507e+003 -8.4882e+005  7.7297e+004 122568 222812,222890,222864
 2.6000e+001 223091 -3.2407e+005 -3.8341e+006 -8.9590e+005 122392 222964,223016,222990
 2.6000e+001 223068  5.3867e+005 -5.0531e+006  2.1477e+005 122392 222964,223042,223016
 2.6000e+001 223292 -2.9925e+005 -1.4312e+007 -2.2075e+006 121852 223142,223220,223194
 2.6000e+001 223269 -1.7381e+006 -1.2646e+007 -1.1872e+006 121852 223116,223220,223142
 2.6000e+001 223246 -4.2490e+005 -1.4230e+007 -2.4591e+006 121852 223142,223194,223168
 2.6000e+001 223493 -8.3442e+005 -1.3134e+007  5.6715e+005 121406 223343,223395,223369
 2.6000e+001 223470 -1.8491e+006 -9.1537e+006 -2.7600e+006 121406 223343,223421,223395
 2.6000e+001 223447 -1.1937e+006 -6.4254e+006  2.1000e+006 121406 223317,223421,223343
 2.6000e+001 223645  1.3623e+005 -1.1661e+007  5.4614e+005 121002 223544,223596,223570
 2.6000e+001 223622 -1.5331e+006 -5.1544e+006  1.0860e+006 121002 223518,223596,223544
 2.6000e+001 223846 -1.2637e+005 -1.1902e+007  5.2179e+005 120662 223670,223748,223696
 2.6000e+001 223823  9.9536e+005 -7.7739e+006 -5.5941e+004 120662 223670,223774,223748
 2.6000e+001 223800 -1.2887e+006 -5.1649e+006 -1.3331e+006 120662 223696,223748,223722
 2.6000e+001 224047 -5.6329e+005 -6.0795e+006  1.5940e+006 120222 223897,223949,223923
 2.6000e+001 224024  3.3350e+004 -7.8462e+006 -6.1528e+005 120222 223871,223949,223897
 2.6000e+001 224001  2.5687e+004 -9.8785e+006  7.0908e+004 120222 223871,223975,223949
 2.6000e+001 224248  9.9295e+005 -6.9623e+006 -3.7631e+005 119875 224124,224176,224150
 2.6000e+001 224225 -1.1504e+006 -1.5245e+007 -1.7379e+006 119875 224098,224176,224124
 2.6000e+001 224202 -6.7042e+005 -2.8021e+006  2.0694e+005 119875 224072,224176,224098
 2.6000e+001 224449 -2.2819e+005 -5.9117e+006 -2.8303e+005 119677 224325,224377,224351
 2.6000e+001 224426 -7.3726e+005 -7.9604e+006 -2.0678e+004 119677 224299,224377,224325
 2.6000e+001 224403 -4.0813e+005 -7.2422e+006  2.2608e+005 119677 224273,224377,224299
 2.6000e+001 224552 -8.1106e+005 -5.6647e+006 -5.7507e+004 119273 224474,224526,224500
 2.6000e+001 224704 -1.9733e+006 -1.6292e+007 -3.2780e+006 118983 224603,224655,224629
 2.6000e+001 224681 -1.6218e+006 -1.4512e+007 -2.1093e+006 118983 224577,224655,224603
 2.6000e+001 224856 -5.9918e+005 -1.2365e+007 -8.8355e+005 118529 224755,224807,224781
 2.6000e+001 224833  1.1109e+005 -1.6312e+007 -1.8917e+006 118529 224729,224807,224755
 2.6000e+001 225008 -2.6643e+005 -8.7785e+006  4.5621e+004 118353 224881,224933,224907
 2.6000e+001 224985 -2.2127e+005 -5.9431e+006  8.2272e+004 118353 224881,224959,224933
 2.6000e+001 225209 -7.2940e+005 -8.5126e+006 -5.9655e+005 117949 225059,225137,225111
 2.6000e+001 225186 -5.0245e+005 -8.7527e+006 -1.3311e+006 117949 225033,225137,225059
 2.6000e+001 225163  2.0319e+005 -1.0707e+007  1.8955e+005 117949 225059,225111,225085
 2.6000e+001 225410  1.4192e+005 -7.7638e+006  4.0279e+005 117559 225260,225338,225312
 2.6000e+001 225387 -3.8730e+005 -7.8092e+006  6.4959e+005 117559 225234,225338,225260
 2.6000e+001 225364 -6.9367e+005 -5.7267e+006 -1.9935e+006 117559 225260,225312,225286
 2.6000e+001 225611 -1.4372e+006 -1.2542e+007 -6.5735e+006 117361 225461,225513,225487
 2.6000e+001 225588  2.1794e+006 -1.2990e+007  1.2322e+006 117361 225461,225539,225513
 2.6000e+001 225565 -2.7686e+006 -7.0208e+006  4.9643e+006 117361 225435,225539,225461
 2.6000e+001 225812  2.1294e+005 -8.2982e+006 -4.0040e+005 116900 225636,225714,225662
 2.6000e+001 225789  8.3289e+005 -8.9668e+006 -5.2833e+005 116900 225636,225740,225714
 2.6000e+001 225766 -6.1828e+004 -8.2983e+006 -7.1131e+005 116900 225662,225714,225688
 2.6000e+001 225964 -2.0651e+005 -7.1273e+006 -6.8520e+004 116560 225837,225889,225863
 2.6000e+001 225941  1.1036e+005 -8.4530e+006  8.8075e+004 116560 225837,225915,225889
 2.6000e+001 226165  1.3157e+005 -1.0269e+007  1.8508e+005 116106 226015,226093,226041
 2.6000e+001 226142  6.7680e+005 -1.3099e+007 -3.2811e+006 116106 225989,226093,226015
 2.6000e+001 226119 -2.9120e+006 -5.4054e+006  4.3304e+005 116106 226041,226093,226067
 2.6000e+001 226268 -1.8492e+006 -1.1845e+007  3.8716e+005 115716 226190,226242,226216
 2.6000e+001 226420  3.7944e+005 -8.8354e+006  1.8899e+006 115376 226293,226345,226319
 2.6000e+001 226397  2.7653e+005 -8.4718e+006  1.2140e+006 115376 226293,226371,226345
 2.6000e+001 226621  2.3998e+005 -5.6840e+006  5.4455e+005 114972 226497,226549,226523
 2.6000e+001 226598 -3.8993e+005 -1.1567e+007 -5.5255e+005 114972 226445,226549,226497
 2.6000e+001 226575  3.3659e+005 -6.7044e+006  5.3054e+005 114972 226445,226497,226471
 2.6000e+001 226773 -1.0977e+006 -5.6901e+006 -7.4320e+005 114670 226646,226698,226672
 2.6000e+001 226750  4.9395e+005 -9.1868e+006  4.5823e+005 114670 226646,226724,226698
 2.6000e+001 226974  1.1909e+005 -3.8682e+006 -3.8465e+005 114082 226798,226850,226824
 2.6000e+001 226951  1.5130e+005 -4.2821e+006 -2.3611e+005 114082 226798,226902,226850
 2.6000e+001 226928  4.4244e+004 -5.7238e+006 -6.3644e+005 114082 226850,226902,226876
 2.6000e+001 227175 -8.6192e+005 -6.8302e+006 -8.7108e+005 113678 226999,227051,227025
 2.6000e+001 227152 -1.8493e+006 -8.9484e+006 -2.0393e+006 113678 226999,227077,227051
 2.6000e+001 227129 -6.2398e+005 -1.1951e+007 -3.2122e+006 113678 226999,227103,227077
 2.6000e+001 227425 -3.3092e+003 -1.1568e+007 -1.3285e+004 113274 227226,227278,227252
 2.6000e+001 227402  6.4860e+005 -1.1333e+007 -3.7583e+006 113274 227226,227330,227278
 2.6000e+001 227379 -4.9147e+004 -9.1566e+006 -3.4112e+006 113274 227200,227330,227226
 2.6000e+001 227356 -5.9467e+006 -1.7558e+006 -8.7885e+005 113274 227278,227330,227304
 2.6000e+001 227626  3.7606e+005 -4.8377e+006 -6.0633e+005 112934 227502,227554,227528
 2.6000e+001 227603 -8.6124e+004 -3.9821e+006 -1.5087e+005 112934 227450,227554,227502
 2.6000e+001 227580 -1.0235e+006 -5.2606e+006 -8.4584e+005 112934 227450,227502,227476
 2.6000e+001 227876 -2.7106e+004 -3.5490e+006 -2.4611e+005 112437 227677,227755,227703
 2.6000e+001 227853 -8.3539e+005 -3.9314e+006  1.1550e+006 112437 227677,227781,227755
 2.6000e+001 227830 -5.4108e+005 -1.6654e+006  8.3948e+005 112437 227703,227755,227729
 2.6000e+001 227807 -4.8783e+005 -8.1468e+006 -4.1046e+005 112437 227651,227781,227677
 2.6000e+001 228126 -1.0625e+006 -4.9656e+006  7.3769e+005 112041 227927,228005,227953
 2.6000e+001 228103 -3.3868e+005 -9.0526e+006 -1.6850e+006 112041 227927,228031,228005
 2.6000e+001 228080 -1.5905e+006 -6.0750e+006  3.4059e+005 112041 227953,228005,227979
 2.6000e+001 228057  1.6142e+004 -7.4311e+006 -1.3883e+006 112041 227901,228031,227927
 2.6000e+001 228327 -8.8406e+005 -7.2387e+006 -8.2481e+005 111693 228151,228203,228177
 2.6000e+001 228304 -4.7164e+005 -4.0563e+006 -1.3064e+006 111693 228151,228229,228203
 2.6000e+001 228281  6.4471e+005 -7.0753e+006  8.9955e+005 111693 228151,228255,228229
 2.6000e+001 228479 -3.3751e+006 -1.6253e+007 -6.2985e+006 111253 228352,228404,228378
 2.6000e+001 228456 -3.2574e+006 -1.0373e+007 -1.5503e+006 111253 228352,228430,228404
 2.6000e+001 228582  6.0887e+001 -6.7743e+004 -1.3145e+003 110906 228504,228556,228530
 2.6000e+001 228783 -3.0302e+005 -3.3038e+006  1.0595e+006 110416 228633,228711,228659
 2.6000e+001 228760 -3.2965e+005 -1.5754e+006  3.7589e+005 110416 228607,228711,228633
 2.6000e+001 228737 -3.9518e+005 -3.7140e+006  1.1120e+006 110416 228659,228711,228685
 2.6000e+001 228935 -2.3208e+005 -3.8698e+006 -6.4594e+004 110012 228808,228860,228834
 2.6000e+001 228912 -5.3232e+005 -8.3235e+006 -7.4165e+005 110012 228808,228886,228860
 2.6000e+001 229087 -1.1268e+006 -3.3695e+006 -1.4197e+006 109672 228960,229012,228986
 2.6000e+001 229064 -6.5751e+005 -7.5377e+006  2.0602e+004 109672 228960,229038,229012
 2.6000e+001 229190  2.7109e+004 -7.7330e+005 -6.0785e+004 109332 229112,229164,229138
 2.6000e+001 229391  3.8666e+004 -2.2756e+005 -3.7996e+004 109156 229267,229319,229293
 2.6000e+001 229368 -7.1554e+004 -6.2933e+005 -1.0533e+005 109156 229215,229319,229267
 2.6000e+001 229345  2.5672e+004 -1.5492e+005 -2.5682e+004 109156 229215,229267,229241
 2.6000e+001 229543  1.1158e+005 -1.1088e+007  7.7037e+005 108752 229416,229468,229442
 2.6000e+001 229520 -5.1124e+005 -1.1655e+007  1.1276e+006 108752 229416,229494,229468
 2.6000e+001 229744 -1.8604e+005 -8.6753e+006  2.1701e+005 108198 229594,229646,229620
 2.6000e+001 229721 -1.2308e+006 -9.0169e+006  1.1291e+006 108198 229594,229672,229646
 2.6000e+001 229698  4.7849e+005 -1.2635e+007 -8.4801e+005 108198 229568,229672,229594
 2.6000e+001 229847 -2.6823e+004 -5.4377e+005 -1.2135e+005 107758 229769,229821,229795
 2.6000e+001 230048 -9.7591e+005 -4.1645e+006 -9.8609e+005 107468 229898,229950,229924
 2.6000e+001 230025 -4.3535e+005 -3.5266e+006  8.7557e+004 107468 229872,229950,229898
 2.6000e+001 230002 -9.7145e+005 -3.9244e+006  4.0790e+005 107468 229872,229976,229950
 2.6000e+001 230298 -7.7346e+003 -3.3917e+006  6.5207e+005 107121 230099,230203,230177
 2.6000e+001 230275 -8.4408e+005 -1.4977e+006  2.9795e+005 107121 230073,230203,230099
 2.6000e+001 230252 -7.9127e+005 -4.0686e+006 -9.0598e+005 107121 230099,230177,230151
 2.6000e+001 230229  7.1560e+004 -5.5030e+006  3.2431e+005 107121 230099,230151,230125
 2.6000e+001 230450  4.5607e+005 -5.1149e+006 -5.5723e+005 106823 230349,230401,230375
 2.6000e+001 230427 -3.3240e+005 -1.0850e+006  3.1963e+005 106823 230323,230401,230349
 2.6000e+001 230602 -7.8157e+005 -1.0075e+007 -1.9837e+006 106533 230501,230553,230527
 2.6000e+001 230579 -1.1113e+006 -1.1426e+007 -4.1944e+006 106533 230475,230553,230501
 2.6000e+001 230803 -3.1705e+005 -1.2397e+006  2.5143e+005 106029 230679,230731,230705
 2.6000e+001 230780 -4.5732e+005 -2.1036e+006  9.0227e+005 106029 230653,230731,230679
 2.6000e+001 230757  8.2614e+005 -5.4148e+006  8.0194e+005 106029 230627,230731,230653
 2.6000e+001 231004 -2.2394e+005 -4.2764e+006  2.9090e+005 105689 230854,230906,230880
 2.6000e+001 230981  3.6732e+005 -4.9035e+006 -4.5342e+005 105689 230828,230906,230854
 2.6000e+001 230958 -7.8983e+005 -3.4079e+006 -1.6406e+006 105689 230828,230932,230906
 2.6000e+001 231156 -1.2587e+006 -4.7950e+006  1.3579e+006 105377 231055,231107,231081
 2.6000e+001 231133  1.3652e+006 -1.6193e+007 -1.8185e+006 105377 231029,231107,231055
 2.6000e+001 231406 -2.2627e+005 -9.4939e+006 -2.9451e+005 104858 231207,231259,231233
 2.6000e+001 231383 -1.6192e+006 -9.2981e+006 -9.3014e+005 104858 231207,231311,231259
 2.6000e+001 231360 -9.6311e+005 -1.5193e+007 -1.7512e+006 104858 231259,231311,231285
 2.6000e+001 231337 -1.3493e+005 -1.3180e+007 -1.8145e+006 104858 231181,231311,231207
 2.6000e+001 231558 -5.5876e+005 -5.2652e+006  2.7922e+006 104418 231457,231509,231483
 2.6000e+001 231535 -2.9249e+005 -5.3300e+006  6.1832e+005 104418 231431,231509,231457
 2.6000e+001 231710 -4.1763e+005 -3.6513e+006 -3.1850e+005 103978 231583,231635,231609
 2.6000e+001 231687 -4.9985e+005 -2.2148e+006 -4.0454e+005 103978 231583,231661,231635
 2.6000e+001 231862 -8.1468e+003 -4.0159e+005 -4.9311e+004 103588 231761,231813,231787
 2.6000e+001 231839 -1.5872e+004 -4.3088e+005 -5.2154e+004 103588 231735,231813,231761
 2.6000e+001 232014 -2.9179e+006 -7.9129e+006 -2.7753e+006 103248 231887,231939,231913
 2.6000e+001 231991  1.0581e+006 -2.2652e+007 -5.8021e+006 103248 231887,231965,231939
 2.6000e+001 232215 -2.2954e+005 -3.6065e+006  6.3087e+005 102844 232039,232117,232065
 2.6000e+001 232192  6.2453e+004 -4.2939e+006 -2.1157e+005 102844 232039,232143,232117
 2.6000e+001 232169 -2.7480e+005 -2.3016e+006 -2.7239e+005 102844 232065,232117,232091
 2.6000e+001 232416 -4.0718e+006 -1.1761e+007 -3.7774e+006 102554 232240,232318,232292
 2.6000e+001 232393  1.1215e+006 -1.7643e+007 -2.2138e+005 102554 232240,232344,232318
 2.6000e+001 232370 -4.3642e+006 -5.0269e+006 -1.7453e+006 102554 232240,232292,232266
 2.6000e+001 232568  3.0469e+005 -5.3604e+006  1.1303e+006 102100 232441,232493,232467
 2.6000e+001 232545  1.4349e+005 -4.8705e+006  4.6895e+004 102100 232441,232519,232493
 2.6000e+001 232769 -2.8783e+005 -2.5447e+006 -3.9493e+005 101596 232645,232697,232671
 2.6000e+001 232746 -2.8734e+005 -2.4938e+006 -5.5228e+005 101596 232593,232697,232645
 2.6000e+001 232723  2.8188e+005 -6.4065e+006 -7.2713e+005 101596 232593,232645,232619
 2.6000e+001 232921  4.6324e+003 -4.1385e+004  1.6474e+003 101420 232794,232846,232820
 2.6000e+001 232898  3.0542e+003 -7.2980e+004 -2.0854e+003 101420 232794,232872,232846
 2.6000e+001 233073 -1.2044e+006 -4.3319e+006 -6.9281e+005 101023 232946,232998,232972
 2.6000e+001 233050  3.9995e+004 -7.3603e+006  1.5865e+006 101023 232946,233024,232998
 2.6000e+001 233225 -3.9207e+005 -3.6011e+006  2.5937e+003 100661 233098,233150,233124
 2.6000e+001 233202  3.4373e+005 -7.3597e+006  2.5209e+005 100661 233098,233176,233150
 2.6000e+001 233426 -1.3096e+006 -8.1075e+006 -2.3339e+006 100265 233276,233328,233302
 2.6000e+001 233403 -1.4564e+006 -7.3601e+006 -2.9521e+005 100265 233276,233354,233328
 2.6000e+001 233380 -1.4271e+006 -1.2183e+007 -1.2587e+006 100265 233250,233354,233276
 2.6000e+001 233578  1.5883e+004 -9.7668e+004 -4.2711e+004 100032 233451,233503,233477
 2.6000e+001 233555 -5.5573e+003 -1.0839e+005  4.0304e+004 100032 233451,233529,233503
 2.6000e+001 233681 -7.8246e+003 -7.3936e+004 -1.9290e+004 99742 233603,233655,233629
 2.6000e+001 233784 -5.4204e+005 -4.2878e+006  3.3345e+005 99402 233706,233758,233732
 2.6000e+001 233936 -7.3150e+005 -3.6848e+006  3.8115e+005 99062 233835,233887,233861
 2.6000e+001 233913 -3.8927e+005 -2.1376e+006 -2.9098e+005 99062 233809,233887,233835
 2.6000e+001 234088 -2.6967e+005 -4.6041e+006 -3.3996e+005 98772 233987,234039,234013
 2.6000e+001 234065 -1.5232e+006 -4.7700e+006  3.5022e+006 98772 233961,234039,233987
 2.6000e+001 234240 -3.8962e+004 -8.1468e+005  1.6043e+005 98160 234139,234191,234165
 2.6000e+001 234217  2.4610e+004 -5.2870e+005  1.4022e+005 98160 234113,234191,234139
 2.6000e+001 234441 -3.0246e+004 -2.3409e+006  6.3014e+004 97820 234317,234369,234343
 2.6000e+001 234418 -9.7924e+003 -2.2622e+006  8.3867e+004 97820 234291,234369,234317
 2.6000e+001 234395  2.1762e+005 -2.9712e+006  4.8914e+004 97820 234265,234369,234291
 2.6000e+001 234593 -4.2419e+005 -2.7680e+006  1.6361e+004 97366 234466,234518,234492
 2.6000e+001 234570 -2.9655e+005 -5.5896e+006  2.1204e+005 97366 234466,234544,234518
 2.6000e+001 234794 -7.2479e+005 -1.3831e+006 -6.3264e+005 96976 234618,234670,234644
 2.6000e+001 234771  5.6326e+004 -4.8400e+006  5.8894e+004 96976 234618,234722,234670
 2.6000e+001 234748 -1.0879e+005 -2.8506e+006 -8.2141e+005 96976 234670,234722,234696
 2.6000e+001 234946 -7.6019e+005 -3.1270e+006  1.3244e+006 96568 234845,234897,234871
 2.6000e+001 234923 -5.4913e+005 -1.5802e+006  7.7299e+005 96568 234819,234897,234845
 2.6000e+001 235196 -1.2695e+004 -1.6279e+006  3.3971e+005 96216 234997,235075,235049
 2.6000e+001 235173 -5.9960e+005 -4.8723e+006  1.7261e+006 96216 234997,235101,235075
 2.6000e+001 235150 -8.3357e+005 -3.8567e+006  1.0696e+006 96216 234997,235049,235023
 2.6000e+001 235127 -1.7284e+005 -6.3613e+006 -2.3012e+006 96216 234971,235101,234997
 2.6000e+001 235348 -1.5460e+006 -3.0255e+006 -1.3147e+006 95863 235247,235299,235273
 2.6000e+001 235325 -1.1030e+006 -1.7012e+006 -1.0143e+006 95863 235221,235299,235247
 2.6000e+001 235500 -1.7544e+006 -3.1107e+006 -2.8565e+006 95339 235373,235425,235399
 2.6000e+001 235477 -4.6142e+005 -7.6538e+006  4.0746e+006 95339 235373,235451,235425
 2.6000e+001 235701 -4.2769e+005 -3.8912e+006  1.6529e+006 95023 235525,235577,235551
 2.6000e+001 235678 -3.2153e+004 -1.5504e+006 -1.7435e+005 95023 235525,235629,235577
 2.6000e+001 235655 -5.4877e+005 -1.3949e+006  6.5566e+003 95023 235577,235629,235603
 2.6000e+001 235853  9.4422e+005 -1.0020e+007  1.1466e+006 94671 235726,235778,235752
 2.6000e+001 235830 -3.1268e+005 -7.6581e+006 -6.2604e+005 94671 235726,235804,235778
 2.6000e+001 236005 -1.2157e+006 -7.3750e+006 -8.6052e+005 94261 235904,235956,235930
 2.6000e+001 235982 -1.8757e+006 -8.7891e+006 -2.1417e+006 94261 235878,235956,235904
 2.6000e+001 236206 -7.4154e+005 -1.6803e+006  1.2778e+006 93853 236056,236134,236082
 2.6000e+001 236183 -2.2354e+005 -1.5976e+006  2.8848e+005 93853 236030,236134,236056
 2.6000e+001 236160 -5.6041e+004 -3.8695e+006  9.7529e+005 93853 236082,236134,236108
 2.6000e+001 236407 -7.7238e+005 -6.4858e+006 -1.5700e+003 93557 236257,236309,236283
 2.6000e+001 236384 -2.1796e+006 -7.2264e+006 -1.8220e+006 93557 236231,236309,236257
 2.6000e+001 236361 -7.4334e+005 -1.1745e+007 -3.7373e+005 93557 236231,236335,236309
 2.6000e+001 236559 -2.6203e+005 -1.1056e+006 -1.6140e+004 93149 236432,236484,236458
 2.6000e+001 236536 -1.1596e+005 -5.4154e+005  5.3188e+004 93149 236432,236510,236484
 2.6000e+001 236711 -2.0631e+005 -2.1670e+006  6.7054e+005 92853 236584,236636,236610
 2.6000e+001 236688 -1.0882e+005 -1.4400e+006  4.7490e+005 92853 236584,236662,236636
 2.6000e+001 236912 -1.6827e+005 -4.3667e+006  1.4069e+006 92501 236736,236788,236762
 2.6000e+001 236889 -2.9873e+005 -2.6466e+006  4.2891e+005 92501 236736,236840,236788
 2.6000e+001 236866 -6.0007e+005 -3.5248e+006  6.9725e+005 92501 236788,236840,236814
 2.6000e+001 237113 -2.0102e+005 -4.3259e+006  2.7564e+005 92291 236963,237041,237015
 2.6000e+001 237090  1.8835e+004 -2.9267e+006  2.5112e+005 92291 236937,237041,236963
 2.6000e+001 237067 -2.0840e+005 -3.9603e+006  9.0789e+005 92291 236963,237015,236989
 2.6000e+001 237265  3.4142e+004 -1.1162e+006 -2.8864e+005 91871 237138,237190,237164
 2.6000e+001 237242 -4.2490e+005 -1.9210e+006 -6.7858e+005 91871 237138,237216,237190
 2.6000e+001 237368  8.7576e+002 -3.1897e+006 -6.3575e+002 91581 237290,237342,237316
 2.6000e+001 237520 -1.7029e+005 -1.0760e+006  3.5546e+005 91184 237419,237471,237445
 2.6000e+001 237497 -2.1156e+005 -1.3549e+006  1.1003e+005 91184 237393,237471,237419
 2.6000e+001 237672 -4.3697e+005 -2.8708e+006  8.1839e+005 90894 237545,237597,237571
 2.6000e+001 237649 -1.3739e+005 -2.4564e+006  5.7855e+005 90894 237545,237623,237597
 2.6000e+001 237873 -1.0879e+006 -4.9926e+006  7.2206e+005 90490 237749,237801,237775
 2.6000e+001 237850 -5.2193e+005 -4.4785e+006  1.1993e+006 90490 237723,237801,237749
 2.6000e+001 237827 -6.9208e+005 -4.5225e+006 -1.1883e+006 90490 237697,237801,237723
 2.6000e+001 238074 -7.2677e+005 -6.6991e+006  8.4479e+004 90100 237898,237976,237950
 2.6000e+001 238051 -2.1780e+006 -6.9423e+006  3.8810e+004 90100 237898,238002,237976
 2.6000e+001 238028 -6.5140e+005 -6.1905e+006  3.2473e+004 90100 237898,237950,237924
 2.6000e+001 238275 -8.0947e+005 -4.0299e+006  2.6570e+005 89696 238125,238177,238151
 2.6000e+001 238252 -2.9940e+005 -3.6633e+006 -2.3851e+005 89696 238099,238177,238125
 2.6000e+001 238229 -2.5129e+005 -3.6763e+006 -2.6609e+005 89696 238099,238203,238177
 2.6000e+001 238427  6.3481e+004 -2.1376e+005 -7.9393e+004 89206 238326,238378,238352
 2.6000e+001 238404  1.7165e+004 -1.1964e+006 -1.5704e+005 89206 238300,238378,238326
 2.6000e+001 238579 -1.2639e+006 -5.4910e+006  1.5484e+006 88908 238452,238504,238478
 2.6000e+001 238556 -2.0850e+005 -4.7709e+006  4.6983e+005 88908 238452,238530,238504
 2.6000e+001 238682 -2.6193e+002 -5.0257e+005 -6.5458e+002 88568 238604,238656,238630
 2.6000e+001 238883  1.6552e+005 -5.6364e+006  1.2513e+006 88278 238733,238811,238785
 2.6000e+001 238860 -4.9969e+005 -3.8688e+006  1.0926e+006 88278 238707,238811,238733
 2.6000e+001 238837 -2.0017e+005 -5.7975e+006  1.0771e+006 88278 238733,238785,238759
 2.6000e+001 239035 -8.1346e+005 -6.2476e+006 -2.3994e+005 87988 238908,238960,238934
 2.6000e+001 239012 -1.2652e+006 -4.3166e+006  7.9445e+005 87988 238908,238986,238960
 2.6000e+001 239138 -8.0418e+004 -1.1384e+006  1.2494e+004 87648 239060,239112,239086
 2.6000e+001 239339 -7.8600e+005 -3.3926e+006 -1.7930e+006 87358 239163,239215,239189
 2.6000e+001 239316 -8.1330e+005 -2.5616e+006 -5.8464e+005 87358 239163,239241,239215
 2.6000e+001 239293 -8.9817e+005 -1.2857e+006 -1.0565e+006 87358 239163,239267,239241
 2.6000e+001 239589 -7.5834e+002 -1.9834e+004 -2.4364e+003 86961 239390,239468,239416
 2.6000e+001 239566 -4.9333e+003 -2.7163e+004 -1.3219e+004 86961 239390,239494,239468
 2.6000e+001 239543 -1.4858e+003 -8.0942e+003 -3.3560e+003 86961 239416,239468,239442
 2.6000e+001 239520  1.4361e+003 -3.5990e+004 -1.3886e+004 86961 239364,239494,239390
 2.6000e+001 239741 -1.2771e+006 -4.5626e+006 -4.4744e+005 86621 239640,239692,239666
 2.6000e+001 239718 -6.3395e+005 -6.0935e+006 -1.5067e+006 86621 239614,239692,239640
 2.6000e+001 239893 -3.1922e+005 -5.5957e+006  1.1870e+006 86217 239792,239844,239818
 2.6000e+001 239870 -4.3066e+005 -4.4314e+006  6.4557e+005 86217 239766,239844,239792
 2.6000e+001 240045 -7.1805e+005 -5.0861e+006  3.7685e+005 85827 239918,239970,239944
 2.6000e+001 240022 -2.0030e+005 -4.9509e+006  2.1214e+005 85827 239918,239996,239970
 2.6000e+001 240197 -4.6831e+005 -7.6305e+006  9.4307e+005 85437 240096,240148,240122
 2.6000e+001 240174 -1.4590e+006 -2.8998e+006 -4.8877e+005 85437 240070,240148,240096
 2.6000e+001 240349 -3.2554e+005 -2.1731e+006  8.4608e+005 85147 240222,240274,240248
 2.6000e+001 240326 -3.9834e+005 -1.5289e+006  2.3891e+005 85147 240222,240300,240274
 2.6000e+001 240501 -8.4322e+005 -2.3518e+006  1.0286e+006 84807 240374,240426,240400
 2.6000e+001 240478 -1.1449e+006 -1.7911e+006  4.1973e+005 84807 240374,240452,240426
 2.6000e+001 240653 -9.1889e+003 -3.0041e+005 -5.1294e+004 84303 240552,240604,240578
 2.6000e+001 240630 -8.4785e+003 -2.9586e+005 -5.1696e+004 84303 240526,240604,240552
 2.6000e+001 240854 -1.6982e+004 -1.1382e+007 -4.7476e+006 83929 240704,240756,240730
 2.6000e+001 240831  1.5393e+006 -9.4670e+006  2.0513e+006 83929 240704,240782,240756
 2.6000e+001 240808 -3.0182e+006  1.2882e+006  2.5045e+006 83929 240678,240782,240704
 2.6000e+001 241055  3.0738e+003 -9.8249e+004 -1.6478e+004 83539 240879,240957,240931
 2.6000e+001 241032 -7.0216e+004 -9.6620e+004 -4.1580e+004 83539 240879,240983,240957
 2.6000e+001 241009 -2.3212e+004 -2.2224e+004 -1.8973e+004 83539 240879,240931,240905
 2.6000e+001 241207  6.5375e+004 -2.7421e+006  4.9356e+005 83079 241106,241158,241132
 2.6000e+001 241184 -3.5036e+005 -1.2710e+006  5.3656e+005 83079 241080,241158,241106
 2.6000e+001 241408  1.1562e+006 -4.9256e+006  5.3151e+005 82665 241232,241284,241258
 2.6000e+001 241385 -1.7914e+006 -1.4208e+007 -4.1789e+006 82665 241232,241336,241284
 2.6000e+001 241362 -4.4251e+006  5.1276e+006  7.3905e+006 82665 241284,241336,241310
 2.6000e+001 241658 -1.8977e+005 -3.9670e+006  3.6799e+005 82375 241485,241563,241511
 2.6000e+001 241635  5.4409e+004 -2.8733e+006  3.7925e+005 82375 241433,241563,241485
 2.6000e+001 241612 -6.2578e+004 -3.2759e+006  4.5472e+005 82375 241433,241485,241459
 2.6000e+001 241589 -4.7698e+005 -4.6543e+006  6.4293e+005 82375 241511,241563,241537
 2.6000e+001 241810 -7.5102e+005 -4.0973e+006  2.4333e+005 82035 241683,241735,241709
 2.6000e+001 241787 -6.2094e+005 -4.0380e+006  1.9271e+005 82035 241683,241761,241735
 2.6000e+001 241962 -8.8960e+005 -3.9557e+006  3.7047e+005 81695 241861,241913,241887
 2.6000e+001 241939 -6.7913e+005 -4.5307e+006 -6.5893e+005 81695 241835,241913,241861
 2.6000e+001 242114 -7.6639e+005 -6.1731e+006  1.5473e+006 81355 242013,242065,242039
 2.6000e+001 242091 -2.7282e+005 -4.5724e+006  9.1492e+005 81355 241987,242065,242013
 2.6000e+001 242266 -1.5882e+005 -7.6538e+005 -1.8399e+005 80951 242139,242191,242165
 2.6000e+001 242243 -1.8713e+005 -9.3210e+005 -3.1352e+004 80951 242139,242217,242191
 2.6000e+001 242467 -2.7143e+005 -4.6949e+006  5.7781e+005 80311 242291,242369,242343
 2.6000e+001 242444  8.8405e+004 -3.3492e+006  4.2676e+005 80311 242291,242395,242369
 2.6000e+001 242421 -3.2746e+005 -3.1480e+006  2.3637e+005 80311 242291,242343,242317
 2.6000e+001 242619 -1.5252e+006 -3.3161e+006  3.6855e+005 80021 242492,242544,242518
 2.6000e+001 242596 -1.4043e+006 -2.9152e+006  9.8983e+005 80021 242492,242570,242544
 2.6000e+001 242869 -3.5213e+005 -1.9700e+006  5.4590e+005 79631 242644,242722,242696
 2.6000e+001 242846 -1.2091e+005 -1.8563e+006  4.3893e+005 79631 242644,242774,242722
 2.6000e+001 242823 -3.0797e+005 -2.4942e+006  5.8191e+005 79631 242722,242774,242748
 2.6000e+001 242800 -4.6386e+005 -2.6293e+006  7.2065e+005 79631 242644,242696,242670
 2.6000e+001 243070 -1.0551e+005 -1.3912e+007  2.7453e+006 79341 242920,242972,242946
 2.6000e+001 243047 -8.2908e+005 -8.0211e+006 -1.6242e+005 79341 242920,242998,242972
 2.6000e+001 243024 -9.5635e+005 -5.3479e+006  2.2614e+006 79341 242894,242998,242920
 2.6000e+001 243222 -1.4492e+005 -2.9969e+006  9.6091e+005 78801 243121,243173,243147
 2.6000e+001 243199 -6.8845e+005 -4.8139e+006  1.5242e+006 78801 243095,243173,243121
 2.6000e+001 243423 -5.5596e+005 -5.7236e+006 -7.3188e+005 78511 243273,243325,243299
 2.6000e+001 243400  2.5895e+005 -9.5182e+006  1.2936e+006 78511 243273,243351,243325
 2.6000e+001 243377 -6.3981e+003 -9.6503e+006  2.4302e+005 78511 243247,243351,243273
 2.6000e+001 243624 -3.4179e+005 -3.6225e+006 -5.7166e+005 78107 243474,243552,243526
 2.6000e+001 243601 -4.5090e+005 -3.1541e+006 -8.3511e+005 78107 243448,243552,243474
 2.6000e+001 243578 -9.4424e+005 -4.8584e+006 -1.7146e+006 78107 243474,243526,243500
 2.6000e+001 243776 -7.7991e+005 -4.0860e+006 -1.0206e+006 77653 243649,243701,243675
 2.6000e+001 243753 -1.8932e+006 -7.8122e+006 -3.8132e+005 77653 243649,243727,243701
 2.6000e+001 243977 -5.3151e+005 -5.8274e+006  2.2836e+003 77093 243801,243853,243827
 2.6000e+001 243954 -1.3642e+005 -4.5693e+006  5.9768e+005 77093 243801,243879,243853
 2.6000e+001 243931  8.3611e+004 -3.7148e+006  2.6093e+005 77093 243801,243905,243879
 2.6000e+001 244080 -1.6909e+006 -5.2876e+006  1.5569e+005 76791 244002,244054,244028
 2.6000e+001 244232  6.7492e+004 -5.4752e+006  9.2995e+003 76311 244131,244183,244157
 2.6000e+001 244209  2.2947e+005 -8.8099e+006  4.7086e+005 76311 244105,244183,244131
 2.6000e+001 244433 -1.3566e+006 -1.4974e+007  2.1425e+006 75903 244283,244335,244309
 2.6000e+001 244410 -5.8270e+005 -1.2630e+007  4.3602e+005 75903 244283,244361,244335
 2.6000e+001 244387 -2.7041e+006 -9.5827e+006  2.7059e+006 75903 244257,244361,244283
 2.6000e+001 244585  4.9702e+004 -1.5034e+007  1.2974e+006 75419 244458,244510,244484
 2.6000e+001 244562 -5.8114e+005 -1.0479e+007  3.1427e+005 75419 244458,244536,244510
 2.6000e+001 244737 -3.7719e+005 -1.9417e+006 -1.5219e+005 75215 244636,244688,244662
 2.6000e+001 244714 -2.3362e+005 -5.5106e+006 -1.6041e+005 75215 244610,244688,244636
 2.6000e+001 244889 -1.0569e+006 -5.1274e+006 -3.9657e+005 74857 244788,244840,244814
 2.6000e+001 244866 -4.9215e+005 -3.0334e+006 -1.0268e+005 74857 244762,244840,244788
 2.6000e+001 245041  4.6233e+004 -2.1553e+005 -1.5468e+005 74653 244940,244992,244966
 2.6000e+001 245018 -2.4017e+004 -4.5394e+004  7.8555e+004 74653 244914,244992,244940
 2.6000e+001 245144 -1.7110e+005 -8.1658e+006 -1.3165e+006 74359 245066,245118,245092
 2.6000e+001 245296 -2.1721e+005 -2.5595e+006 -7.8468e+005 74007 245169,245221,245195
 2.6000e+001 245273 -5.6787e+005 -3.5629e+006 -1.0269e+006 74007 245169,245247,245221
 2.6000e+001 245448 -7.8129e+005 -8.3295e+006  2.4681e+006 73711 245321,245373,245347
 2.6000e+001 245425  7.2896e+004 -8.0710e+006 -3.5158e+006 73711 245321,245399,245373
 2.6000e+001 245600  7.1382e+005 -1.1622e+007 -9.7389e+005 73301 245499,245551,245525
 2.6000e+001 245577 -1.5353e+006 -8.2630e+006  1.7312e+006 73301 245473,245551,245499
 2.6000e+001 245752 -9.0761e+005 -3.6927e+006 -1.4318e+006 72995 245625,245677,245651
 2.6000e+001 245729  8.1933e+005 -9.9384e+006 -1.3170e+006 72995 245625,245703,245677
 2.6000e+001 245953 -2.8892e+006 -1.1959e+007  1.4908e+006 72585 245777,245829,245803
 2.6000e+001 245930 -1.6249e+006 -1.3426e+007  3.2480e+006 72585 245777,245855,245829
 2.6000e+001 245907 -8.5859e+005 -1.1672e+007  2.4941e+006 72585 245777,245881,245855
 2.6000e+001 246154 -2.8805e+005 -6.3445e+006  1.2437e+006 72127 246030,246082,246056
 2.6000e+001 246131 -9.6035e+005 -8.3948e+006  7.6907e+005 72127 245978,246082,246030
 2.6000e+001 246108 -1.1290e+005 -7.6894e+006  2.2921e+005 72127 245978,246030,246004
 2.6000e+001 246257 -1.2665e+006 -2.9569e+006 -1.1336e+004 71737 246179,246231,246205
 2.6000e+001 246360 -1.1862e+005 -2.9133e+006  3.5396e+005 71447 246282,246334,246308
 2.6000e+001 246512 -1.7770e+005 -3.0536e+006  8.4599e+005 71157 246385,246437,246411
 2.6000e+001 246489 -7.2144e+004 -2.8103e+006  4.2733e+005 71157 246385,246463,246437
 2.6000e+001 246664 -1.7322e+005 -3.0382e+006 -2.5832e+005 70753 246537,246589,246563
 2.6000e+001 246641 -6.2441e+005 -1.9211e+006 -5.7196e+004 70753 246537,246615,246589
 2.6000e+001 246865 -1.8256e+006 -1.0672e+007  5.5908e+006 70249 246715,246767,246741
 2.6000e+001 246842 -2.0850e+006 -9.5813e+006  4.2551e+004 70249 246715,246793,246767
 2.6000e+001 246819 -8.7039e+005 -1.2214e+007 -1.6563e+006 70249 246689,246793,246715
 2.6000e+001 247066 -1.8339e+005 -2.3763e+006  5.1477e+005 70023 246916,246994,246942
 2.6000e+001 247043  9.6023e+004 -2.9384e+006  2.9018e+005 70023 246890,246994,246916
 2.6000e+001 247020 -1.6095e+005 -1.9957e+006  2.5489e+005 70023 246942,246994,246968
 2.6000e+001 247267 -2.8935e+005 -4.5577e+006 -2.6740e+005 69633 247091,247143,247117
 2.6000e+001 247244 -9.3614e+004 -3.6999e+006 -1.4796e+005 69633 247091,247169,247143
 2.6000e+001 247221  9.7267e+003 -3.1089e+006 -1.6371e+005 69633 247091,247195,247169
 2.6000e+001 247419 -8.9599e+005 -5.9813e+006  8.0175e+005 69457 247318,247370,247344
 2.6000e+001 247396 -1.0833e+006 -4.2525e+006  9.2761e+005 69457 247292,247370,247318
 2.6000e+001 247522  5.4855e+000 -3.2552e+001 -4.4492e+000 69209 247444,247496,247470
 2.6000e+001 247625 -1.9115e+006 -2.2317e+006 -6.6796e+005 68919 247547,247599,247573
 2.6000e+001 247777  3.8242e+005 -7.0586e+006 -4.9922e+005 68579 247650,247702,247676
 2.6000e+001 247754 -2.9966e+005 -2.8430e+006 -1.1614e+005 68579 247650,247728,247702
 2.6000e+001 247929  1.4770e+005 -4.2712e+006  1.9677e+006 68289 247802,247854,247828
 2.6000e+001 247906 -2.0875e+005 -1.7536e+006 -2.8694e+005 68289 247802,247880,247854
 2.6000e+001 248081 -3.4043e+005 -5.4508e+006  1.3502e+006 67949 247980,248032,248006
 2.6000e+001 248058 -5.2450e+005 -1.7350e+006  1.7625e+005 67949 247954,248032,247980
 2.6000e+001 248233 -1.6849e+006 -6.0801e+006 -6.8336e+005 67616 248132,248184,248158
 2.6000e+001 248210 -6.5679e+005 -6.5464e+006 -4.3070e+005 67616 248106,248184,248132
 2.6000e+001 248434 -1.3897e+005 -4.4881e+006 -3.0552e+005 67212 248284,248336,248310
 2.6000e+001 248411 -5.9447e+004 -4.5260e+006 -5.0357e+005 67212 248258,248336,248284
 2.6000e+001 248388 -1.4403e+006 -3.4017e+006 -5.1216e+005 67212 248258,248362,248336
 2.6000e+001 248586 -5.0827e+004 -5.5195e+006  6.2645e+005 66872 248485,248537,248511
 2.6000e+001 248563 -8.3860e+005 -2.0794e+006 -1.0408e+005 66872 248459,248537,248485
 2.6000e+001 248738 -2.3632e+005 -5.4256e+006  1.0225e+005 66510 248637,248689,248663
 2.6000e+001 248715 -3.4829e+005 -8.8542e+006  1.9555e+005 66510 248611,248689,248637
 2.6000e+001 248890 -4.2391e+004 -9.6905e+005  2.0184e+005 66220 248789,248841,248815
 2.6000e+001 248867 -3.4875e+005 -1.3382e+006 -3.7771e+005 66220 248763,248841,248789
 2.6000e+001 249091 -9.1743e+005 -8.9092e+006  2.7538e+006 65759 248915,248967,248941
 2.6000e+001 249068 -6.6774e+005 -7.9288e+006  2.6957e+006 65759 248915,248993,248967
 2.6000e+001 249045 -2.5290e+005 -5.9527e+006  1.3697e+006 65759 248915,249019,248993
 2.6000e+001 249243 -1.8512e+005 -8.7334e+006  1.9098e+006 65419 249142,249194,249168
 2.6000e+001 249220 -2.9859e+005 -4.6549e+006  5.4893e+005 65419 249116,249194,249142
 2.6000e+001 249395 -3.5812e+005 -2.8125e+006 -2.1487e+005 65079 249268,249320,249294
 2.6000e+001 249372 -3.6087e+005 -3.9323e+006 -5.5202e+005 65079 249268,249346,249320
 2.6000e+001 249547 -1.5994e+004 -6.3863e+005 -1.0432e+005 64739 249420,249472,249446
 2.6000e+001 249524 -5.4375e+004 -6.6437e+005 -6.2854e+004 64739 249420,249498,249472
 2.6000e+001 249650 -1.2751e+006 -6.2100e+006 -2.2832e+006 64342 249572,249624,249598
 2.6000e+001 249851 -3.0207e+005 -6.0148e+006 -5.4198e+005 63938 249701,249779,249753
 2.6000e+001 249828 -1.6551e+005 -6.2479e+006  1.0491e+006 63938 249675,249779,249701
 2.6000e+001 249805 -5.9282e+005 -6.2097e+006 -3.4864e+005 63938 249701,249753,249727
 2.6000e+001 250052 -8.2774e+005 -6.1476e+006 -4.0089e+005 63341 249876,249954,249902
 2.6000e+001 250029 -1.0889e+006 -6.4078e+006 -1.4796e+005 63341 249876,249980,249954
 2.6000e+001 250006  7.7324e+005 -7.4080e+006  6.4346e+005 63341 249902,249954,249928
 2.6000e+001 250253 -6.4384e+004 -3.1402e+006 -3.3977e+005 63058 250077,250129,250103
 2.6000e+001 250230 -4.2216e+005 -4.5825e+006 -1.1357e+005 63058 250077,250155,250129
 2.6000e+001 250207 -2.1833e+005 -4.0541e+006 -9.4186e+005 63058 250077,250181,250155
 2.6000e+001 250454 -1.0747e+006 -8.1871e+006  1.6186e+006 62832 250304,250382,250330
 2.6000e+001 250431  2.8901e+005 -1.0269e+007 -2.6408e+006 62832 250278,250382,250304
 2.6000e+001 250408 -2.6604e+006 -4.9954e+006  4.3752e+005 62832 250330,250382,250356
 2.6000e+001 250606  2.0531e+005 -1.9401e+007  1.6260e+006 62428 250479,250531,250505
 2.6000e+001 250583 -8.8262e+005 -9.9469e+006 -4.3252e+005 62428 250479,250557,250531
 2.6000e+001 250758 -1.3857e+005 -7.9644e+006  7.7042e+005 62202 250631,250683,250657
 2.6000e+001 250735 -1.0252e+005 -8.9158e+006  2.1787e+006 62202 250631,250709,250683
 2.6000e+001 250861 -1.7068e+006 -3.1320e+006  2.9462e+004 61954 250783,250835,250809
 2.6000e+001 251062 -1.5637e+006 -1.2180e+007  1.0981e+005 61557 250912,250990,250938
 2.6000e+001 251039 -3.3674e+005 -1.1292e+007  7.4705e+005 61557 250886,250990,250912
 2.6000e+001 251016 -4.3315e+005 -1.0376e+007 -1.0253e+006 61557 250938,250990,250964
 2.6000e+001 251263 -9.7777e+005 -8.4248e+006 -7.3840e+003 61167 251113,251165,251139
 2.6000e+001 251240 -3.9068e+005 -8.0597e+006 -3.4402e+005 61167 251113,251191,251165
 2.6000e+001 251217 -1.2768e+006 -7.8130e+006  2.3521e+006 61167 251087,251191,251113
 2.6000e+001 251415 -1.1948e+006 -3.7312e+006  1.0816e+006 60827 251288,251340,251314
 2.6000e+001 251392 -6.3995e+005 -1.9353e+006  1.0038e+005 60827 251288,251366,251340
 2.6000e+001 251567  1.4785e+005 -6.0676e+006  6.8266e+005 60487 251466,251518,251492
 2.6000e+001 251544 -2.0091e+003 -3.9806e+006 -2.9726e+005 60487 251440,251518,251466
 2.6000e+001 251719  1.6870e+005 -1.1202e+007 -1.9507e+005 59983 251592,251644,251618
 2.6000e+001 251696 -8.5542e+005 -9.2490e+006  8.6495e+004 59983 251592,251670,251644
 2.6000e+001 251920  5.0168e+004 -2.1797e+006  2.9089e+004 59807 251770,251848,251796
 2.6000e+001 251897  4.2438e+004 -2.0512e+006 -1.5631e+004 59807 251744,251848,251770
 2.6000e+001 251874  3.4453e+003 -2.5383e+006 -6.7202e+004 59807 251796,251848,251822
 2.6000e+001 252023 -2.7204e+005 -4.9558e+006  9.2734e+004 59517 251945,251997,251971
 2.6000e+001 252175  1.6874e+006 -1.7492e+007 -8.8275e+005 59269 252074,252126,252100
 2.6000e+001 252152 -1.4149e+006 -2.4587e+006  1.1933e+006 59269 252048,252126,252074
 2.6000e+001 252278 -4.9022e+005 -2.6778e+006  1.2194e+006 58979 252200,252252,252226
 2.6000e+001 252381 -2.3054e+006 -2.9213e+006  1.1220e+006 58689 252303,252355,252329
 2.6000e+001 252533 -1.0144e+006 -5.5693e+006 -1.1244e+005 58249 252432,252484,252458
 2.6000e+001 252510 -9.2666e+005 -6.1852e+006 -8.8396e+005 58249 252406,252484,252432
 2.6000e+001 252734 -4.0991e+005 -5.0875e+006  2.2227e+005 57902 252584,252662,252610
 2.6000e+001 252711  8.4912e+005 -5.9958e+006 -9.0164e+004 57902 252558,252662,252584
 2.6000e+001 252688 -3.1350e+005 -3.7046e+006 -3.8915e+005 57902 252610,252662,252636
 2.6000e+001 252886 -6.6020e+004 -4.8121e+006 -2.0231e+005 57540 252785,252837,252811
 2.6000e+001 252863  2.2581e+005 -4.8171e+006 -1.1569e+005 57540 252759,252837,252785
 2.6000e+001 253038 -5.6038e+005 -6.0510e+006  1.4005e+006 57086 252937,252989,252963
 2.6000e+001 253015 -2.8855e+005 -2.8169e+006  2.1193e+005 57086 252911,252989,252937
 2.6000e+001 253239 -9.9915e+005 -5.9060e+006 -1.2036e+006 56796 253063,253141,253115
 2.6000e+001 253216  1.0540e+005 -6.7194e+006 -1.2723e+005 56796 253063,253167,253141
 2.6000e+001 253193 -7.4737e+005 -6.2721e+006 -1.3570e+006 56796 253063,253115,253089
 2.6000e+001 253342 -9.8216e+005 -1.6742e+007  8.4638e+005 56349 253264,253316,253290
 2.6000e+001 253543 -8.9047e+005 -9.3386e+006 -5.8725e+005 56009 253367,253419,253393
 2.6000e+001 253520 -5.0519e+005 -5.7954e+006 -3.7536e+005 56009 253367,253445,253419
 2.6000e+001 253497 -2.7396e+005 -7.1300e+006  2.5151e+005 56009 253367,253471,253445
 2.6000e+001 253695 -1.9423e+005 -3.9161e+006  6.2979e+004 55733 253594,253646,253620
 2.6000e+001 253672 -3.4627e+005 -2.6647e+006  1.2373e+005 55733 253568,253646,253594
 2.6000e+001 253798 -4.8531e+005 -2.4946e+006 -1.3818e+005 55557 253720,253772,253746
 2.6000e+001 253950 -5.6525e+005 -4.4744e+006  4.3069e+005 55153 253849,253901,253875
 2.6000e+001 253927  2.1069e+005 -5.1663e+006 -4.1774e+005 55153 253823,253901,253849
 2.6000e+001 254151 -1.2674e+006 -5.0386e+006  8.5078e+005 54863 253975,254053,254001
 2.6000e+001 254128 -6.0831e+005 -5.1668e+006  2.9420e+004 54863 253975,254079,254053
 2.6000e+001 254105 -4.2126e+005 -3.9277e+006  2.0250e+005 54863 254001,254053,254027
 2.6000e+001 254303  2.1372e+005 -5.2428e+006  9.8809e+004 54373 254176,254228,254202
 2.6000e+001 254280 -4.2259e+005 -3.7539e+006 -2.4667e+004 54373 254176,254254,254228
 2.6000e+001 254455 -1.5012e+005 -5.5424e+006 -3.7825e+005 53975 254354,254406,254380
 2.6000e+001 254432 -7.2502e+005 -1.5985e+006  1.4878e+005 53975 254328,254406,254354
 2.6000e+001 254607 -3.6992e+005 -5.2592e+006 -4.8985e+005 53585 254480,254532,254506
 2.6000e+001 254584 -3.5833e+005 -5.1104e+006 -5.2366e+005 53585 254480,254558,254532
 2.6000e+001 254808 -8.8961e+005 -3.8475e+006 -2.8955e+003 53245 254658,254736,254684
 2.6000e+001 254785 -1.0493e+006 -2.0337e+006 -3.9937e+005 53245 254632,254736,254658
 2.6000e+001 254762 -4.5765e+005 -2.7961e+006 -3.8186e+005 53245 254684,254736,254710
 2.6000e+001 254911 -3.7065e+005 -5.8956e+006  8.8019e+004 52955 254833,254885,254859
 2.6000e+001 255063 -7.5025e+005 -6.3104e+006 -1.3068e+005 52551 254962,255014,254988
 2.6000e+001 255040 -6.7969e+005 -6.8882e+006 -3.6775e+005 52551 254936,255014,254962
 2.6000e+001 255264 -7.0144e+005 -1.7768e+006  4.8625e+005 52261 255114,255166,255140
 2.6000e+001 255241 -7.7967e+005 -4.2494e+006  1.2197e+006 52261 255114,255192,255166
 2.6000e+001 255218  8.7519e+005 -6.8175e+006 -1.1702e+006 52261 255088,255192,255114
 2.6000e+001 255416 -3.8591e+005 -5.1965e+006  1.5318e+006 51971 255289,255341,255315
 2.6000e+001 255393 -2.5740e+005 -4.7891e+006 -2.0655e+005 51971 255289,255367,255341
 2.6000e+001 255568 -1.5712e+006 -2.0738e+006 -1.6818e+005 51681 255441,255493,255467
 2.6000e+001 255545 -4.0109e+004 -8.9409e+006  8.6355e+005 51681 255441,255519,255493
 2.6000e+001 255769 -2.3124e+005 -3.7559e+006 -1.0669e+005 51291 255619,255697,255671
 2.6000e+001 255746 -1.9814e+005 -3.3879e+006 -3.6039e+005 51291 255593,255697,255619
 2.6000e+001 255723 -1.5322e+005 -5.2096e+006 -4.3793e+005 51291 255619,255671,255645
 2.6000e+001 255921 -3.6564e+005 -3.2033e+006  7.5470e+005 50951 255820,255872,255846
 2.6000e+001 255898 -1.5403e+005 -2.5585e+006  1.3867e+005 50951 255794,255872,255820
 2.6000e+001 256171 -1.2935e+006 -4.5125e+006 -2.3171e+004 50547 256024,256076,256050
 2.6000e+001 256148 -9.4789e+005 -4.7295e+006  5.3027e+005 50547 255972,256076,256024
 2.6000e+001 256125 -2.6484e+005 -5.6124e+006 -1.2611e+005 50547 255946,256076,255972
 2.6000e+001 256102 -8.5057e+005 -4.0103e+006  2.7382e+005 50547 255972,256024,255998
 2.6000e+001 256323  2.9074e+005 -5.5766e+006  9.1973e+005 50093 256196,256248,256222
 2.6000e+001 256300 -9.2967e+005 -2.9671e+006 -1.1348e+006 50093 256196,256274,256248
 2.6000e+001 256426  1.4039e+003 -2.7477e+005  1.5890e+003 49845 256348,256400,256374
 2.6000e+001 256627 -1.5364e+005 -5.2516e+006  1.6212e+005 49555 256477,256555,256503
 2.6000e+001 256604 -3.3393e+005 -4.3037e+006  1.3177e+005 49555 256451,256555,256477
 2.6000e+001 256581 -4.0228e+005 -4.5024e+006  3.0349e+005 49555 256503,256555,256529
 2.6000e+001 256828 -5.7404e+005 -3.6307e+006 -6.5833e+004 49056 256652,256730,256678
 2.6000e+001 256805 -4.6204e+005 -3.3785e+006 -1.4999e+005 49056 256652,256756,256730
 2.6000e+001 256782 -5.9640e+005 -3.1395e+006 -3.9416e+005 49056 256678,256730,256704
 2.6000e+001 256931 -7.5864e+005 -2.1241e+006 -6.4735e+005 48766 256853,256905,256879
 2.6000e+001 257083 -8.2580e+005 -4.8003e+006 -6.0437e+005 48568 256982,257034,257008
 2.6000e+001 257060 -6.4046e+005 -4.0524e+006 -6.4313e+005 48568 256956,257034,256982
 2.6000e+001 257186 -1.3474e+003 -2.0924e+006  7.0906e+002 48228 257108,257160,257134
 2.6000e+001 257338 -3.7135e+005 -2.4018e+006  6.5333e+005 47888 257237,257289,257263
 2.6000e+001 257315 -4.0586e+005 -1.8117e+006  3.8766e+005 47888 257211,257289,257237
 2.6000e+001 257539 -2.7133e+005 -4.5183e+006  1.2756e+005 47548 257363,257441,257415
 2.6000e+001 257516 -5.7399e+005 -4.3255e+006 -2.5547e+005 47548 257363,257467,257441
 2.6000e+001 257493 -5.7033e+005 -3.2625e+006 -1.8596e+005 47548 257363,257415,257389
 2.6000e+001 257740 -2.6602e+005 -4.6971e+006  4.6614e+005 46994 257564,257642,257616
 2.6000e+001 257717 -4.4503e+005 -3.9692e+006  1.9838e+005 46994 257564,257668,257642
 2.6000e+001 257694 -7.2476e+005 -5.0446e+006  1.0588e+005 46994 257564,257616,257590
 2.6000e+001 257843 -1.2229e+006 -3.4221e+006  7.9779e+004 46654 257765,257817,257791
 2.6000e+001 257995 -7.7295e+005 -3.5472e+006  3.1924e+005 46364 257894,257946,257920
 2.6000e+001 257972 -6.9295e+005 -4.4182e+006 -1.6823e+005 46364 257868,257946,257894
 2.6000e+001 258147 -1.8397e+005 -3.5951e+006  2.7240e+005 46024 258046,258098,258072
 2.6000e+001 258124 -3.2625e+005 -3.3254e+006  3.5150e+005 46024 258020,258098,258046
 2.6000e+001 258250 -7.9578e+005 -2.9087e+006  7.2436e+005 45741 258172,258224,258198
 2.6000e+001 258402 -7.5628e+004 -3.5119e+006  2.4500e+005 45401 258301,258353,258327
 2.6000e+001 258379 -6.3766e+005 -2.1439e+006  1.5099e+005 45401 258275,258353,258301
 2.6000e+001 258603 -7.0016e+005 -2.2824e+006  9.4647e+003 45071 258427,258505,258479
 2.6000e+001 258580 -1.9427e+005 -5.3304e+006  3.2231e+005 45071 258427,258531,258505
 2.6000e+001 258557 -2.0897e+005 -2.9653e+006  2.5508e+005 45071 258427,258479,258453
 2.6000e+001 258755 -1.8809e+005 -4.1137e+006 -3.2566e+005 44681 258654,258706,258680
 2.6000e+001 258732 -1.7514e+005 -4.3333e+006 -3.3829e+005 44681 258628,258706,258654
 2.6000e+001 258907 -5.6074e+005 -2.1850e+006 -1.5856e+005 44157 258806,258858,258832
 2.6000e+001 258884 -4.3919e+005 -2.3572e+006 -1.8257e+005 44157 258780,258858,258806
 2.6000e+001 259010 -6.5673e+005 -1.4910e+006  3.3641e+004 43705 258932,258984,258958
 2.6000e+001 259113 -3.3941e+005 -3.9313e+006  3.0321e+005 43284 259035,259087,259061
 2.6000e+001 259216 -5.5661e+005 -3.4998e+006 -1.9191e+005 42954 259138,259190,259164
 2.6000e+001 259319 -9.3626e+005 -2.0953e+006  2.4791e+004 42116 259241,259293,259267
 2.6000e+001 259422 -2.4807e+005 -3.8901e+006 -3.1697e+005 41804 259344,259396,259370
 2.6000e+001 259525 -6.2425e+005 -5.9244e+006  8.1809e+005 41219 259447,259499,259473
 2.6000e+001 259628 -8.7700e+005 -3.1133e+006 -3.4612e+005 385 259550,259602,259576
 2.8000e+001 190120 -8.7317e+005 -2.7588e+006  1.8581e+005 189630 189993,190045,190019
 2.8000e+001 190097 -5.0205e+005 -2.7380e+006  2.6829e+005 189630 189993,190071,190045
 2.8000e+001 190319 -1.3265e+006 -6.3560e+006  3.5637e+005 189312 190169,190221,190195
 2.8000e+001 190296 -1.0001e+006 -4.3801e+006 -1.4761e+006 189312 190169,190247,190221
 2.8000e+001 190273 -7.0827e+005 -3.6530e+006 -2.2855e+005 189312 190143,190247,190169
 2.8000e+001 190518 -5.1211e+005 -2.2476e+006 -6.4297e+005 189124 190368,190446,190420
 2.8000e+001 190495 -7.8658e+005 -1.0888e+006  2.3755e+005 189124 190342,190446,190368
 2.8000e+001 190472 -1.9633e+006 -2.4008e+006 -1.2879e+006 189124 190368,190420,190394
 2.8000e+001 190619 -4.9343e+005 -2.4700e+005 -1.2107e+004 188926 190541,190593,190567
 2.8000e+001 190771 -3.8632e+005 -3.1980e+006 -3.8620e+005 188614 190670,190722,190696
 2.8000e+001 190748 -3.2232e+005 -1.0117e+006  2.2206e+005 188614 190644,190722,190670
 2.8000e+001 190972 -1.3020e+005 -2.7367e+006 -5.7983e+005 188324 190848,190900,190874
 2.8000e+001 190949 -2.0710e+005 -2.3063e+006 -3.4581e+005 188324 190796,190900,190848
 2.8000e+001 190926 -5.0025e+005 -3.6148e+006 -6.3920e+005 188324 190796,190848,190822
 2.8000e+001 191124 -4.3425e+005 -2.6547e+006 -1.8408e+005 188034 191023,191075,191049
 2.8000e+001 191101 -4.0470e+005 -2.5829e+006 -2.3036e+005 188034 190997,191075,191023
 2.8000e+001 191276 -2.2379e+005 -2.5017e+006 -1.8799e+005 187836 191149,191201,191175
 2.8000e+001 191253 -4.9039e+005 -2.0849e+006  2.1259e+004 187836 191149,191227,191201
 2.8000e+001 191379 -4.6004e+005 -2.9389e+005 -8.9979e+004 187546 191301,191353,191327
 2.8000e+001 191531 -1.4110e+005 -8.0442e+006 -2.7395e+006 187256 191430,191482,191456
 2.8000e+001 191508 -8.1099e+005 -5.5658e+006  8.2212e+005 187256 191404,191482,191430
 2.8000e+001 191634 -2.1676e+005 -3.3808e+006 -2.0353e+005 187058 191556,191608,191582
 2.8000e+001 191835 -5.9548e+004 -2.2328e+006  3.1748e+005 186860 191659,191711,191685
 2.8000e+001 191812 -3.7126e+005 -1.2088e+006  4.8754e+005 186860 191659,191737,191711
 2.8000e+001 191789 -1.2074e+005 -7.3602e+005  8.1205e+004 186860 191659,191763,191737
 2.8000e+001 191987 -5.6030e+005 -2.4011e+006 -2.3665e+005 186662 191886,191938,191912
 2.8000e+001 191964 -3.5743e+005 -2.4575e+006 -1.9897e+005 186662 191860,191938,191886
 2.8000e+001 192090 -7.2274e+005 -1.8861e+006 -3.3817e+004 186486 192012,192064,192038
 2.8000e+001 192242 -5.3426e+005 -6.5009e+006  2.9626e+004 186288 192115,192167,192141
 2.8000e+001 192219 -4.2321e+005 -6.0635e+006  1.7610e+005 186288 192115,192193,192167
 2.8000e+001 192394 -1.4898e+005 -5.7464e+006 -3.2001e+005 185935 192293,192345,192319
 2.8000e+001 192371 -4.0186e+005 -5.0653e+006 -4.6549e+005 185935 192267,192345,192293
 2.8000e+001 192546 -7.3818e+005 -2.7290e+006 -1.8102e+005 185675 192419,192471,192445
 2.8000e+001 192523 -4.1904e+005 -2.7064e+006 -9.5372e+003 185675 192419,192497,192471
 2.8000e+001 192649 -3.3013e+005 -2.3069e+006 -1.2472e+005 185499 192571,192623,192597
 2.8000e+001 192801 -1.3138e+006 -1.6059e+006 -2.2360e+005 185301 192674,192726,192700
 2.8000e+001 192778 -6.0522e+005 -1.6005e+006  2.9926e+005 185301 192674,192752,192726
 2.8000e+001 193002 -1.5916e+005 -3.6539e+006 -5.3165e+005 185046 192852,192930,192878
 2.8000e+001 192979 -4.3736e+005 -4.7001e+006 -4.2864e+005 185046 192826,192930,192852
 2.8000e+001 192956  3.9798e+005 -5.8054e+006  1.2372e+005 185046 192878,192930,192904
 2.8000e+001 193203 -2.1485e+006 -3.1004e+006 -9.0293e+005 184798 193079,193131,193105
 2.8000e+001 193180  6.4251e+005 -7.7453e+006 -2.2216e+006 184798 193027,193131,193079
 2.8000e+001 193157  6.9190e+004 -8.2630e+006  2.7083e+006 184798 193027,193079,193053
 2.8000e+001 193404 -3.5930e+005 -5.9739e+006 -8.3492e+005 184600 193254,193306,193280
 2.8000e+001 193381 -7.6180e+005 -3.2668e+006  2.9839e+005 184600 193254,193332,193306
 2.8000e+001 193358 -1.1996e+006 -1.8625e+006  2.8322e+004 184600 193228,193332,193254
 2.8000e+001 193556 -6.3314e+002 -3.1528e+006 -2.3989e+005 184402 193429,193481,193455
 2.8000e+001 193533 -1.0221e+006 -1.7575e+006 -1.2975e+006 184402 193429,193507,193481
 2.8000e+001 193708 -3.6354e+005 -5.9193e+006 -7.0285e+005 184204 193607,193659,193633
 2.8000e+001 193685 -8.0322e+005 -6.1826e+006 -9.2473e+005 184204 193581,193659,193607
 2.8000e+001 193860 -4.0601e+005 -3.0182e+006  8.4349e+004 183908 193759,193811,193785
 2.8000e+001 193837 -1.8590e+005 -2.8887e+006  2.0175e+005 183908 193733,193811,193759
 2.8000e+001 194061 -2.8747e+005 -1.8214e+006 -1.9789e+005 183710 193911,193989,193937
 2.8000e+001 194038 -5.5642e+005 -1.6080e+006  2.1473e+005 183710 193885,193989,193911
 2.8000e+001 194015 -1.9628e+005 -2.7189e+006 -5.6355e+004 183710 193937,193989,193963
 2.8000e+001 194262 -1.6314e+006 -5.8125e+006 -1.8729e+006 183420 194086,194164,194112
 2.8000e+001 194239 -1.4103e+006 -3.9869e+006  1.1622e+004 183420 194086,194190,194164
 2.8000e+001 194216 -2.8933e+006 -1.3123e+007  1.9173e+006 183420 194112,194164,194138
 2.8000e+001 194414 -1.5107e+005 -7.4021e+006  5.9150e+005 183222 194287,194339,194313
 2.8000e+001 194391 -4.7798e+005 -1.4973e+006 -2.6845e+005 183222 194287,194365,194339
 2.8000e+001 194517 -1.2733e+006 -2.3026e+006 -1.8304e+004 183024 194439,194491,194465
 2.8000e+001 194718  1.2955e+006 -2.1309e+007  2.6088e+006 182734 194568,194620,194594
 2.8000e+001 194695 -9.3695e+005 -6.5796e+006 -3.7754e+006 182734 194542,194620,194568
 2.8000e+001 194672 -3.3542e+006 -3.3489e+006 -1.8422e+006 182734 194542,194646,194620
 2.8000e+001 194870 -6.3344e+005 -3.5109e+006  7.7730e+004 182444 194769,194821,194795
 2.8000e+001 194847 -3.1872e+005 -1.8407e+006 -3.4049e+005 182444 194743,194821,194769
 2.8000e+001 195071 -1.3481e+006 -5.1617e+006  1.4083e+005 182154 194895,194947,194921
 2.8000e+001 195048 -5.2623e+005 -2.3338e+006  6.0907e+005 182154 194895,194999,194947
 2.8000e+001 195025  1.6780e+005 -6.2773e+006  7.1121e+005 182154 194947,194999,194973
 2.8000e+001 195223 -5.5937e+005 -3.9810e+006 -9.9347e+004 181814 195096,195148,195122
 2.8000e+001 195200 -1.7833e+005 -2.3894e+006  1.0610e+002 181814 195096,195174,195148
 2.8000e+001 195375 -7.2915e+004 -4.2272e+006  5.9684e+005 181524 195248,195300,195274
 2.8000e+001 195352  1.0479e+004 -3.5711e+006  4.1571e+005 181524 195248,195326,195300
 2.8000e+001 195527 -4.0071e+004 -6.3653e+005  2.3994e+005 181326 195426,195478,195452
 2.8000e+001 195504 -3.8820e+005 -1.4954e+006  5.1686e+005 181326 195400,195478,195426
 2.8000e+001 195679  7.5746e+005 -1.6282e+007  9.3220e+004 180936 195578,195630,195604
 2.8000e+001 195656 -1.3601e+006 -5.8615e+006  3.4938e+004 180936 195552,195630,195578
 2.8000e+001 195831 -5.8638e+005 -2.9277e+005 -1.6329e+005 180646 195704,195756,195730
 2.8000e+001 195808 -5.1323e+005 -9.4198e+004 -3.6731e+004 180646 195704,195782,195756
 2.8000e+001 196032 -3.0221e+005 -3.1278e+006  1.2029e+006 180306 195882,195960,195934
 2.8000e+001 196009 -5.8520e+005 -1.4995e+006  4.3068e+003 180306 195856,195960,195882
 2.8000e+001 195986  5.0560e+005 -4.8371e+006 -7.0062e+005 180306 195882,195934,195908
 2.8000e+001 196233 -1.7441e+005 -1.4514e+006 -1.6893e+006 179944 196057,196109,196083
 2.8000e+001 196210 -1.8716e+006 -9.4245e+006  1.2199e+006 179944 196057,196135,196109
 2.8000e+001 196187 -4.0685e+006  8.5144e+006 -3.1599e+006 179944 196057,196161,196135
 2.8000e+001 196385 -1.0429e+005 -8.8381e+005 -3.2878e+005 179604 196258,196310,196284
 2.8000e+001 196362 -2.0031e+005 -1.1366e+006 -4.5373e+005 179604 196258,196336,196310
 2.8000e+001 196586 -1.2256e+005 -2.3325e+006 -2.4481e+005 179114 196410,196488,196436
 2.8000e+001 196563  1.0679e+005 -3.5722e+006 -2.4443e+005 179114 196410,196514,196488
 2.8000e+001 196540 -2.3034e+004 -2.3118e+006 -2.3197e+005 179114 196436,196488,196462
 2.8000e+001 196738 -5.6527e+005 -3.2300e+006 -3.2313e+005 178674 196611,196663,196637
 2.8000e+001 196715 -3.8345e+004 -4.7659e+006  6.7651e+004 178674 196611,196689,196663
 2.8000e+001 196939  1.7622e+006 -1.3325e+007 -1.0519e+005 178334 196789,196867,196841
 2.8000e+001 196916 -1.0244e+006 -1.3617e+007  7.8752e+005 178334 196763,196867,196789
 2.8000e+001 196893 -1.9522e+006 -9.6567e+006 -4.9365e+006 178334 196789,196841,196815
 2.8000e+001 197091 -3.1379e+005 -9.1418e+006 -8.9574e+005 177930 196990,197042,197016
 2.8000e+001 197068  4.1971e+004 -7.3490e+006 -4.3926e+005 177930 196964,197042,196990
 2.8000e+001 197194 -2.6038e+002 -1.7310e+006 -3.9683e+002 177732 197116,197168,197142
 2.8000e+001 197346 -4.3577e+005 -9.0954e+006 -6.8060e+005 177534 197219,197271,197245
 2.8000e+001 197323  7.0830e+005 -1.2594e+007  1.1824e+006 177534 197219,197297,197271
 2.8000e+001 197547 -3.2216e+005 -6.9839e+006 -1.0794e+006 177130 197397,197449,197423
 2.8000e+001 197524 -4.9867e+005 -7.0756e+006 -8.1660e+005 177130 197397,197475,197449
 2.8000e+001 197501 -3.1816e+005 -1.7535e+007 -1.8406e+006 177130 197371,197475,197397
 2.8000e+001 197748 -2.9822e+005 -1.0404e+007 -1.6247e+005 176790 197598,197676,197624
 2.8000e+001 197725 -1.2660e+005 -7.7818e+006  1.1088e+005 176790 197572,197676,197598
 2.8000e+001 197702 -5.3872e+005 -8.1620e+006  4.7472e+005 176790 197624,197676,197650
 2.8000e+001 197900 -1.3098e+005 -6.8636e+006 -1.0128e+006 176300 197773,197825,197799
 2.8000e+001 197877  3.2954e+005 -7.6061e+006 -1.1085e+006 176300 197773,197851,197825
 2.8000e+001 198052 -7.0327e+005 -1.3200e+007 -2.8540e+006 176010 197925,197977,197951
 2.8000e+001 198029 -1.6071e+006 -7.4273e+006 -1.8974e+006 176010 197925,198003,197977
 2.8000e+001 198204 -2.5451e+006 -7.8322e+006 -9.8222e+004 175670 198103,198155,198129
 2.8000e+001 198181 -2.3746e+006 -1.1188e+007 -1.9373e+006 175670 198077,198155,198103
 2.8000e+001 198405 -3.0366e+005 -1.0060e+007 -1.6709e+006 175266 198255,198307,198281
 2.8000e+001 198382 -1.4026e+005 -8.8319e+006 -6.7052e+005 175266 198229,198307,198255
 2.8000e+001 198359 -1.1013e+006 -6.5374e+006 -2.4097e+006 175266 198229,198333,198307
 2.8000e+001 198606  3.7733e+004 -2.4289e+006 -7.3831e+004 174876 198430,198508,198482
 2.8000e+001 198583 -4.7483e+005 -2.5760e+006  1.2104e+005 174876 198430,198534,198508
 2.8000e+001 198560 -4.2282e+005 -9.4132e+005 -5.2673e+005 174876 198430,198482,198456
 2.8000e+001 198758 -2.2307e+004 -1.1251e+005 -5.0959e+004 174536 198657,198709,198683
 2.8000e+001 198735 -2.2635e+004 -1.0947e+005 -4.9032e+004 174536 198631,198709,198657
 2.8000e+001 199008 -1.2638e+005 -1.3883e+007  4.0937e+005 174132 198835,198913,198887
 2.8000e+001 198985 -3.8347e+004 -7.2408e+006  6.9847e+005 174132 198809,198913,198835
 2.8000e+001 198962 -1.2253e+005 -7.7665e+006 -2.5971e+006 174132 198783,198913,198809
 2.8000e+001 198939  4.4808e+005 -1.3201e+007  7.9005e+005 174132 198835,198887,198861
 2.8000e+001 199160 -8.6055e+005 -7.1169e+006  4.7631e+004 173842 199059,199111,199085
 2.8000e+001 199137 -1.1413e+006 -4.5231e+006 -6.9449e+005 173842 199033,199111,199059
 2.8000e+001 199361 -7.0885e+005 -1.3404e+007  1.4463e+006 173438 199237,199289,199263
 2.8000e+001 199338 -1.0238e+006 -9.5785e+006  2.1834e+006 173438 199211,199289,199237
 2.8000e+001 199315 -1.0332e+006 -1.2554e+007 -3.3849e+005 173438 199185,199289,199211
 2.8000e+001 199513  8.2629e+005 -1.6160e+007  3.0105e+006 173190 199386,199438,199412
 2.8000e+001 199490  2.3684e+005 -1.1516e+007 -1.1632e+005 173190 199386,199464,199438
 2.8000e+001 199665 -5.3599e+005 -4.3492e+006  2.8854e+005 172750 199564,199616,199590
 2.8000e+001 199642 -1.2225e+006 -2.3610e+006 -1.2627e+005 172750 199538,199616,199564
 2.8000e+001 199817 -9.0381e+005 -1.0515e+007 -3.5740e+006 172524 199690,199742,199716
 2.8000e+001 199794 -4.7007e+006 -5.6483e+006 -2.0114e+006 172524 199690,199768,199742
 2.8000e+001 199969 -2.7684e+004 -1.1434e+007 -5.6222e+005 172348 199842,199894,199868
 2.8000e+001 199946  1.0345e+006 -1.1289e+007  3.9563e+005 172348 199842,199920,199894
 2.8000e+001 200121  4.6376e+005 -1.0224e+007 -1.0636e+006 172008 199994,200046,200020
 2.8000e+001 200098 -7.4546e+005 -4.5004e+006 -3.9473e+005 172008 199994,200072,200046
 2.8000e+001 200273 -7.9571e+004 -1.0057e+007  4.6064e+005 171668 200172,200224,200198
 2.8000e+001 200250 -2.1377e+005 -9.7248e+006  9.3360e+004 171668 200146,200224,200172
 2.8000e+001 200474  7.0844e+004 -1.4310e+007 -1.3377e+006 171264 200350,200402,200376
 2.8000e+001 200451 -4.7420e+005 -1.0606e+007 -2.8605e+005 171264 200324,200402,200350
 2.8000e+001 200428 -9.4382e+005 -9.4076e+006  1.2485e+006 171264 200298,200402,200324
 2.8000e+001 200626  4.7670e+005 -1.3187e+007  2.0641e+005 170832 200525,200577,200551
 2.8000e+001 200603 -3.2288e+005 -9.1563e+006  1.3808e+004 170832 200499,200577,200525
 2.8000e+001 200827  2.8342e+005 -1.1851e+007  1.6366e+006 170492 200677,200729,200703
 2.8000e+001 200804 -1.6555e+006 -5.2035e+006 -3.4239e+006 170492 200651,200729,200677
 2.8000e+001 200781 -3.4751e+006 -4.0291e+006 -2.0249e+006 170492 200651,200755,200729
 2.8000e+001 201077  1.1504e+006 -4.6687e+006  2.5767e+005 170088 200878,200956,200904
 2.8000e+001 201054 -4.8928e+005 -4.4660e+006 -1.7063e+006 170088 200852,200956,200878
 2.8000e+001 201031  5.5091e+005 -3.8572e+006  4.2050e+006 170088 200904,200956,200930
 2.8000e+001 201008  5.4715e+006 -1.0944e+007  2.7979e+006 170088 200852,200982,200956
 2.8000e+001 201278  7.7009e+005 -2.9095e+006  1.6350e+005 169798 201102,201154,201128
 2.8000e+001 201255 -1.4699e+006 -1.1401e+007 -9.6524e+005 169798 201102,201206,201154
 2.8000e+001 201232 -1.2553e+006 -3.3189e+006  1.1129e+006 169798 201154,201206,201180
 2.8000e+001 201430 -9.9439e+005 -1.7603e+007 -2.0840e+006 169337 201303,201355,201329
 2.8000e+001 201407 -5.5148e+005 -6.4274e+006 -4.1692e+005 169337 201303,201381,201355
 2.8000e+001 201631 -4.9631e+005 -9.2711e+006  6.8830e+004 168883 201481,201559,201507
 2.8000e+001 201608  8.0858e+005 -8.7156e+006  4.9891e+005 168883 201455,201559,201481
 2.8000e+001 201585 -8.8903e+005 -9.3080e+006 -1.9515e+005 168883 201507,201559,201533
 2.8000e+001 201832 -5.5032e+005 -1.6249e+007  5.8233e+005 168479 201682,201734,201708
 2.8000e+001 201809 -2.3607e+006 -1.3747e+007 -1.5780e+006 168479 201656,201734,201682
 2.8000e+001 201786 -1.8415e+006 -1.1674e+007 -1.5538e+005 168479 201656,201760,201734
 2.8000e+001 202033 -3.7323e+005 -8.8934e+006  1.4303e+006 167825 201883,201935,201909
 2.8000e+001 202010 -1.3717e+006 -1.0464e+007 -1.6565e+006 167825 201857,201935,201883
 2.8000e+001 201987 -3.2721e+005 -1.7805e+007 -2.8639e+005 167825 201857,201961,201935
 2.8000e+001 202234 -6.7490e+005 -8.2616e+006 -2.3045e+006 167435 202058,202136,202084
 2.8000e+001 202211 -6.1831e+005 -1.1478e+007  1.7339e+006 167435 202058,202162,202136
 2.8000e+001 202188 -7.7580e+005 -3.8594e+006  7.1967e+005 167435 202084,202136,202110
 2.8000e+001 202386  4.6996e+005 -9.0565e+006  2.7755e+005 167002 202285,202337,202311
 2.8000e+001 202363 -8.6151e+005 -1.9338e+006  7.5486e+005 167002 202259,202337,202285
 2.8000e+001 202538  1.4627e+005 -1.0141e+007 -2.6001e+005 166662 202411,202463,202437
 2.8000e+001 202515 -7.2533e+005 -5.0992e+006  2.6661e+005 166662 202411,202489,202463
 2.8000e+001 202690  2.7784e+005 -9.1435e+006 -1.3498e+006 166322 202589,202641,202615
 2.8000e+001 202667  4.9206e+005 -8.4955e+006 -8.7049e+005 166322 202563,202641,202589
 2.8000e+001 202891 -3.1030e+005 -4.0557e+006  4.0181e+005 165918 202715,202767,202741
 2.8000e+001 202868 -1.0443e+006 -7.1179e+006  1.8485e+005 165918 202715,202793,202767
 2.8000e+001 202845 -4.7184e+005 -5.5803e+006 -6.5154e+005 165918 202715,202819,202793
 2.8000e+001 203092 -1.1832e+006 -9.2187e+006 -1.3840e+006 165628 202916,202968,202942
 2.8000e+001 203069  6.3466e+004 -1.4353e+007 -8.6890e+005 165628 202916,202994,202968
 2.8000e+001 203046 -1.3503e+006 -1.3323e+007 -2.0129e+006 165628 202916,203020,202994
 2.8000e+001 203293 -4.8776e+006 -1.4313e+007  1.8059e+006 165266 203143,203195,203169
 2.8000e+001 203270 -4.2059e+006 -1.1006e+007 -4.0065e+005 165266 203143,203221,203195
 2.8000e+001 203247 -1.2274e+005 -1.5113e+007 -5.0412e+006 165266 203117,203221,203143
 2.8000e+001 203445  2.8867e+005 -6.3747e+006  1.2831e+006 164826 203318,203370,203344
 2.8000e+001 203422 -4.1066e+005 -4.0385e+006 -6.5101e+005 164826 203318,203396,203370
 2.8000e+001 203597 -1.1461e+006 -9.2684e+006 -5.4892e+005 164386 203470,203522,203496
 2.8000e+001 203574 -4.7877e+005 -6.5767e+006 -4.2191e+005 164386 203470,203548,203522
 2.8000e+001 203798  3.3692e+004 -9.0287e+006  1.2429e+006 163996 203622,203674,203648
 2.8000e+001 203775 -1.0928e+006 -2.8886e+006 -1.5366e+005 163996 203622,203726,203674
 2.8000e+001 203752 -2.7524e+006 -7.5032e+006  3.2411e+006 163996 203674,203726,203700
 2.8000e+001 203901 -6.6648e+005 -5.2776e+006 -1.0648e+006 163770 203823,203875,203849
 2.8000e+001 204053 -1.9181e+006 -7.0092e+006  1.2609e+006 163474 203952,204004,203978
 2.8000e+001 204030 -4.2341e+005 -8.2928e+006 -1.5731e+006 163474 203926,204004,203952
 2.8000e+001 204205 -5.3356e+004 -5.3471e+006 -3.7163e+005 163034 204104,204156,204130
 2.8000e+001 204182 -3.7893e+005 -1.1001e+007 -5.3847e+006 163034 204078,204156,204104
 2.8000e+001 204357 -3.5952e+005 -8.6110e+006  1.0773e+006 162624 204256,204308,204282
 2.8000e+001 204334 -6.1072e+004 -3.3377e+006  2.4807e+003 162624 204230,204308,204256
 2.8000e+001 204509 -4.4069e+002 -3.7731e+001  1.2789e+002 162200 204382,204434,204408
 2.8000e+001 204486 -3.2726e+002 -2.1310e+002  3.2074e+002 162200 204382,204460,204434
 2.8000e+001 204710 -3.2971e+005 -2.0952e+006  7.4979e+005 161810 204560,204638,204586
 2.8000e+001 204687 -1.2981e+005 -3.0411e+006 -1.9490e+005 161810 204534,204638,204560
 2.8000e+001 204664 -4.0896e+005 -8.1575e+005  1.8954e+005 161810 204586,204638,204612
 2.8000e+001 204862 -1.4246e+006 -6.5520e+006 -1.8982e+006 161406 204735,204787,204761
 2.8000e+001 204839 -1.6641e+006 -7.6356e+006 -1.2827e+006 161406 204735,204813,204787
 2.8000e+001 205014 -2.1393e+004 -7.4431e+005  1.3670e+005 161180 204887,204939,204913
 2.8000e+001 204991 -6.1075e+004 -3.6903e+005 -4.5862e+004 161180 204887,204965,204939
 2.8000e+001 205215  7.5848e+005 -3.3003e+006 -2.1004e+005 160726 205039,205091,205065
 2.8000e+001 205192 -9.1725e+005 -9.8344e+006 -7.2716e+005 160726 205039,205143,205091
 2.8000e+001 205169 -1.8783e+005 -2.1765e+006 -2.1977e+004 160726 205091,205143,205117
 2.8000e+001 205416  2.4078e+005 -5.1255e+006  1.6403e+006 160272 205292,205344,205318
 2.8000e+001 205393 -8.3435e+005 -1.1553e+006  9.0911e+005 160272 205240,205344,205292
 2.8000e+001 205370 -6.4091e+005 -1.1355e+006 -7.6039e+004 160272 205240,205292,205266
 2.8000e+001 205568 -4.7898e+004 -1.0340e+006  1.2617e+005 159932 205441,205493,205467
 2.8000e+001 205545 -1.4134e+004 -8.2907e+005  1.0889e+005 159932 205441,205519,205493
 2.8000e+001 205720 -7.6874e+003 -6.9391e+005 -1.1300e+005 159542 205593,205645,205619
 2.8000e+001 205697 -2.7731e+004 -1.5890e+005 -3.3636e+004 159542 205593,205671,205645
 2.8000e+001 205872  5.6754e+004 -3.6454e+005  4.8680e+004 159252 205745,205797,205771
 2.8000e+001 205849 -9.1125e+004 -9.6545e+005  5.7948e+004 159252 205745,205823,205797
 2.8000e+001 206024 -2.4434e+006 -2.7158e+006 -4.9882e+005 159004 205923,205975,205949
 2.8000e+001 206001 -7.7404e+005 -4.7138e+006  6.8989e+005 159004 205897,205975,205923
 2.8000e+001 206127  2.4497e+000  1.5895e+000  2.6698e-001 158364 206049,206101,206075
 2.8000e+001 206328 -4.1831e+004 -9.3376e+005  2.4685e+004 157960 206178,206256,206204
 2.8000e+001 206305 -6.0887e+004 -8.5724e+005  1.2566e+005 157960 206152,206256,206178
 2.8000e+001 206282 -3.6487e+004 -6.6547e+005  6.2600e+004 157960 206204,206256,206230
 2.8000e+001 206529 -1.1487e+005 -1.1019e+007  7.7973e+004 157648 206405,206457,206431
 2.8000e+001 206506 -3.4656e+006 -8.3006e+006 -1.3335e+006 157648 206379,206457,206405
 2.8000e+001 206483 -9.7774e+005 -6.7339e+006  1.1316e+005 157648 206353,206457,206379
 2.8000e+001 206730  5.0962e+005 -2.0075e+007 -9.8827e+005 157208 206554,206606,206580
 2.8000e+001 206707  9.5712e+005 -2.1677e+007  5.8514e+004 157208 206554,206632,206606
 2.8000e+001 206684 -4.0029e+006 -6.5806e+006 -1.2217e+006 157208 206554,206658,206632
 2.8000e+001 206882 -3.7470e+003 -5.8725e+005  3.2701e+004 157010 206755,206807,206781
 2.8000e+001 206859  2.1234e+004 -7.5599e+005  1.0354e+005 157010 206755,206833,206807
 2.8000e+001 207034 -4.1851e+005 -7.7788e+006 -2.6611e+005 156620 206907,206959,206933
 2.8000e+001 207011  3.9887e+005 -1.7034e+007  1.8278e+005 156620 206907,206985,206959
 2.8000e+001 207186 -2.9094e+004 -4.5196e+006  1.8859e+005 156330 207085,207137,207111
 2.8000e+001 207163 -6.8745e+004 -4.6426e+006 -1.0970e+006 156330 207059,207137,207085
 2.8000e+001 207387 -4.1076e+005 -9.4787e+006  6.0489e+005 155890 207211,207289,207237
 2.8000e+001 207364 -6.1905e+005 -9.5988e+006 -6.8583e+005 155890 207211,207315,207289
 2.8000e+001 207341 -1.6524e+006 -6.4487e+006  2.4073e+006 155890 207237,207289,207263
 2.8000e+001 207588  1.1141e+006 -2.5825e+007  5.9585e+006 155436 207438,207490,207464
 2.8000e+001 207565 -7.5074e+005 -2.1575e+007 -3.8805e+005 155436 207412,207490,207438
 2.8000e+001 207542 -1.3567e+006 -1.5235e+007 -8.4426e+005 155436 207412,207516,207490
 2.8000e+001 207789  1.0291e+006 -3.9137e+007 -2.6940e+006 155260 207639,207691,207665
 2.8000e+001 207766 -3.9321e+006 -1.6321e+007  4.7942e+006 155260 207613,207691,207639
 2.8000e+001 207743 -7.1630e+005 -1.3361e+007 -7.1459e+005 155260 207613,207717,207691
 2.8000e+001 207990 -6.6580e+003 -2.3074e+005  3.9644e+004 154920 207840,207918,207892
 2.8000e+001 207967 -5.7659e+004 -2.8198e+005 -8.3499e+004 154920 207814,207918,207840
 2.8000e+001 207944 -1.1794e+004 -1.2694e+005 -2.2034e+004 154920 207840,207892,207866
 2.8000e+001 208191 -7.5418e+004 -1.5970e+007 -9.0328e+005 154630 208015,208093,208041
 2.8000e+001 208168  4.0638e+005 -1.1063e+007 -1.3381e+006 154630 208015,208119,208093
 2.8000e+001 208145 -2.4643e+006 -1.0632e+007 -5.1194e+006 154630 208041,208093,208067
 2.8000e+001 208343  1.0386e+004 -2.3341e+005 -4.9920e+003 154240 208216,208268,208242
 2.8000e+001 208320  3.1039e+004 -1.6781e+005 -3.3331e+004 154240 208216,208294,208268
 2.8000e+001 208495  2.3640e+006 -3.3604e+007 -6.9864e+006 153950 208394,208446,208420
 2.8000e+001 208472 -2.7454e+006 -1.6306e+007  4.9571e+006 153950 208368,208446,208394
 2.8000e+001 208647 -7.1907e+005 -1.9215e+007  8.6796e+006 153603 208520,208572,208546
 2.8000e+001 208624 -5.0578e+006 -6.2689e+006 -4.1386e+006 153603 208520,208598,208572
 2.8000e+001 208848 -7.3276e+005 -7.7785e+006  2.3703e+006 153149 208698,208776,208724
 2.8000e+001 208825  4.5028e+005 -1.6663e+007 -2.1833e+006 153149 208672,208776,208698
 2.8000e+001 208802 -2.6389e+006 -6.0579e+006  1.4925e+006 153149 208724,208776,208750
 2.8000e+001 209000 -1.0364e+006 -1.3467e+007 -9.3372e+004 152859 208873,208925,208899
 2.8000e+001 208977  2.3031e+004 -1.8545e+007  6.3246e+005 152859 208873,208951,208925
 2.8000e+001 209152  4.2432e+005 -1.6152e+007 -3.2108e+005 152569 209051,209103,209077
 2.8000e+001 209129  6.9478e+005 -1.6896e+007 -7.2464e+005 152569 209025,209103,209051
 2.8000e+001 209304 -4.3482e+004 -1.6894e+005 -7.1666e+003 152065 209177,209229,209203
 2.8000e+001 209281  3.5175e+004 -3.1311e+005  3.2956e+004 152065 209177,209255,209229
 2.8000e+001 209456  6.1847e+005 -1.5088e+007  1.1138e+005 151775 209355,209407,209381
 2.8000e+001 209433  1.0091e+006 -1.8979e+007 -4.4069e+003 151775 209329,209407,209355
 2.8000e+001 209608 -7.5741e+005 -1.9168e+007 -2.2907e+005 151371 209481,209533,209507
 2.8000e+001 209585  5.9050e+005 -2.2551e+007  6.8546e+005 151371 209481,209559,209533
 2.8000e+001 209760 -1.9572e+005 -9.6208e+006  3.3720e+005 150981 209659,209711,209685
 2.8000e+001 209737 -8.5965e+004 -1.4368e+007 -5.0226e+006 150981 209633,209711,209659
 2.8000e+001 209912  2.3058e+006 -3.9137e+007 -2.7949e+006 150619 209811,209863,209837
 2.8000e+001 209889 -4.7727e+005 -2.3876e+007  2.7702e+006 150619 209785,209863,209811
 2.8000e+001 210064 -2.7849e+006 -6.1898e+006 -1.2216e+006 150279 209937,209989,209963
 2.8000e+001 210041  1.0449e+006 -2.3096e+007 -1.3963e+006 150279 209937,210015,209989
 2.8000e+001 210265 -5.0004e+004 -1.9744e+007 -2.2961e+006 149989 210115,210167,210141
 2.8000e+001 210242 -1.4745e+006 -1.7239e+007  6.7793e+005 149989 210115,210193,210167
 2.8000e+001 210219 -1.2120e+006 -2.2010e+007  6.5965e+005 149989 210089,210193,210115
 2.8000e+001 210417 -2.0483e+006 -7.9740e+006  1.5508e+004 149599 210316,210368,210342
 2.8000e+001 210394  3.6347e+005 -2.0059e+007 -2.4412e+006 149599 210290,210368,210316
 2.8000e+001 210618 -4.1295e+006 -1.4223e+007  1.8405e+006 149095 210468,210520,210494
 2.8000e+001 210595 -4.1421e+006 -1.4221e+007  1.7946e+006 149095 210442,210520,210468
 2.8000e+001 210572 -1.9658e+006 -2.8025e+007  3.2300e+006 149095 210442,210546,210520
 2.8000e+001 210819 -4.5303e+004 -2.3509e+006 -9.0313e+003 148748 210695,210747,210721
 2.8000e+001 210796 -6.0293e+004 -2.5416e+006  4.9252e+003 148748 210669,210747,210695
 2.8000e+001 210773 -2.9913e+005 -1.7872e+006  7.3108e+005 148748 210643,210747,210669
 2.8000e+001 210971  4.1302e+002 -1.5342e+003 -5.3023e+002 148408 210870,210922,210896
 2.8000e+001 210948  8.4730e+001 -5.6661e+003 -2.6034e+002 148408 210844,210922,210870
 2.8000e+001 211123 -4.2707e+005 -1.4575e+007  1.4519e+006 148118 210996,211048,211022
 2.8000e+001 211100  1.2998e+006 -1.8548e+007  5.4166e+006 148118 210996,211074,211048
 2.8000e+001 211275 -4.1932e+006 -1.4082e+007 -7.2387e+005 147778 211148,211200,211174
 2.8000e+001 211252  1.9976e+005 -3.0801e+007  9.5577e+006 147778 211148,211226,211200
 2.8000e+001 211427 -4.6142e+006 -6.6481e+006  2.6642e+006 147324 211326,211378,211352
 2.8000e+001 211404  6.7598e+005 -1.9697e+007 -1.9438e+006 147324 211300,211378,211326
 2.8000e+001 211628  1.1422e+003 -1.1728e+004 -2.3227e+002 147012 211452,211504,211478
 2.8000e+001 211605  7.1552e+002 -2.0674e+004 -1.4877e+003 147012 211452,211556,211504
 2.8000e+001 211582  3.5092e+002 -1.6887e+004 -3.2179e+003 147012 211504,211556,211530
 2.8000e+001 211829 -3.1284e+006 -8.7095e+006  3.5737e+006 146636 211679,211757,211731
 2.8000e+001 211806  5.8831e+006 -2.9602e+007 -3.3429e+006 146636 211653,211757,211679
 2.8000e+001 211783  2.1443e+006 -8.6917e+006  4.3223e+006 146636 211679,211731,211705
 2.8000e+001 211981  2.8966e+004 -9.7974e+005  2.3083e+004 146246 211880,211932,211906
 2.8000e+001 211958 -3.6557e+004 -2.9837e+005 -2.9107e+004 146246 211854,211932,211880
 2.8000e+001 212133 -1.0967e+003 -3.8507e+003 -2.2166e+003 145956 212006,212058,212032
 2.8000e+001 212110  1.2039e+003 -1.2102e+004  2.5352e+003 145956 212006,212084,212058
 2.8000e+001 212285 -3.9627e+004 -9.8217e+005  1.6665e+004 145544 212184,212236,212210
 2.8000e+001 212262 -3.5041e+004 -4.4125e+005 -1.9951e+004 145544 212158,212236,212184
 2.8000e+001 212486  6.8942e+005 -1.3289e+007  1.5316e+006 144990 212362,212414,212388
 2.8000e+001 212463  7.0161e+004 -1.0062e+007  3.2049e+006 144990 212310,212414,212362
 2.8000e+001 212440 -1.9812e+006 -4.2002e+006  1.8021e+006 144990 212310,212362,212336
 2.8000e+001 212638 -1.6263e+005 -1.4651e+006  4.4181e+005 144600 212537,212589,212563
 2.8000e+001 212615  5.2086e+004 -6.5798e+005  2.6171e+005 144600 212511,212589,212537
 2.8000e+001 212839 -8.1182e+004 -1.1054e+006 -2.2717e+005 144210 212689,212741,212715
 2.8000e+001 212816 -1.8629e+004 -1.3094e+006 -6.2959e+004 144210 212663,212741,212689
 2.8000e+001 212793  7.7154e+004 -7.9549e+005 -8.3984e+004 144210 212663,212767,212741
 2.8000e+001 212991 -2.9631e+005 -9.7037e+005  2.5923e+005 143920 212890,212942,212916
 2.8000e+001 212968  2.0504e+005 -4.5695e+006 -1.9252e+005 143920 212864,212942,212890
 2.8000e+001 213143 -3.5296e+004 -8.1357e+005  2.5305e+004 143480 213016,213068,213042
 2.8000e+001 213120  2.4218e+004 -7.4233e+005 -3.7332e+004 143480 213016,213094,213068
 2.8000e+001 213295 -8.6013e+005 -5.1450e+006  2.6245e+006 142990 213194,213246,213220
 2.8000e+001 213272 -9.4107e+005 -2.1431e+006  1.4679e+006 142990 213168,213246,213194
 2.8000e+001 213447 -1.4415e+006 -5.0395e+006  1.3214e+006 142600 213320,213372,213346
 2.8000e+001 213424 -2.6906e+006 -2.9640e+006 -1.7326e+005 142600 213320,213398,213372
 2.8000e+001 213599 -2.9975e+005 -1.9348e+006 -5.4313e+005 142260 213472,213524,213498
 2.8000e+001 213576 -1.7991e+005 -2.1808e+006  2.6880e+005 142260 213472,213550,213524
 2.8000e+001 213751 -1.0042e+006 -1.7552e+006  3.6682e+005 141870 213624,213676,213650
 2.8000e+001 213728 -1.6345e+006 -2.0859e+006  6.7067e+005 141870 213624,213702,213676
 2.8000e+001 213903 -2.0121e+006 -5.0974e+006 -2.5096e+006 141530 213776,213828,213802
 2.8000e+001 213880 -7.6050e+005 -5.5847e+006 -1.4983e+006 141530 213776,213854,213828
 2.8000e+001 214055 -1.1577e+003 -1.5562e+004 -4.7251e+000 141218 213928,213980,213954
 2.8000e+001 214032 -1.3436e+003 -3.3584e+004  5.4900e+003 141218 213928,214006,213980
 2.8000e+001 214207 -1.1997e+003 -7.1236e+003 -3.3973e+001 140928 214080,214132,214106
 2.8000e+001 214184 -4.7573e+003 -8.4213e+003  4.7941e+003 140928 214080,214158,214132
 2.8000e+001 214359 -1.8224e+006 -8.6751e+005 -1.6487e+006 140538 214232,214284,214258
 2.8000e+001 214336  8.3952e+005 -4.7362e+006  1.0753e+006 140538 214232,214310,214284
 2.8000e+001 214560 -5.9701e+004 -2.1993e+006  2.3057e+005 140248 214384,214462,214410
 2.8000e+001 214537 -2.2788e+005 -1.6614e+006 -8.8404e+004 140248 214384,214488,214462
 2.8000e+001 214514 -2.2270e+005 -9.8225e+005 -1.8426e+005 140248 214410,214462,214436
 2.8000e+001 214712 -9.7614e+005 -7.2072e+006  1.0031e+006 140000 214611,214663,214637
 2.8000e+001 214689 -1.3178e+006 -4.0792e+006  5.3991e+005 140000 214585,214663,214611
 2.8000e+001 214913 -6.6936e+005 -4.6096e+006 -1.3024e+006 139596 214737,214815,214763
 2.8000e+001 214890 -5.2490e+005 -2.3705e+006 -1.3551e+005 139596 214737,214841,214815
 2.8000e+001 214867  4.9172e+005 -6.9689e+006 -8.6100e+005 139596 214763,214815,214789
 2.8000e+001 215016 -2.2529e+001 -1.8929e+004 -4.8305e+001 139420 214938,214990,214964
 2.8000e+001 215168 -4.8293e+005 -9.5259e+006  1.8346e+006 139130 215067,215119,215093
 2.8000e+001 215145 -1.0362e+006 -9.4923e+006  3.2140e+006 139130 215041,215119,215067
 2.8000e+001 215320 -1.4728e+006 -2.1188e+006  1.1350e+006 138790 215219,215271,215245
 2.8000e+001 215297  4.9564e+005 -1.2137e+007  3.1092e+006 138790 215193,215271,215219
 2.8000e+001 215472 -1.6096e+005 -1.5438e+006  6.2794e+005 138514 215345,215397,215371
 2.8000e+001 215449 -9.9660e+004 -9.2114e+005  1.4436e+005 138514 215345,215423,215397
 2.8000e+001 215624 -1.4408e+005 -9.0909e+006  5.3033e+005 138174 215497,215549,215523
 2.8000e+001 215601 -6.4508e+004 -6.9237e+006  2.2584e+005 138174 215497,215575,215549
 2.8000e+001 215776 -6.9417e+005 -3.1651e+006  1.5339e+006 137734 215649,215701,215675
 2.8000e+001 215753 -6.0282e+005 -2.3231e+006 -5.9895e+004 137734 215649,215727,215701
 2.8000e+001 215977 -1.7093e+006 -1.6098e+007  3.7889e+006 137344 215801,215879,215827
 2.8000e+001 215954  1.1130e+006 -1.0908e+007 -3.1430e+005 137344 215801,215905,215879
 2.8000e+001 215931  2.9333e+006 -2.5455e+007 -2.9968e+006 137344 215827,215879,215853
 2.8000e+001 216129 -4.1710e+005 -8.6409e+006  5.3365e+005 136940 216028,216080,216054
 2.8000e+001 216106 -3.9531e+005 -6.3921e+006 -1.1073e+005 136940 216002,216080,216028
 2.8000e+001 216330 -4.4027e+005 -8.0291e+006  7.7254e+005 136600 216180,216232,216206
 2.8000e+001 216307 -3.9333e+005 -8.1580e+006  1.3048e+006 136600 216154,216232,216180
 2.8000e+001 216284 -1.0601e+006 -6.4386e+006  5.6716e+005 136600 216154,216258,216232
 2.8000e+001 216482  7.3286e+005 -6.3583e+006  3.3205e+005 136260 216381,216433,216407
 2.8000e+001 216459  1.8821e+005 -7.1729e+006 -5.6063e+004 136260 216355,216433,216381
 2.8000e+001 216634 -3.2675e+005 -6.8729e+006  1.6200e+006 135970 216533,216585,216559
 2.8000e+001 216611 -2.3729e+005 -8.5365e+006  1.6606e+006 135970 216507,216585,216533
 2.8000e+001 216835 -1.0620e+006 -5.5024e+006 -2.0483e+005 135608 216685,216763,216711
 2.8000e+001 216812  2.0797e+005 -5.8732e+006 -1.0650e+006 135608 216659,216763,216685
 2.8000e+001 216789 -1.1939e+006 -9.8116e+006  3.9067e+005 135608 216711,216763,216737
 2.8000e+001 217036 -1.2502e+005 -7.0989e+006  1.0877e+006 135312 216912,216964,216938
 2.8000e+001 217013 -2.1657e+005 -8.0093e+006  1.2308e+006 135312 216886,216964,216912
 2.8000e+001 216990 -8.5959e+005 -7.7433e+006  1.1733e+006 135312 216860,216964,216886
 2.8000e+001 217237 -9.2072e+004 -1.2415e+006  2.3174e+005 134908 217061,217139,217113
 2.8000e+001 217214 -3.2841e+005 -1.4347e+006  7.7642e+005 134908 217061,217165,217139
 2.8000e+001 217191 -3.6633e+005 -1.1483e+006  2.4924e+005 134908 217061,217113,217087
 2.8000e+001 217438 -1.4576e+006 -2.2497e+007  1.5172e+006 134568 217288,217366,217314
 2.8000e+001 217415  3.4551e+005 -2.7107e+007  1.4482e+006 134568 217262,217366,217288
 2.8000e+001 217392  1.9595e+005 -1.9648e+007  1.3775e+005 134568 217314,217366,217340
 2.8000e+001 217590 -3.9481e+005 -1.6292e+006  4.7702e+005 134106 217463,217515,217489
 2.8000e+001 217567 -1.1473e+005 -1.4665e+006  3.0897e+005 134106 217463,217541,217515
 2.8000e+001 217791 -3.0807e+006 -3.1587e+007 -1.4831e+007 133816 217641,217693,217667
 2.8000e+001 217768  3.9118e+006 -3.8606e+007  6.8539e+006 133816 217641,217719,217693
 2.8000e+001 217745 -9.3607e+006 -4.3201e+006  6.3358e+006 133816 217615,217719,217641
 2.8000e+001 217992 -2.4698e+006 -5.5504e+006  3.7156e+006 133355 217842,217920,217894
 2.8000e+001 217969  2.3889e+005 -1.4514e+007 -9.9958e+005 133355 217816,217920,217842
 2.8000e+001 217946 -4.3449e+005 -3.3975e+006  6.4049e+005 133355 217842,217894,217868
 2.8000e+001 218193 -2.4671e+005 -5.7305e+006 -4.0638e+006 132851 218017,218095,218069
 2.8000e+001 218170 -2.3423e+006 -1.0064e+007  6.5574e+006 132851 218017,218121,218095
 2.8000e+001 218147 -4.1616e+006 -5.7172e+006 -2.4047e+006 132851 218017,218069,218043
 2.8000e+001 218345 -5.3399e+005 -3.6252e+006  9.6193e+005 132511 218244,218296,218270
 2.8000e+001 218322 -9.8706e+005 -3.1435e+006  4.2742e+005 132511 218218,218296,218244
 2.8000e+001 218497 -2.6687e+005 -3.4138e+007 -3.0962e+006 132235 218396,218448,218422
 2.8000e+001 218474 -2.4106e+006 -9.8400e+006  3.7525e+005 132235 218370,218448,218396
 2.8000e+001 218698 -2.7265e+005 -1.5331e+007  5.7276e+005 131945 218574,218626,218600
 2.8000e+001 218675 -1.2656e+006 -1.9625e+007  6.4851e+005 131945 218522,218626,218574
 2.8000e+001 218652 -1.3330e+006 -1.4603e+007 -8.2966e+005 131945 218522,218574,218548
 2.8000e+001 218850 -7.8003e+005 -2.2343e+007 -2.1803e+006 131655 218723,218775,218749
 2.8000e+001 218827 -1.0025e+006 -1.3509e+007 -6.9548e+005 131655 218723,218801,218775
 2.8000e+001 218953 -4.9651e+005 -5.9603e+006  2.0093e+005 131215 218875,218927,218901
 2.8000e+001 219105 -5.2667e+005 -8.3405e+006 -7.4868e+005 130875 218978,219030,219004
 2.8000e+001 219082 -4.8429e+005 -3.7724e+006  8.5119e+004 130875 218978,219056,219030
 2.8000e+001 219306 -3.3328e+005 -5.8762e+006  1.4685e+005 130429 219156,219234,219208
 2.8000e+001 219283 -5.0057e+005 -3.7206e+006  6.3863e+005 130429 219130,219234,219156
 2.8000e+001 219260 -1.9549e+006 -6.4035e+006  1.5412e+006 130429 219156,219208,219182
 2.8000e+001 219507 -2.7114e+005 -2.7422e+006  3.8455e+005 130025 219383,219435,219409
 2.8000e+001 219484 -2.3168e+005 -3.0393e+006  5.2825e+005 130025 219331,219435,219383
 2.8000e+001 219461 -4.2795e+005 -2.0919e+006  1.4196e+005 130025 219331,219383,219357
 2.8000e+001 219659  1.1996e+005 -1.2673e+007 -9.5825e+004 129685 219558,219610,219584
 2.8000e+001 219636  1.9304e+005 -1.6298e+007 -4.5772e+006 129685 219532,219610,219558
 2.8000e+001 219860 -1.4612e+005 -4.1188e+006  1.1309e+006 129395 219710,219788,219762
 2.8000e+001 219837 -7.4583e+005 -4.1649e+006  7.7205e+005 129395 219684,219788,219710
 2.8000e+001 219814  3.9970e+005 -5.8445e+006 -1.6429e+005 129395 219710,219762,219736
 2.8000e+001 220061  1.8416e+005 -3.7752e+006  3.9504e+005 128991 219937,219989,219963
 2.8000e+001 220038 -4.7431e+004 -4.8563e+006  7.1548e+004 128991 219885,219989,219937
 2.8000e+001 220015  1.6660e+005 -4.3894e+006  4.5301e+005 128991 219885,219937,219911
 2.8000e+001 220262 -3.3907e+005 -3.0374e+006 -4.6429e+001 128701 220086,220164,220112
 2.8000e+001 220239  2.0603e+005 -4.1141e+006  3.5877e+005 128701 220086,220190,220164
 2.8000e+001 220216 -1.3526e+005 -2.6541e+006  5.9890e+005 128701 220112,220164,220138
 2.8000e+001 220463 -3.5391e+006 -1.1387e+007  2.3080e+006 128297 220339,220391,220365
 2.8000e+001 220440  2.0849e+006 -1.9032e+007  8.6618e+005 128297 220313,220391,220339
 2.8000e+001 220417 -2.5409e+005 -2.2613e+007 -4.6567e+006 128297 220287,220391,220313
 2.8000e+001 220615 -2.0693e+006 -6.8997e+006 -1.5918e+006 128007 220488,220540,220514
 2.8000e+001 220592  2.0193e+006 -1.6801e+007 -6.0133e+005 128007 220488,220566,220540
 2.8000e+001 220767  9.3194e+004 -4.0058e+006 -1.9299e+005 127567 220640,220692,220666
 2.8000e+001 220744 -2.6281e+005 -2.0110e+006 -1.1632e+005 127567 220640,220718,220692
 2.8000e+001 220919  6.7540e+005 -1.8892e+007 -1.1317e+006 127163 220792,220844,220818
 2.8000e+001 220896  1.3135e+006 -2.0600e+007  6.5280e+005 127163 220792,220870,220844
 2.8000e+001 221071 -1.0708e+006 -4.3949e+006  1.4505e+006 126915 220970,221022,220996
 2.8000e+001 221048 -1.0729e+006 -4.6510e+006  1.3484e+006 126915 220944,221022,220970
 2.8000e+001 221272 -1.9165e+006 -6.2540e+006  2.6665e+006 126461 221122,221174,221148
 2.8000e+001 221249 -4.7918e+006 -7.7288e+006  1.0366e+005 126461 221122,221200,221174
 2.8000e+001 221226  5.4284e+005 -1.7412e+007 -4.3271e+006 126461 221096,221200,221122
 2.8000e+001 221375  1.9308e+000 -1.4459e+003  3.5182e-001 126213 221297,221349,221323
 2.8000e+001 221478 -1.3139e+001 -1.4088e-001 -1.8066e+000 125766 221400,221452,221426
 2.8000e+001 221679 -8.7784e+004 -2.3938e+006  2.3538e+005 125212 221503,221555,221529
 2.8000e+001 221656 -1.4858e+005 -3.0576e+006  5.2422e+004 125212 221503,221581,221555
 2.8000e+001 221633  2.4785e+005 -5.7143e+006  1.3083e+006 125212 221503,221607,221581
 2.8000e+001 221929 -1.4879e+005 -6.9727e+005  2.5729e+005 124872 221782,221834,221808
 2.8000e+001 221906 -2.0167e+005 -6.9097e+005  3.2709e+005 124872 221756,221834,221782
 2.8000e+001 221883 -1.4143e+005 -1.3466e+006  4.9827e+005 124872 221704,221834,221756
 2.8000e+001 221860 -3.4093e+005 -1.8264e+006  6.9305e+005 124872 221704,221756,221730
 2.8000e+001 222130 -7.2398e+005 -1.1229e+007 -1.6719e+006 124582 221980,222058,222006
 2.8000e+001 222107 -1.6246e+006 -1.1512e+007 -1.8603e+006 124582 221954,222058,221980
 2.8000e+001 222084 -1.8792e+006 -1.2881e+007 -2.4944e+006 124582 222006,222058,222032
 2.8000e+001 222282 -2.8813e+006 -1.4553e+007 -3.6580e+006 124192 222181,222233,222207
 2.8000e+001 222259 -1.0330e+006 -1.4129e+007 -3.4859e+006 124192 222155,222233,222181
 2.8000e+001 222483 -3.0677e+005 -4.7425e+006 -8.2864e+005 123702 222333,222385,222359
 2.8000e+001 222460 -3.3437e+005 -4.3072e+006 -1.7318e+005 123702 222333,222411,222385
 2.8000e+001 222437 -2.4659e+005 -2.1675e+006 -4.2484e+005 123702 222307,222411,222333
 2.8000e+001 222635 -6.3763e+005 -1.8902e+006 -5.6089e+005 123312 222508,222560,222534
 2.8000e+001 222612  3.8938e+005 -7.1096e+006 -3.9817e+005 123312 222508,222586,222560
 2.8000e+001 222787 -2.2658e+005 -2.5817e+006 -8.8082e+004 122858 222686,222738,222712
 2.8000e+001 222764 -3.3326e+005 -2.4308e+006 -6.0410e+005 122858 222660,222738,222686
 2.8000e+001 222939 -6.6728e+004 -1.0043e+006 -7.8803e+003 122568 222812,222864,222838
 2.8000e+001 222916  8.6164e+003 -6.1159e+005  5.1898e+004 122568 222812,222890,222864
 2.8000e+001 223091 -3.0156e+005 -3.6749e+006 -8.6109e+005 122392 222964,223016,222990
 2.8000e+001 223068  5.2976e+005 -4.7386e+006  1.2572e+005 122392 222964,223042,223016
 2.8000e+001 223292 -2.9777e+005 -1.3560e+007 -2.1611e+006 121852 223142,223220,223194
 2.8000e+001 223269 -1.7651e+006 -1.1773e+007 -1.0734e+006 121852 223116,223220,223142
 2.8000e+001 223246 -3.9303e+005 -1.3519e+007 -2.3053e+006 121852 223142,223194,223168
 2.8000e+001 223493 -1.1173e+006 -1.1732e+007  3.7507e+005 121406 223343,223395,223369
 2.8000e+001 223470 -2.0641e+006 -8.8718e+006 -2.0442e+006 121406 223343,223421,223395
 2.8000e+001 223447 -1.3433e+006 -6.2828e+006  2.4708e+006 121406 223317,223421,223343
 2.8000e+001 223645  3.0322e+005 -1.1873e+007  5.2377e+005 121002 223544,223596,223570
 2.8000e+001 223622 -1.5766e+006 -4.9516e+006  1.0512e+006 121002 223518,223596,223544
 2.8000e+001 223846 -1.9106e+005 -1.0342e+007  2.7138e+005 120662 223670,223748,223696
 2.8000e+001 223823  7.9335e+005 -6.5923e+006 -7.3053e+004 120662 223670,223774,223748
 2.8000e+001 223800 -1.2247e+006 -4.5433e+006 -1.3392e+006 120662 223696,223748,223722
 2.8000e+001 224047 -5.0735e+005 -5.4634e+006  1.4094e+006 120222 223897,223949,223923
 2.8000e+001 224024  2.7558e+005 -7.1295e+006 -6.8678e+005 120222 223871,223949,223897
 2.8000e+001 224001 -1.6680e+005 -7.6352e+006 -3.9904e+005 120222 223871,223975,223949
 2.8000e+001 224248  8.6394e+005 -6.0274e+006 -5.5092e+005 119875 224124,224176,224150
 2.8000e+001 224225 -1.1183e+006 -1.3317e+007 -1.9099e+006 119875 224098,224176,224124
 2.8000e+001 224202 -5.7638e+005 -2.4086e+006  1.2920e+005 119875 224072,224176,224098
 2.8000e+001 224449 -2.4082e+005 -5.5072e+006 -3.3294e+005 119677 224325,224377,224351
 2.8000e+001 224426 -6.8199e+005 -7.2793e+006 -1.4723e+005 119677 224299,224377,224325
 2.8000e+001 224403 -4.0008e+005 -5.1389e+006  3.4674e+004 119677 224273,224377,224299
 2.8000e+001 224552 -6.5576e+005 -4.2926e+006 -8.7277e+004 119273 224474,224526,224500
 2.8000e+001 224704 -1.9052e+006 -1.5481e+007 -2.9787e+006 118983 224603,224655,224629
 2.8000e+001 224681 -1.3012e+006 -1.3822e+007 -1.8802e+006 118983 224577,224655,224603
 2.8000e+001 224856 -5.8670e+005 -1.1291e+007 -5.3519e+005 118529 224755,224807,224781
 2.8000e+001 224833  2.0799e+005 -1.5711e+007 -1.6515e+006 118529 224729,224807,224755
 2.8000e+001 225008 -4.9277e+005 -8.7373e+006  6.8984e+004 118353 224881,224933,224907
 2.8000e+001 224985 -2.7061e+005 -4.3195e+006  3.6660e+003 118353 224881,224959,224933
 2.8000e+001 225209 -5.6078e+005 -8.4839e+006 -5.9006e+005 117949 225059,225137,225111
 2.8000e+001 225186 -4.5609e+005 -8.6442e+006 -1.0457e+006 117949 225033,225137,225059
 2.8000e+001 225163  1.2107e+005 -1.0156e+007  2.1106e+004 117949 225059,225111,225085
 2.8000e+001 225410  6.2392e+004 -8.0483e+006  8.0354e+005 117559 225260,225338,225312
 2.8000e+001 225387 -3.5599e+005 -8.2058e+006  6.1809e+005 117559 225234,225338,225260
 2.8000e+001 225364 -6.8598e+005 -5.6589e+006 -1.9722e+006 117559 225260,225312,225286
 2.8000e+001 225611 -1.3299e+006 -1.2066e+007 -6.0725e+006 117361 225461,225513,225487
 2.8000e+001 225588  1.8847e+006 -1.2528e+007  1.2445e+006 117361 225461,225539,225513
 2.8000e+001 225565 -2.4983e+006 -7.3493e+006  4.4786e+006 117361 225435,225539,225461
 2.8000e+001 225812  1.6983e+005 -7.9690e+006 -3.8593e+005 116900 225636,225714,225662
 2.8000e+001 225789  8.0456e+005 -8.7493e+006 -4.9408e+005 116900 225636,225740,225714
 2.8000e+001 225766 -5.5041e+004 -7.9666e+006 -6.6138e+005 116900 225662,225714,225688
 2.8000e+001 225964 -2.5254e+005 -6.6819e+006 -9.1694e+004 116560 225837,225889,225863
 2.8000e+001 225941  1.0800e+005 -8.3928e+006  1.3416e+005 116560 225837,225915,225889
 2.8000e+001 226165  7.9054e+004 -9.0695e+006 -1.4767e+005 116106 226015,226093,226041
 2.8000e+001 226142  3.8045e+005 -1.1285e+007 -3.1629e+006 116106 225989,226093,226015
 2.8000e+001 226119 -2.6499e+006 -4.8329e+006  2.4955e+005 116106 226041,226093,226067
 2.8000e+001 226268 -1.7732e+006 -1.1538e+007  3.5205e+005 115716 226190,226242,226216
 2.8000e+001 226420  3.7212e+005 -8.9479e+006  1.8786e+006 115376 226293,226345,226319
 2.8000e+001 226397  3.6093e+005 -8.5549e+006  1.1823e+006 115376 226293,226371,226345
 2.8000e+001 226621  2.4567e+005 -5.0539e+006  5.8763e+005 114972 226497,226549,226523
 2.8000e+001 226598 -4.1624e+005 -1.1467e+007 -5.8694e+005 114972 226445,226549,226497
 2.8000e+001 226575  2.7752e+005 -6.3977e+006  6.9386e+005 114972 226445,226497,226471
 2.8000e+001 226773 -1.1825e+006 -5.2042e+006 -8.1222e+005 114670 226646,226698,226672
 2.8000e+001 226750  5.3958e+005 -8.9988e+006  5.0622e+005 114670 226646,226724,226698
 2.8000e+001 226974  8.4272e+004 -3.3800e+006 -4.4556e+005 114082 226798,226850,226824
 2.8000e+001 226951  1.6570e+005 -4.1467e+006 -1.7494e+005 114082 226798,226902,226850
 2.8000e+001 226928  4.6515e+004 -5.6444e+006 -5.7334e+005 114082 226850,226902,226876
 2.8000e+001 227175 -8.2292e+005 -6.2003e+006 -9.1196e+005 113678 226999,227051,227025
 2.8000e+001 227152 -1.8143e+006 -8.2155e+006 -2.1571e+006 113678 226999,227077,227051
 2.8000e+001 227129 -6.1236e+005 -1.1979e+007 -3.3234e+006 113678 226999,227103,227077
 2.8000e+001 227425 -2.7889e+003 -1.0880e+007 -2.0200e+005 113274 227226,227278,227252
 2.8000e+001 227402  6.4654e+005 -1.0689e+007 -3.7727e+006 113274 227226,227330,227278
 2.8000e+001 227379 -1.9820e+004 -8.9543e+006 -3.5437e+006 113274 227200,227330,227226
 2.8000e+001 227356 -6.0362e+006 -1.3826e+006 -9.0458e+005 113274 227278,227330,227304
 2.8000e+001 227626  3.6334e+005 -4.7653e+006 -6.9049e+005 112934 227502,227554,227528
 2.8000e+001 227603 -9.6413e+004 -3.8556e+006 -1.6256e+005 112934 227450,227554,227502
 2.8000e+001 227580 -1.0718e+006 -4.8407e+006 -8.6107e+005 112934 227450,227502,227476
 2.8000e+001 227876 -6.4609e+004 -3.1591e+006 -1.6541e+005 112437 227677,227755,227703
 2.8000e+001 227853 -9.7233e+005 -3.5721e+006  1.3206e+006 112437 227677,227781,227755
 2.8000e+001 227830 -4.9711e+005 -1.5043e+006  7.8562e+005 112437 227703,227755,227729
 2.8000e+001 227807 -4.7671e+005 -8.1127e+006 -3.3132e+005 112437 227651,227781,227677
 2.8000e+001 228126 -1.0434e+006 -4.9278e+006  6.6517e+005 112041 227927,228005,227953
 2.8000e+001 228103 -3.6927e+005 -8.6855e+006 -1.5591e+006 112041 227927,228031,228005
 2.8000e+001 228080 -1.4836e+006 -5.9887e+006  3.2938e+005 112041 227953,228005,227979
 2.8000e+001 228057 -1.4954e+005 -7.0764e+006 -1.3552e+006 112041 227901,228031,227927
 2.8000e+001 228327 -9.2306e+005 -6.5591e+006 -7.7173e+005 111693 228151,228203,228177
 2.8000e+001 228304 -4.3942e+005 -3.6343e+006 -1.2785e+006 111693 228151,228229,228203
 2.8000e+001 228281  6.6380e+005 -6.7144e+006  9.7438e+005 111693 228151,228255,228229
 2.8000e+001 228479 -3.6709e+006 -1.5394e+007 -6.4689e+006 111253 228352,228404,228378
 2.8000e+001 228456 -3.4041e+006 -9.8355e+006 -1.4871e+006 111253 228352,228430,228404
 2.8000e+001 228582  5.2577e+000 -6.9149e+004 -1.1035e+002 110906 228504,228556,228530
 2.8000e+001 228783 -2.2126e+005 -2.6178e+006  8.4425e+005 110416 228633,228711,228659
 2.8000e+001 228760 -2.4966e+005 -1.4566e+006  3.6300e+005 110416 228607,228711,228633
 2.8000e+001 228737 -4.6757e+005 -3.4612e+006  1.0063e+006 110416 228659,228711,228685
 2.8000e+001 228935 -2.1946e+005 -3.7985e+006 -1.0420e+005 110012 228808,228860,228834
 2.8000e+001 228912 -5.6294e+005 -8.1145e+006 -8.2060e+005 110012 228808,228886,228860
 2.8000e+001 229087 -1.1299e+006 -3.3210e+006 -1.4401e+006 109672 228960,229012,228986
 2.8000e+001 229064 -6.5122e+005 -7.3285e+006 -5.9293e+004 109672 228960,229038,229012
 2.8000e+001 229190  2.8254e+004 -7.7589e+005 -5.8871e+004 109332 229112,229164,229138
 2.8000e+001 229391  4.5010e+004 -1.4710e+005 -6.8069e+003 109156 229267,229319,229293
 2.8000e+001 229368 -4.4696e+004 -4.7571e+005 -6.1368e+004 109156 229215,229319,229267
 2.8000e+001 229345  3.1892e+004 -1.1406e+005 -1.2154e+004 109156 229215,229267,229241
 2.8000e+001 229543  7.6688e+004 -1.0788e+007  7.8850e+005 108752 229416,229468,229442
 2.8000e+001 229520 -5.0601e+005 -1.1412e+007  1.1591e+006 108752 229416,229494,229468
 2.8000e+001 229744 -2.1056e+005 -8.4542e+006  2.0463e+005 108198 229594,229646,229620
 2.8000e+001 229721 -1.1790e+006 -8.7792e+006  1.1443e+006 108198 229594,229672,229646
 2.8000e+001 229698  4.0882e+005 -1.2202e+007 -7.2865e+005 108198 229568,229672,229594
 2.8000e+001 229847 -1.7215e+004 -4.3490e+005 -9.3390e+004 107758 229769,229821,229795
 2.8000e+001 230048 -9.8834e+005 -3.8195e+006 -7.9151e+005 107468 229898,229950,229924
 2.8000e+001 230025 -5.1593e+005 -3.2337e+006  2.0288e+005 107468 229872,229950,229898
 2.8000e+001 230002 -1.0962e+006 -3.7111e+006  5.9149e+005 107468 229872,229976,229950
 2.8000e+001 230298 -1.9885e+004 -2.8600e+006  6.2230e+005 107121 230099,230203,230177
 2.8000e+001 230275 -7.5115e+005 -1.3027e+006  3.0295e+005 107121 230073,230203,230099
 2.8000e+001 230252 -5.5784e+005 -3.4645e+006 -8.7975e+005 107121 230099,230177,230151
 2.8000e+001 230229 -1.6271e+004 -4.5588e+006  5.6978e+004 107121 230099,230151,230125
 2.8000e+001 230450  3.6536e+005 -4.1212e+006 -4.4411e+005 106823 230349,230401,230375
 2.8000e+001 230427 -2.6492e+005 -9.0723e+005  2.5473e+005 106823 230323,230401,230349
 2.8000e+001 230602 -7.7577e+005 -9.7370e+006 -2.1644e+006 106533 230501,230553,230527
 2.8000e+001 230579 -1.1002e+006 -1.0842e+007 -4.1446e+006 106533 230475,230553,230501
 2.8000e+001 230803 -2.7850e+005 -1.0122e+006  1.5589e+005 106029 230679,230731,230705
 2.8000e+001 230780 -3.6394e+005 -1.5980e+006  7.2072e+005 106029 230653,230731,230679
 2.8000e+001 230757  9.1960e+005 -4.9107e+006  6.3377e+005 106029 230627,230731,230653
 2.8000e+001 231004 -1.9874e+005 -3.9219e+006  2.8613e+005 105689 230854,230906,230880
 2.8000e+001 230981  3.4840e+005 -4.4540e+006 -3.5026e+005 105689 230828,230906,230854
 2.8000e+001 230958 -7.0537e+005 -3.0504e+006 -1.4656e+006 105689 230828,230932,230906
 2.8000e+001 231156 -1.2789e+006 -4.5461e+006  1.3802e+006 105377 231055,231107,231081
 2.8000e+001 231133  1.3192e+006 -1.6008e+007 -1.8248e+006 105377 231029,231107,231055
 2.8000e+001 231406 -3.6312e+005 -9.2458e+006 -2.3423e+005 104858 231207,231259,231233
 2.8000e+001 231383 -1.6638e+006 -9.0257e+006 -8.8165e+005 104858 231207,231311,231259
 2.8000e+001 231360 -1.0157e+006 -1.4688e+007 -1.6843e+006 104858 231259,231311,231285
 2.8000e+001 231337 -1.9466e+005 -1.2710e+007 -1.7037e+006 104858 231181,231311,231207
 2.8000e+001 231558 -7.0393e+005 -5.2695e+006  2.6895e+006 104418 231457,231509,231483
 2.8000e+001 231535 -3.1456e+005 -5.3188e+006  6.5610e+005 104418 231431,231509,231457
 2.8000e+001 231710 -4.3940e+005 -2.9615e+006 -2.8891e+005 103978 231583,231635,231609
 2.8000e+001 231687 -5.8071e+005 -1.7583e+006 -3.1982e+005 103978 231583,231661,231635
 2.8000e+001 231862 -1.0575e+004 -4.7498e+005 -4.2462e+004 103588 231761,231813,231787
 2.8000e+001 231839  4.3547e+002 -4.2402e+005 -4.3111e+004 103588 231735,231813,231761
 2.8000e+001 232014 -2.9132e+006 -7.4326e+006 -2.7185e+006 103248 231887,231939,231913
 2.8000e+001 231991  7.8068e+005 -2.1503e+007 -6.0130e+006 103248 231887,231965,231939
 2.8000e+001 232215 -2.1661e+005 -3.4888e+006  6.2653e+005 102844 232039,232117,232065
 2.8000e+001 232192  8.2930e+004 -4.1087e+006 -2.0308e+005 102844 232039,232143,232117
 2.8000e+001 232169 -2.7756e+005 -2.1352e+006 -3.1008e+005 102844 232065,232117,232091
 2.8000e+001 232416 -4.1025e+006 -1.1380e+007 -3.5630e+006 102554 232240,232318,232292
 2.8000e+001 232393  1.0949e+006 -1.6941e+007 -2.1138e+005 102554 232240,232344,232318
 2.8000e+001 232370 -4.4888e+006 -5.0442e+006 -1.4996e+006 102554 232240,232292,232266
 2.8000e+001 232568  2.6280e+005 -4.7452e+006  9.6291e+005 102100 232441,232493,232467
 2.8000e+001 232545  9.4020e+004 -4.3295e+006  2.6391e+004 102100 232441,232519,232493
 2.8000e+001 232769 -2.3460e+005 -2.1536e+006 -3.3254e+005 101596 232645,232697,232671
 2.8000e+001 232746 -2.2710e+005 -2.0795e+006 -4.7491e+005 101596 232593,232697,232645
 2.8000e+001 232723  2.4830e+005 -5.3896e+006 -6.1781e+005 101596 232593,232645,232619
 2.8000e+001 232921 -4.4307e+002 -5.4546e+003 -1.9914e+001 101420 232794,232846,232820
 2.8000e+001 232898 -2.9708e+002 -2.3537e+003  3.5734e+002 101420 232794,232872,232846
 2.8000e+001 233073 -1.0302e+006 -3.9772e+006 -6.1128e+005 101023 232946,232998,232972
 2.8000e+001 233050  1.1549e+005 -6.6978e+006  1.4418e+006 101023 232946,233024,232998
 2.8000e+001 233225 -3.8686e+005 -3.3835e+006  3.9324e+003 100661 233098,233150,233124
 2.8000e+001 233202  3.3788e+005 -7.0783e+006  2.4850e+005 100661 233098,233176,233150
 2.8000e+001 233426 -1.2488e+006 -7.8999e+006 -2.2599e+006 100265 233276,233328,233302
 2.8000e+001 233403 -1.4365e+006 -7.1677e+006 -2.3675e+005 100265 233276,233354,233328
 2.8000e+001 233380 -1.4172e+006 -1.1872e+007 -1.1802e+006 100265 233250,233354,233276
 2.8000e+001 233578 -6.9926e+001 -6.4688e+004 -1.6100e+003 100032 233451,233503,233477
 2.8000e+001 233555 -2.6248e+004 -7.2747e+004  2.4402e+004 100032 233451,233529,233503
 2.8000e+001 233681 -1.0831e+005 -6.8976e+004  7.2045e+004 99742 233603,233655,233629
 2.8000e+001 233784 -5.6644e+005 -3.6007e+006  4.1270e+005 99402 233706,233758,233732
 2.8000e+001 233936 -7.6243e+005 -3.3365e+006  4.4579e+005 99062 233835,233887,233861
 2.8000e+001 233913 -4.3726e+005 -1.8805e+006 -1.4762e+005 99062 233809,233887,233835
 2.8000e+001 234088 -2.4114e+005 -4.3171e+006 -1.5045e+005 98772 233987,234039,234013
 2.8000e+001 234065 -1.4317e+006 -4.4349e+006  3.3662e+006 98772 233961,234039,233987
 2.8000e+001 234240 -2.7060e+004 -6.5994e+005  1.2544e+005 98160 234139,234191,234165
 2.8000e+001 234217  2.1048e+004 -4.5567e+005  1.2058e+005 98160 234113,234191,234139
 2.8000e+001 234441 -2.5836e+004 -1.7598e+006  3.5510e+004 97820 234317,234369,234343
 2.8000e+001 234418 -6.4042e+003 -1.6847e+006  5.4362e+004 97820 234291,234369,234317
 2.8000e+001 234395  1.6128e+005 -2.3369e+006  4.8920e+003 97820 234265,234369,234291
 2.8000e+001 234593 -3.2457e+005 -2.4114e+006  3.4211e+004 97366 234466,234518,234492
 2.8000e+001 234570 -2.2458e+005 -4.4974e+006  1.7552e+005 97366 234466,234544,234518
 2.8000e+001 234794 -5.8827e+005 -1.1183e+006 -5.1524e+005 96976 234618,234670,234644
 2.8000e+001 234771  5.9788e+004 -3.8033e+006  1.0927e+004 96976 234618,234722,234670
 2.8000e+001 234748 -5.2543e+004 -2.3139e+006 -6.3315e+005 96976 234670,234722,234696
 2.8000e+001 234946 -8.1379e+005 -2.9909e+006  1.2516e+006 96568 234845,234897,234871
 2.8000e+001 234923 -5.6959e+005 -1.6432e+006  9.8434e+005 96568 234819,234897,234845
 2.8000e+001 235196  1.0978e+004 -1.5536e+006  3.9082e+005 96216 234997,235075,235049
 2.8000e+001 235173 -6.2689e+005 -4.4841e+006  1.6680e+006 96216 234997,235101,235075
 2.8000e+001 235150 -8.1510e+005 -3.7916e+006  1.1267e+006 96216 234997,235049,235023
 2.8000e+001 235127 -1.4918e+005 -5.8040e+006 -1.9498e+006 96216 234971,235101,234997
 2.8000e+001 235348 -1.4367e+006 -3.0314e+006 -1.1205e+006 95863 235247,235299,235273
 2.8000e+001 235325 -1.1161e+006 -1.6866e+006 -1.0186e+006 95863 235221,235299,235247
 2.8000e+001 235500 -1.7245e+006 -2.8959e+006 -2.6209e+006 95339 235373,235425,235399
 2.8000e+001 235477 -5.8959e+005 -7.0535e+006  3.8383e+006 95339 235373,235451,235425
 2.8000e+001 235701 -4.6780e+005 -3.8513e+006  1.6901e+006 95023 235525,235577,235551
 2.8000e+001 235678 -2.9915e+004 -1.4738e+006 -1.6897e+005 95023 235525,235629,235577
 2.8000e+001 235655 -5.2129e+005 -1.3134e+006 -1.0530e+001 95023 235577,235629,235603
 2.8000e+001 235853  8.8423e+005 -9.6925e+006  1.0650e+006 94671 235726,235778,235752
 2.8000e+001 235830 -2.8838e+005 -7.5050e+006 -5.7701e+005 94671 235726,235804,235778
 2.8000e+001 236005 -1.1798e+006 -7.1545e+006 -8.3145e+005 94261 235904,235956,235930
 2.8000e+001 235982 -1.8408e+006 -8.5420e+006 -2.0873e+006 94261 235878,235956,235904
 2.8000e+001 236206 -7.3707e+005 -1.3357e+006  1.2637e+006 93853 236056,236134,236082
 2.8000e+001 236183 -3.8206e+005 -1.2896e+006  3.5891e+005 93853 236030,236134,236056
 2.8000e+001 236160 -8.7938e+004 -3.2135e+006  1.0257e+006 93853 236082,236134,236108
 2.8000e+001 236407 -7.0076e+005 -6.2734e+006  2.2051e+003 93557 236257,236309,236283
 2.8000e+001 236384 -2.1214e+006 -7.0118e+006 -1.7941e+006 93557 236231,236309,236257
 2.8000e+001 236361 -7.0733e+005 -1.1494e+007 -3.5531e+005 93557 236231,236335,236309
 2.8000e+001 236559 -1.9325e+005 -8.4763e+005 -2.0953e+003 93149 236432,236484,236458
 2.8000e+001 236536 -9.3737e+004 -4.1640e+005  3.3737e+004 93149 236432,236510,236484
 2.8000e+001 236711 -2.9320e+005 -1.5665e+006  6.1935e+005 92853 236584,236636,236610
 2.8000e+001 236688 -1.0642e+005 -9.1283e+005  4.0453e+005 92853 236584,236662,236636
 2.8000e+001 236912 -2.1590e+005 -4.0544e+006  1.3912e+006 92501 236736,236788,236762
 2.8000e+001 236889 -4.1499e+005 -2.5044e+006  5.1850e+005 92501 236736,236840,236788
 2.8000e+001 236866 -6.5553e+005 -3.3180e+006  6.6358e+005 92501 236788,236840,236814
 2.8000e+001 237113 -2.3784e+005 -4.1924e+006  2.5559e+005 92291 236963,237041,237015
 2.8000e+001 237090  6.4941e+003 -2.9058e+006  2.9028e+005 92291 236937,237041,236963
 2.8000e+001 237067 -2.0077e+005 -3.8247e+006  8.7633e+005 92291 236963,237015,236989
 2.8000e+001 237265  1.2639e+005 -6.8882e+005 -2.3311e+005 91871 237138,237190,237164
 2.8000e+001 237242 -3.0425e+005 -1.6087e+006 -5.7566e+005 91871 237138,237216,237190
 2.8000e+001 237368  5.8627e+002 -2.8247e+006 -3.9445e+002 91581 237290,237342,237316
 2.8000e+001 237520 -1.1113e+005 -6.8486e+005  2.3034e+005 91184 237419,237471,237445
 2.8000e+001 237497 -2.1394e+005 -8.1496e+005  1.2093e+005 91184 237393,237471,237419
 2.8000e+001 237672 -3.8785e+005 -2.9069e+006  8.9226e+005 90894 237545,237597,237571
 2.8000e+001 237649 -1.3709e+005 -2.3119e+006  5.7729e+005 90894 237545,237623,237597
 2.8000e+001 237873 -1.1356e+006 -4.7151e+006  7.4368e+005 90490 237749,237801,237775
 2.8000e+001 237850 -5.4488e+005 -4.3631e+006  1.2542e+006 90490 237723,237801,237749
 2.8000e+001 237827 -8.1916e+005 -4.4317e+006 -1.0341e+006 90490 237697,237801,237723
 2.8000e+001 238074 -6.9021e+005 -6.4458e+006  5.7870e+004 90100 237898,237976,237950
 2.8000e+001 238051 -2.1264e+006 -6.7369e+006  9.0639e+004 90100 237898,238002,237976
 2.8000e+001 238028 -6.4993e+005 -5.8076e+006  3.4962e+004 90100 237898,237950,237924
 2.8000e+001 238275 -5.5114e+005 -3.6634e+006  3.9586e+005 89696 238125,238177,238151
 2.8000e+001 238252 -2.6928e+005 -3.2217e+006 -3.4748e+005 89696 238099,238177,238125
 2.8000e+001 238229 -2.3580e+005 -3.2625e+006 -3.6415e+005 89696 238099,238203,238177
 2.8000e+001 238427  3.4591e+004 -1.2137e+005 -4.8022e+004 89206 238326,238378,238352
 2.8000e+001 238404 -4.4709e+004 -7.0535e+005 -1.2726e+005 89206 238300,238378,238326
 2.8000e+001 238579 -1.3236e+006 -5.2114e+006  1.7271e+006 88908 238452,238504,238478
 2.8000e+001 238556 -2.7815e+005 -4.3983e+006  4.4247e+005 88908 238452,238530,238504
 2.8000e+001 238682 -5.5292e+000 -4.9394e+005 -1.3953e+001 88568 238604,238656,238630
 2.8000e+001 238883  8.9785e+004 -5.6213e+006  1.3910e+006 88278 238733,238811,238785
 2.8000e+001 238860 -5.3768e+005 -3.8898e+006  1.2498e+006 88278 238707,238811,238733
 2.8000e+001 238837 -2.0025e+005 -5.8296e+006  1.0802e+006 88278 238733,238785,238759
 2.8000e+001 239035 -9.7458e+005 -5.8478e+006 -2.8544e+005 87988 238908,238960,238934
 2.8000e+001 239012 -1.3590e+006 -3.9384e+006  6.5504e+005 87988 238908,238986,238960
 2.8000e+001 239138  1.4643e+005 -9.0815e+005  1.9972e+005 87648 239060,239112,239086
 2.8000e+001 239339 -9.6499e+005 -3.3257e+006 -1.8688e+006 87358 239163,239215,239189
 2.8000e+001 239316 -9.8045e+005 -2.4036e+006 -6.0601e+005 87358 239163,239241,239215
 2.8000e+001 239293 -9.0129e+005 -1.2687e+006 -1.0602e+006 87358 239163,239267,239241
 2.8000e+001 239589 -6.6169e+002 -2.7134e+003 -5.4388e+002 86961 239390,239468,239416
 2.8000e+001 239566 -2.3947e+003 -4.6021e+003 -3.1051e+003 86961 239390,239494,239468
 2.8000e+001 239543 -1.0670e+003 -9.3376e+002 -9.2131e+002 86961 239416,239468,239442
 2.8000e+001 239520  1.7144e+003 -1.4096e+004 -4.6555e+003 86961 239364,239494,239390
 2.8000e+001 239741 -1.2080e+006 -4.3180e+006 -3.2161e+005 86621 239640,239692,239666
 2.8000e+001 239718 -6.6901e+005 -5.8731e+006 -1.4010e+006 86621 239614,239692,239640
 2.8000e+001 239893 -3.8423e+005 -5.4279e+006  1.2433e+006 86217 239792,239844,239818
 2.8000e+001 239870 -4.8872e+005 -4.5487e+006  8.0252e+005 86217 239766,239844,239792
 2.8000e+001 240045 -6.5156e+005 -4.9203e+006  3.4525e+005 85827 239918,239970,239944
 2.8000e+001 240022 -1.9946e+005 -4.8024e+006  2.0733e+005 85827 239918,239996,239970
 2.8000e+001 240197 -6.2669e+005 -7.6506e+006  8.8024e+005 85437 240096,240148,240122
 2.8000e+001 240174 -1.5043e+006 -2.8333e+006 -4.4599e+005 85437 240070,240148,240096
 2.8000e+001 240349 -2.4169e+005 -1.7548e+006  6.4199e+005 85147 240222,240274,240248
 2.8000e+001 240326 -3.8783e+005 -1.3121e+006  2.1772e+005 85147 240222,240300,240274
 2.8000e+001 240501 -6.5453e+005 -2.2899e+006  1.0823e+006 84807 240374,240426,240400
 2.8000e+001 240478 -1.0199e+006 -1.8175e+006  5.5487e+005 84807 240374,240452,240426
 2.8000e+001 240653 -1.0573e+004 -3.2131e+005 -5.6624e+004 84303 240552,240604,240578
 2.8000e+001 240630 -9.4501e+003 -3.1656e+005 -5.6345e+004 84303 240526,240604,240552
 2.8000e+001 240854 -7.4252e+004 -1.1514e+007 -4.9208e+006 83929 240704,240756,240730
 2.8000e+001 240831  1.5721e+006 -9.5181e+006  2.1412e+006 83929 240704,240782,240756
 2.8000e+001 240808 -3.1153e+006  1.4344e+006  2.5844e+006 83929 240678,240782,240704
 2.8000e+001 241055  7.4740e+002 -3.9152e+004 -7.3438e+003 83539 240879,240957,240931
 2.8000e+001 241032  1.9102e+003 -4.0526e+004 -4.7695e+003 83539 240879,240983,240957
 2.8000e+001 241009 -1.0953e+004 -6.1638e+003 -8.3785e+003 83539 240879,240931,240905
 2.8000e+001 241207 -1.1199e+004 -1.8798e+006  4.5182e+005 83079 241106,241158,241132
 2.8000e+001 241184 -1.4496e+005 -1.0829e+006  5.1840e+005 83079 241080,241158,241106
 2.8000e+001 241408  1.1469e+006 -4.6461e+006  5.8175e+005 82665 241232,241284,241258
 2.8000e+001 241385 -1.7630e+006 -1.3787e+007 -4.1099e+006 82665 241232,241336,241284
 2.8000e+001 241362 -4.3524e+006  5.2313e+006  7.2694e+006 82665 241284,241336,241310
 2.8000e+001 241658 -2.2214e+005 -3.6973e+006  3.1754e+005 82375 241485,241563,241511
 2.8000e+001 241635  1.9141e+004 -2.7853e+006  4.0886e+005 82375 241433,241563,241485
 2.8000e+001 241612 -8.4156e+004 -3.1466e+006  4.7066e+005 82375 241433,241485,241459
 2.8000e+001 241589 -4.1397e+005 -4.4244e+006  5.6930e+005 82375 241511,241563,241537
 2.8000e+001 241810 -6.4511e+005 -3.7245e+006  2.1309e+005 82035 241683,241735,241709
 2.8000e+001 241787 -6.1255e+005 -3.8930e+006  4.5143e+005 82035 241683,241761,241735
 2.8000e+001 241962 -8.5650e+005 -3.6348e+006  4.2391e+005 81695 241861,241913,241887
 2.8000e+001 241939 -6.8301e+005 -4.2624e+006 -6.8155e+005 81695 241835,241913,241861
 2.8000e+001 242114 -8.7358e+005 -6.0382e+006  1.8447e+006 81355 242013,242065,242039
 2.8000e+001 242091 -3.6543e+005 -4.4057e+006  1.1641e+006 81355 241987,242065,242013
 2.8000e+001 242266 -1.0083e+005 -4.6759e+005 -1.0235e+005 80951 242139,242191,242165
 2.8000e+001 242243 -1.3974e+005 -6.5886e+005 -6.0867e+003 80951 242139,242217,242191
 2.8000e+001 242467 -2.6870e+005 -4.4802e+006  5.9832e+005 80311 242291,242369,242343
 2.8000e+001 242444  8.4937e+004 -3.1917e+006  4.3692e+005 80311 242291,242395,242369
 2.8000e+001 242421 -3.3293e+005 -2.9124e+006  2.4402e+005 80311 242291,242343,242317
 2.8000e+001 242619 -1.4503e+006 -3.2206e+006  4.1037e+005 80021 242492,242544,242518
 2.8000e+001 242596 -1.3302e+006 -2.8568e+006  1.2740e+006 80021 242492,242570,242544
 2.8000e+001 242869 -3.0443e+005 -1.4463e+006  4.4233e+005 79631 242644,242722,242696
 2.8000e+001 242846 -2.0181e+005 -1.3773e+006  3.8976e+005 79631 242644,242774,242722
 2.8000e+001 242823 -3.0119e+005 -1.8168e+006  3.5749e+005 79631 242722,242774,242748
 2.8000e+001 242800 -3.8556e+005 -1.9128e+006  5.5604e+005 79631 242644,242696,242670
 2.8000e+001 243070 -1.1662e+005 -1.4176e+007  2.8538e+006 79341 242920,242972,242946
 2.8000e+001 243047 -8.7995e+005 -8.3082e+006 -3.2016e+004 79341 242920,242998,242972
 2.8000e+001 243024 -1.0071e+006 -5.6471e+006  2.3849e+006 79341 242894,242998,242920
 2.8000e+001 243222 -2.6557e+005 -3.2498e+006  1.1865e+006 78801 243121,243173,243147
 2.8000e+001 243199 -7.5740e+005 -4.8712e+006  1.7321e+006 78801 243095,243173,243121
 2.8000e+001 243423 -6.1472e+005 -4.8475e+006 -8.0964e+005 78511 243273,243325,243299
 2.8000e+001 243400  1.8609e+005 -9.0005e+006  1.4193e+006 78511 243273,243351,243325
 2.8000e+001 243377 -4.2655e+003 -9.1235e+006  2.3371e+005 78511 243247,243351,243273
 2.8000e+001 243624 -3.7922e+005 -3.0674e+006 -5.0328e+005 78107 243474,243552,243526
 2.8000e+001 243601 -5.3117e+005 -2.5718e+006 -8.3307e+005 78107 243448,243552,243474
 2.8000e+001 243578 -1.0289e+006 -4.5563e+006 -1.8863e+006 78107 243474,243526,243500
 2.8000e+001 243776 -7.6553e+005 -3.8686e+006 -8.8396e+005 77653 243649,243701,243675
 2.8000e+001 243753 -1.7913e+006 -7.5080e+006 -3.5175e+005 77653 243649,243727,243701
 2.8000e+001 243977 -5.2736e+005 -5.5700e+006  3.8788e+003 77093 243801,243853,243827
 2.8000e+001 243954 -1.4781e+005 -4.3895e+006  6.2325e+005 77093 243801,243879,243853
 2.8000e+001 243931  6.5095e+004 -3.4126e+006  2.4913e+005 77093 243801,243905,243879
 2.8000e+001 244080 -1.6505e+006 -5.0305e+006  1.0818e+005 76791 244002,244054,244028
 2.8000e+001 244232 -8.1234e+004 -4.8407e+006  6.5930e+004 76311 244131,244183,244157
 2.8000e+001 244209  1.5452e+005 -8.5875e+006  6.3953e+005 76311 244105,244183,244131
 2.8000e+001 244433 -1.4002e+006 -1.5701e+007  2.4012e+006 75903 244283,244335,244309
 2.8000e+001 244410 -5.0633e+005 -1.3001e+007  4.3660e+005 75903 244283,244361,244335
 2.8000e+001 244387 -2.5475e+006 -9.5602e+006  3.0030e+006 75903 244257,244361,244283
 2.8000e+001 244585  2.7836e+004 -1.5510e+007  1.5287e+006 75419 244458,244510,244484
 2.8000e+001 244562 -6.3351e+005 -1.0696e+007  4.9051e+005 75419 244458,244536,244510
 2.8000e+001 244737 -3.4517e+005 -1.7042e+006 -1.3964e+005 75215 244636,244688,244662
 2.8000e+001 244714 -1.9776e+005 -5.2512e+006 -1.4456e+005 75215 244610,244688,244636
 2.8000e+001 244889 -1.0038e+006 -4.8721e+006 -4.4358e+005 74857 244788,244840,244814
 2.8000e+001 244866 -4.4252e+005 -2.8486e+006 -6.9245e+004 74857 244762,244840,244788
 2.8000e+001 245041  3.9497e+004 -1.8743e+005 -1.3171e+005 74653 244940,244992,244966
 2.8000e+001 245018 -2.0423e+004 -4.2622e+004  6.6839e+004 74653 244914,244992,244940
 2.8000e+001 245144 -1.7929e+005 -9.0350e+006 -1.2677e+006 74359 245066,245118,245092
 2.8000e+001 245296 -4.7389e+004 -2.1096e+006 -6.8736e+005 74007 245169,245221,245195
 2.8000e+001 245273 -3.2541e+005 -3.2119e+006 -8.3353e+005 74007 245169,245247,245221
 2.8000e+001 245448 -9.3050e+005 -8.5083e+006  2.3734e+006 73711 245321,245373,245347
 2.8000e+001 245425 -1.7836e+005 -8.2708e+006 -3.6850e+006 73711 245321,245399,245373
 2.8000e+001 245600  5.6838e+005 -1.1586e+007 -7.4895e+005 73301 245499,245551,245525
 2.8000e+001 245577 -1.5243e+006 -8.4637e+006  1.7700e+006 73301 245473,245551,245499
 2.8000e+001 245752 -1.4556e+006 -3.3062e+006 -1.6041e+006 72995 245625,245677,245651
 2.8000e+001 245729  9.4174e+005 -1.1401e+007 -1.5494e+006 72995 245625,245703,245677
 2.8000e+001 245953 -2.5937e+006 -1.2900e+007  1.6240e+006 72585 245777,245829,245803
 2.8000e+001 245930 -1.3366e+006 -1.4115e+007  3.3323e+006 72585 245777,245855,245829
 2.8000e+001 245907 -8.4485e+005 -1.2017e+007  2.5584e+006 72585 245777,245881,245855
 2.8000e+001 246154 -2.7198e+005 -6.2519e+006  1.1842e+006 72127 246030,246082,246056
 2.8000e+001 246131 -9.2529e+005 -8.2860e+006  7.4127e+005 72127 245978,246082,246030
 2.8000e+001 246108 -9.7358e+004 -7.4146e+006  1.9402e+005 72127 245978,246030,246004
 2.8000e+001 246257 -1.2528e+006 -2.6872e+006  2.5266e+004 71737 246179,246231,246205
 2.8000e+001 246360 -1.2868e+005 -2.7314e+006  3.6153e+005 71447 246282,246334,246308
 2.8000e+001 246512 -1.6965e+005 -2.7742e+006  7.7355e+005 71157 246385,246437,246411
 2.8000e+001 246489 -8.4352e+004 -2.5746e+006  4.2986e+005 71157 246385,246463,246437
 2.8000e+001 246664 -1.6990e+005 -2.7608e+006 -2.4889e+005 70753 246537,246589,246563
 2.8000e+001 246641 -5.9475e+005 -1.7270e+006 -5.7744e+004 70753 246537,246615,246589
 2.8000e+001 246865 -1.8178e+006 -1.0644e+007  6.0611e+006 70249 246715,246767,246741
 2.8000e+001 246842 -2.5744e+006 -9.5782e+006  1.1016e+005 70249 246715,246793,246767
 2.8000e+001 246819 -8.1674e+005 -1.3303e+007 -2.2988e+006 70249 246689,246793,246715
 2.8000e+001 247066 -1.7837e+005 -2.1294e+006  4.8181e+005 70023 246916,246994,246942
 2.8000e+001 247043  9.0223e+004 -2.6545e+006  2.7294e+005 70023 246890,246994,246916
 2.8000e+001 247020 -1.5711e+005 -1.7539e+006  2.2290e+005 70023 246942,246994,246968
 2.8000e+001 247267 -2.4743e+005 -4.4103e+006 -2.4778e+005 69633 247091,247143,247117
 2.8000e+001 247244 -7.6571e+004 -3.4558e+006 -1.5697e+005 69633 247091,247169,247143
 2.8000e+001 247221  1.3241e+004 -2.9910e+006 -1.7972e+005 69633 247091,247195,247169
 2.8000e+001 247419 -9.1063e+005 -5.4980e+006  7.9255e+005 69457 247318,247370,247344
 2.8000e+001 247396 -1.0130e+006 -3.9511e+006  9.3878e+005 69457 247292,247370,247318
 2.8000e+001 247522 -4.3744e+000 -2.5541e+003 -2.8326e-001 69209 247444,247496,247470
 2.8000e+001 247625 -1.9227e+006 -2.1291e+006 -5.9596e+005 68919 247547,247599,247573
 2.8000e+001 247777  3.9357e+005 -7.1499e+006 -5.3167e+005 68579 247650,247702,247676
 2.8000e+001 247754 -3.1150e+005 -2.8147e+006 -1.3208e+005 68579 247650,247728,247702
 2.8000e+001 247929  7.8234e+004 -4.2210e+006  2.0468e+006 68289 247802,247854,247828
 2.8000e+001 247906 -2.0214e+005 -1.6547e+006 -2.4546e+005 68289 247802,247880,247854
 2.8000e+001 248081 -3.2915e+005 -5.5806e+006  1.3244e+006 67949 247980,248032,248006
 2.8000e+001 248058 -4.8182e+005 -1.7085e+006  1.5948e+005 67949 247954,248032,247980
 2.8000e+001 248233 -1.6648e+006 -5.5386e+006 -6.6646e+005 67616 248132,248184,248158
 2.8000e+001 248210 -5.9352e+005 -6.1218e+006 -4.2714e+005 67616 248106,248184,248132
 2.8000e+001 248434 -1.3846e+005 -4.5505e+006 -3.5845e+005 67212 248284,248336,248310
 2.8000e+001 248411 -6.3186e+004 -4.5749e+006 -5.0667e+005 67212 248258,248336,248284
 2.8000e+001 248388 -1.4762e+006 -3.3364e+006 -5.4331e+005 67212 248258,248362,248336
 2.8000e+001 248586 -3.0197e+004 -5.5110e+006  6.2620e+005 66872 248485,248537,248511
 2.8000e+001 248563 -7.9146e+005 -2.0502e+006 -8.1139e+004 66872 248459,248537,248485
 2.8000e+001 248738 -2.1081e+005 -4.9734e+006  9.1673e+004 66510 248637,248689,248663
 2.8000e+001 248715 -3.1245e+005 -8.2196e+006  1.8385e+005 66510 248611,248689,248637
 2.8000e+001 248890 -3.3876e+004 -7.8837e+005  1.6183e+005 66220 248789,248841,248815
 2.8000e+001 248867 -2.3651e+005 -1.0608e+006 -2.8106e+005 66220 248763,248841,248789
 2.8000e+001 249091 -8.8920e+005 -9.1984e+006  2.7768e+006 65759 248915,248967,248941
 2.8000e+001 249068 -6.7202e+005 -8.3271e+006  2.7679e+006 65759 248915,248993,248967
 2.8000e+001 249045 -3.6224e+005 -5.9684e+006  1.1879e+006 65759 248915,249019,248993
 2.8000e+001 249243 -1.9030e+005 -8.1154e+006  1.8145e+006 65419 249142,249194,249168
 2.8000e+001 249220 -2.7462e+005 -4.2752e+006  5.6916e+005 65419 249116,249194,249142
 2.8000e+001 249395 -3.8565e+005 -2.6303e+006 -2.1777e+005 65079 249268,249320,249294
 2.8000e+001 249372 -3.6905e+005 -3.7769e+006 -5.9474e+005 65079 249268,249346,249320
 2.8000e+001 249547 -1.4227e+005 -6.9514e+005 -3.1586e+004 64739 249420,249472,249446
 2.8000e+001 249524 -1.6280e+005 -6.8639e+005 -6.4030e+004 64739 249420,249498,249472
 2.8000e+001 249650 -1.2755e+006 -6.0628e+006 -2.2244e+006 64342 249572,249624,249598
 2.8000e+001 249851 -3.9213e+005 -6.1703e+006 -4.4108e+005 63938 249701,249779,249753
 2.8000e+001 249828 -1.9947e+005 -6.3587e+006  9.6522e+005 63938 249675,249779,249701
 2.8000e+001 249805 -5.5131e+005 -6.4375e+006 -3.2475e+005 63938 249701,249753,249727
 2.8000e+001 250052 -7.3120e+005 -5.2968e+006 -5.2108e+005 63341 249876,249954,249902
 2.8000e+001 250029 -1.0411e+006 -6.0882e+006 -2.9278e+005 63341 249876,249980,249954
 2.8000e+001 250006  6.7196e+005 -6.6993e+006  6.3004e+005 63341 249902,249954,249928
 2.8000e+001 250253 -1.0697e+005 -3.1801e+006 -4.0572e+005 63058 250077,250129,250103
 2.8000e+001 250230 -6.3232e+005 -4.7839e+006 -3.8948e+004 63058 250077,250155,250129
 2.8000e+001 250207 -2.5366e+005 -4.1747e+006 -9.4588e+005 63058 250077,250181,250155
 2.8000e+001 250454 -9.7275e+005 -7.6951e+006  1.4938e+006 62832 250304,250382,250330
 2.8000e+001 250431  2.6859e+005 -9.6751e+006 -2.5352e+006 62832 250278,250382,250304
 2.8000e+001 250408 -2.5159e+006 -4.6098e+006  3.4418e+005 62832 250330,250382,250356
 2.8000e+001 250606  3.3742e+005 -1.8929e+007  7.3546e+005 62428 250479,250531,250505
 2.8000e+001 250583 -8.1856e+005 -1.1505e+007 -7.7613e+005 62428 250479,250557,250531
 2.8000e+001 250758 -1.9657e+005 -7.4553e+006  6.8780e+005 62202 250631,250683,250657
 2.8000e+001 250735 -1.8074e+005 -8.3492e+006  2.0050e+006 62202 250631,250709,250683
 2.8000e+001 250861 -1.5086e+006 -2.6397e+006 -7.7798e+003 61954 250783,250835,250809
 2.8000e+001 251062 -1.8502e+006 -1.2880e+007 -2.8547e+005 61557 250912,250990,250938
 2.8000e+001 251039 -3.8637e+005 -1.2247e+007  3.5049e+005 61557 250886,250990,250912
 2.8000e+001 251016 -6.9261e+005 -1.1065e+007 -1.4555e+006 61557 250938,250990,250964
 2.8000e+001 251263 -9.3500e+005 -7.6219e+006  1.5881e+004 61167 251113,251165,251139
 2.8000e+001 251240 -3.6505e+005 -7.4342e+006 -2.8567e+005 61167 251113,251191,251165
 2.8000e+001 251217 -1.2575e+006 -7.2422e+006  2.1134e+006 61167 251087,251191,251113
 2.8000e+001 251415 -1.2102e+006 -3.8027e+006  1.0785e+006 60827 251288,251340,251314
 2.8000e+001 251392 -6.6437e+005 -1.9408e+006  6.5990e+004 60827 251288,251366,251340
 2.8000e+001 251567  1.3450e+005 -5.2939e+006  5.6357e+005 60487 251466,251518,251492
 2.8000e+001 251544  1.6128e+004 -3.4208e+006 -2.8697e+005 60487 251440,251518,251466
 2.8000e+001 251719  6.3526e+004 -1.0253e+007 -3.0711e+005 59983 251592,251644,251618
 2.8000e+001 251696 -9.2403e+005 -8.5621e+006 -1.0210e+004 59983 251592,251670,251644
 2.8000e+001 251920  6.8633e+004 -1.8455e+006 -2.6503e+004 59807 251770,251848,251796
 2.8000e+001 251897  6.1721e+004 -1.8869e+006 -2.5726e+004 59807 251744,251848,251770
 2.8000e+001 251874 -5.5244e+003 -2.2781e+006 -9.4723e+004 59807 251796,251848,251822
 2.8000e+001 252023 -3.1252e+005 -4.5275e+006  6.2824e+004 59517 251945,251997,251971
 2.8000e+001 252175  1.4489e+006 -1.2365e+007 -2.1835e+005 59269 252074,252126,252100
 2.8000e+001 252152 -8.0129e+004 -8.3263e+006  6.7597e+004 59269 252048,252126,252074
 2.8000e+001 252278 -4.8381e+005 -2.7060e+006  1.2334e+006 58979 252200,252252,252226
 2.8000e+001 252381 -2.1612e+006 -2.7498e+006  1.1447e+006 58689 252303,252355,252329
 2.8000e+001 252533 -9.6624e+005 -4.8848e+006 -2.3253e+005 58249 252432,252484,252458
 2.8000e+001 252510 -9.0034e+005 -5.4734e+006 -9.1183e+005 58249 252406,252484,252432
 2.8000e+001 252734 -2.9655e+005 -4.5375e+006  9.2963e+004 57902 252584,252662,252610
 2.8000e+001 252711  6.8760e+005 -5.0586e+006 -5.3338e+004 57902 252558,252662,252584
 2.8000e+001 252688 -1.8654e+005 -3.4102e+006 -3.1887e+005 57902 252610,252662,252636
 2.8000e+001 252886 -8.5521e+004 -4.4160e+006 -1.6095e+005 57540 252785,252837,252811
 2.8000e+001 252863  1.9754e+005 -4.5800e+006 -1.2436e+005 57540 252759,252837,252785
 2.8000e+001 253038 -5.7235e+005 -5.5941e+006  1.3430e+006 57086 252937,252989,252963
 2.8000e+001 253015 -3.1164e+005 -2.5383e+006  2.3169e+005 57086 252911,252989,252937
 2.8000e+001 253239 -1.4076e+006 -6.0497e+006 -1.5019e+006 56796 253063,253141,253115
 2.8000e+001 253216  1.1546e+005 -7.0072e+006 -2.0350e+005 56796 253063,253167,253141
 2.8000e+001 253193 -7.5268e+005 -7.4423e+006 -1.8840e+006 56796 253063,253115,253089
 2.8000e+001 253342 -6.5604e+005 -1.6372e+007  1.2048e+005 56349 253264,253316,253290
 2.8000e+001 253543 -9.2907e+005 -8.4620e+006 -8.3457e+005 56009 253367,253419,253393
 2.8000e+001 253520 -6.7983e+005 -5.0806e+006 -4.8230e+005 56009 253367,253445,253419
 2.8000e+001 253497 -2.9932e+005 -6.4186e+006  1.2410e+005 56009 253367,253471,253445
 2.8000e+001 253695 -3.5645e+005 -2.5354e+006  2.8426e+005 55733 253594,253646,253620
 2.8000e+001 253672 -1.0592e+006 -7.9910e+005  1.0483e+005 55733 253568,253646,253594
 2.8000e+001 253798 -5.0214e+005 -2.2629e+006 -1.0373e+005 55557 253720,253772,253746
 2.8000e+001 253950 -5.1032e+005 -4.0196e+006  4.0569e+005 55153 253849,253901,253875
 2.8000e+001 253927  1.3849e+005 -4.7085e+006 -4.2335e+005 55153 253823,253901,253849
 2.8000e+001 254151 -1.1840e+006 -4.5252e+006  8.4480e+005 54863 253975,254053,254001
 2.8000e+001 254128 -5.5921e+005 -4.7431e+006  4.7686e+004 54863 253975,254079,254053
 2.8000e+001 254105 -4.2181e+005 -3.4134e+006  2.1057e+005 54863 254001,254053,254027
 2.8000e+001 254303  2.0251e+005 -3.0092e+006  2.4544e+005 54373 254176,254228,254202
 2.8000e+001 254280 -1.3146e+005 -1.6612e+006  4.5621e+004 54373 254176,254254,254228
 2.8000e+001 254455 -9.2960e+004 -4.8514e+006 -3.4030e+005 53975 254354,254406,254380
 2.8000e+001 254432 -5.6983e+005 -1.1492e+006  1.8081e+005 53975 254328,254406,254354
 2.8000e+001 254607 -4.5171e+005 -4.6697e+006 -4.9053e+005 53585 254480,254532,254506
 2.8000e+001 254584 -2.8969e+005 -4.6810e+006 -5.5654e+005 53585 254480,254558,254532
 2.8000e+001 254808 -9.2610e+005 -3.4173e+006  1.5369e+004 53245 254658,254736,254684
 2.8000e+001 254785 -1.0391e+006 -1.7492e+006 -3.1284e+005 53245 254632,254736,254658
 2.8000e+001 254762 -4.9403e+005 -2.6044e+006 -4.4477e+005 53245 254684,254736,254710
 2.8000e+001 254911 -3.1287e+005 -4.9918e+006  6.5719e+004 52955 254833,254885,254859
 2.8000e+001 255063 -7.3177e+005 -5.8104e+006 -9.9262e+004 52551 254962,255014,254988
 2.8000e+001 255040 -7.1500e+005 -6.4067e+006 -3.5440e+005 52551 254936,255014,254962
 2.8000e+001 255264 -5.5511e+005 -1.2097e+006  6.0452e+005 52261 255114,255166,255140
 2.8000e+001 255241 -6.0794e+005 -2.9558e+006  1.1220e+006 52261 255114,255192,255166
 2.8000e+001 255218  1.9829e+005 -4.2195e+006 -5.2807e+004 52261 255088,255192,255114
 2.8000e+001 255416 -5.3638e+005 -4.8210e+006  1.4940e+006 51971 255289,255341,255315
 2.8000e+001 255393 -2.9810e+005 -4.3987e+006 -1.8610e+005 51971 255289,255367,255341
 2.8000e+001 255568 -1.7526e+006 -1.3720e+006 -1.4093e+005 51681 255441,255493,255467
 2.8000e+001 255545 -2.8165e+005 -7.2642e+006  6.8389e+005 51681 255441,255519,255493
 2.8000e+001 255769 -1.9733e+005 -3.1619e+006 -1.0499e+005 51291 255619,255697,255671
 2.8000e+001 255746 -1.7530e+005 -2.8723e+006 -3.2235e+005 51291 255593,255697,255619
 2.8000e+001 255723 -1.8704e+005 -4.6133e+006 -4.6003e+005 51291 255619,255671,255645
 2.8000e+001 255921 -3.9448e+005 -2.8466e+006  7.3188e+005 50951 255820,255872,255846
 2.8000e+001 255898 -1.5730e+005 -2.0933e+006  1.2869e+005 50951 255794,255872,255820
 2.8000e+001 256171 -1.2729e+006 -4.0124e+006 -4.4368e+004 50547 256024,256076,256050
 2.8000e+001 256148 -9.2573e+005 -4.1790e+006  4.9801e+005 50547 255972,256076,256024
 2.8000e+001 256125 -3.0591e+005 -5.0814e+006 -1.7349e+005 50547 255946,256076,255972
 2.8000e+001 256102 -8.4507e+005 -3.4140e+006  2.3177e+005 50547 255972,256024,255998
 2.8000e+001 256323  2.9931e+005 -4.8835e+006  8.0388e+005 50093 256196,256248,256222
 2.8000e+001 256300 -9.5720e+005 -2.5016e+006 -1.0716e+006 50093 256196,256274,256248
 2.8000e+001 256426 -1.7609e+000 -3.9017e+003 -5.1507e+000 49845 256348,256400,256374
 2.8000e+001 256627 -1.3523e+005 -4.6692e+006  1.4123e+005 49555 256477,256555,256503
 2.8000e+001 256604 -2.9749e+005 -3.5893e+006  1.3254e+005 49555 256451,256555,256477
 2.8000e+001 256581 -4.1288e+005 -4.0216e+006  3.0614e+005 49555 256503,256555,256529
 2.8000e+001 256828 -5.9085e+005 -2.9659e+006 -1.4932e+005 49056 256652,256730,256678
 2.8000e+001 256805 -4.1788e+005 -2.9483e+006 -2.7572e+005 49056 256652,256756,256730
 2.8000e+001 256782 -5.9997e+005 -2.4699e+006 -4.8120e+005 49056 256678,256730,256704
 2.8000e+001 256931 -2.2448e+005 -6.2760e+005 -1.1302e+005 48766 256853,256905,256879
 2.8000e+001 257083 -8.8007e+005 -4.2281e+006 -6.7163e+005 48568 256982,257034,257008
 2.8000e+001 257060 -6.9871e+005 -3.5088e+006 -6.2802e+005 48568 256956,257034,256982
 2.8000e+001 257186 -7.0750e+003 -2.0168e+006  4.0159e+003 48228 257108,257160,257134
 2.8000e+001 257338 -4.1910e+005 -1.9492e+006  6.4053e+005 47888 257237,257289,257263
 2.8000e+001 257315 -4.2897e+005 -1.7479e+006  5.5322e+005 47888 257211,257289,257237
 2.8000e+001 257539 -2.9042e+005 -3.9707e+006  8.5314e+004 47548 257363,257441,257415
 2.8000e+001 257516 -5.6902e+005 -3.7411e+006 -3.4671e+005 47548 257363,257467,257441
 2.8000e+001 257493 -6.0262e+005 -2.7733e+006 -2.0546e+005 47548 257363,257415,257389
 2.8000e+001 257740 -2.9414e+005 -4.0326e+006  4.1789e+005 46994 257564,257642,257616
 2.8000e+001 257717 -4.2953e+005 -3.4180e+006  1.8885e+005 46994 257564,257668,257642
 2.8000e+001 257694 -7.0896e+005 -4.4044e+006  9.3650e+004 46994 257564,257616,257590
 2.8000e+001 257843 -9.8631e+005 -2.6377e+006  5.8037e+004 46654 257765,257817,257791
 2.8000e+001 257995 -7.5512e+005 -3.0221e+006  3.0476e+005 46364 257894,257946,257920
 2.8000e+001 257972 -6.8900e+005 -3.8072e+006 -1.3533e+005 46364 257868,257946,257894
 2.8000e+001 258147 -1.8786e+005 -3.1069e+006  2.5499e+005 46024 258046,258098,258072
 2.8000e+001 258124 -3.1702e+005 -2.8583e+006  3.2832e+005 46024 258020,258098,258046
 2.8000e+001 258250 -7.5709e+005 -2.6761e+006  9.3494e+005 45741 258172,258224,258198
 2.8000e+001 258402 -1.5832e+005 -3.1901e+006  2.9469e+005 45401 258301,258353,258327
 2.8000e+001 258379 -6.4724e+005 -1.8702e+006  2.3094e+005 45401 258275,258353,258301
 2.8000e+001 258603 -7.1071e+005 -1.9938e+006 -1.1815e+004 45071 258427,258505,258479
 2.8000e+001 258580 -1.9499e+005 -4.7537e+006  2.4364e+005 45071 258427,258531,258505
 2.8000e+001 258557 -2.2939e+005 -2.6496e+006  2.2891e+005 45071 258427,258479,258453
 2.8000e+001 258755 -1.9509e+005 -3.5697e+006 -3.5557e+005 44681 258654,258706,258680
 2.8000e+001 258732 -1.7451e+005 -3.7904e+006 -3.6395e+005 44681 258628,258706,258654
 2.8000e+001 258907 -6.4636e+005 -1.4011e+006 -1.4665e+005 44157 258806,258858,258832
 2.8000e+001 258884 -3.6941e+005 -1.5330e+006 -1.1542e+005 44157 258780,258858,258806
 2.8000e+001 259010 -6.9137e+005 -8.7098e+005  4.0341e+003 43705 258932,258984,258958
 2.8000e+001 259113 -3.2608e+005 -3.9973e+006  3.1811e+005 43284 259035,259087,259061
 2.8000e+001 259216 -5.8039e+005 -2.9269e+006 -1.9403e+005 42954 259138,259190,259164
 2.8000e+001 259319 -8.6953e+005 -1.7624e+006 -1.1903e+003 42116 259241,259293,259267
 2.8000e+001 259422 -1.8358e+005 -3.7913e+006 -2.4202e+005 41804 259344,259396,259370
 2.8000e+001 259525 -5.8708e+005 -5.0631e+006  7.6574e+005 41219 259447,259499,259473
 2.8000e+001 259628 -8.9091e+005 -2.5298e+006 -3.5591e+005 385 259550,259602,259576
 3.0000e+001 190120 -5.4783e+005 -1.8465e+006 -1.9600e+005 189630 189993,190045,190019
 3.0000e+001 190097 -6.1309e+005 -1.3192e+006  9.3511e+003 189630 189993,190071,190045
 3.0000e+001 190319 -1.7302e+006 -4.9345e+006  4.5078e+005 189312 190169,190221,190195
 3.0000e+001 190296 -1.0056e+006 -2.9764e+006 -1.3276e+006 189312 190169,190247,190221
 3.0000e+001 190273 -7.0799e+005 -2.2277e+006 -3.5886e+004 189312 190143,190247,190169
 3.0000e+001 190518 -5.5371e+005 -4.1254e+005 -1.3614e+005 189124 190368,190446,190420
 3.0000e+001 190495 -6.2042e+005 -1.9081e+005  3.2741e+004 189124 190342,190446,190368
 3.0000e+001 190472 -1.2889e+006 -5.0791e+005 -4.0111e+005 189124 190368,190420,190394
 3.0000e+001 190619 -4.7667e+005 -8.1968e+004 -5.8278e+003 188926 190541,190593,190567
 3.0000e+001 190771 -4.4930e+005 -6.9154e+005 -7.6104e+004 188614 190670,190722,190696
 3.0000e+001 190748 -4.2989e+005 -7.7002e+004  9.5347e+004 188614 190644,190722,190670
 3.0000e+001 190972 -1.3739e+005 -1.4918e+006 -5.3532e+005 188324 190848,190900,190874
 3.0000e+001 190949 -3.7235e+005 -9.8825e+005 -2.7667e+005 188324 190796,190900,190848
 3.0000e+001 190926 -4.3077e+005 -2.1388e+006 -4.2145e+005 188324 190796,190848,190822
 3.0000e+001 191124 -6.1711e+005 -1.6743e+006 -1.8884e+005 188034 191023,191075,191049
 3.0000e+001 191101 -2.3104e+005 -1.7604e+006 -1.6127e+005 188034 190997,191075,191023
 3.0000e+001 191276 -3.1740e+005 -1.5073e+006 -1.8112e+005 187836 191149,191201,191175
 3.0000e+001 191253 -4.5908e+005 -1.2338e+006 -4.0219e+004 187836 191149,191227,191201
 3.0000e+001 191379 -4.6179e+005 -2.8542e+005 -8.7968e+004 187546 191301,191353,191327
 3.0000e+001 191531 -3.5250e+005 -6.4544e+006 -2.4768e+006 187256 191430,191482,191456
 3.0000e+001 191508 -8.1399e+005 -4.1369e+006  8.2053e+005 187256 191404,191482,191430
 3.0000e+001 191634 -7.5528e+005 -1.1817e+006 -2.0418e+004 187058 191556,191608,191582
 3.0000e+001 191835 -1.8297e+005 -6.5950e+005  1.3602e+005 186860 191659,191711,191685
 3.0000e+001 191812 -2.1331e+005 -3.1009e+005  2.2033e+005 186860 191659,191737,191711
 3.0000e+001 191789 -8.9145e+004 -1.1843e+005 -1.3603e+004 186860 191659,191763,191737
 3.0000e+001 191987 -8.6241e+005 -9.7147e+005  1.7334e+005 186662 191886,191938,191912
 3.0000e+001 191964 -5.0440e+005 -5.4000e+005 -1.4466e+005 186662 191860,191938,191886
 3.0000e+001 192090 -5.4242e+005 -4.2216e+004 -9.5629e+004 186486 192012,192064,192038
 3.0000e+001 192242 -5.3880e+005 -5.0573e+006  3.3545e+004 186288 192115,192167,192141
 3.0000e+001 192219 -4.1433e+005 -4.6779e+006  1.7077e+005 186288 192115,192193,192167
 3.0000e+001 192394 -2.1836e+005 -4.4233e+006 -3.2872e+005 185935 192293,192345,192319
 3.0000e+001 192371 -3.7118e+005 -3.9629e+006 -4.3208e+005 185935 192267,192345,192293
 3.0000e+001 192546 -4.7684e+005 -1.9425e+006 -1.5032e+005 185675 192419,192471,192445
 3.0000e+001 192523 -4.6527e+005 -1.2637e+006 -6.2748e+004 185675 192419,192497,192471
 3.0000e+001 192649 -3.2749e+005 -1.5984e+006  1.5928e+005 185499 192571,192623,192597
 3.0000e+001 192801 -1.4172e+006 -1.0262e+006  4.3210e+005 185301 192674,192726,192700
 3.0000e+001 192778 -7.8068e+005 -9.3988e+005  6.3757e+005 185301 192674,192752,192726
 3.0000e+001 193002 -1.4950e+005 -2.7553e+006 -4.8531e+005 185046 192852,192930,192878
 3.0000e+001 192979 -3.8994e+005 -3.6909e+006 -4.2247e+005 185046 192826,192930,192852
 3.0000e+001 192956  3.2163e+005 -4.4555e+006  2.6105e+004 185046 192878,192930,192904
 3.0000e+001 193203 -1.9172e+006 -1.9741e+006 -8.6199e+005 184798 193079,193131,193105
 3.0000e+001 193180  5.4035e+005 -6.3158e+006 -2.0067e+006 184798 193027,193131,193079
 3.0000e+001 193157 -2.3952e+005 -6.8618e+006  2.5631e+006 184798 193027,193079,193053
 3.0000e+001 193404 -4.0997e+005 -5.0013e+006 -6.8057e+005 184600 193254,193306,193280
 3.0000e+001 193381 -5.1745e+005 -2.3988e+006  5.0276e+004 184600 193254,193332,193306
 3.0000e+001 193358 -1.1613e+006 -7.3646e+005 -2.2468e+005 184600 193228,193332,193254
 3.0000e+001 193556 -6.3840e+005 -1.2028e+006 -4.5320e+005 184402 193429,193481,193455
 3.0000e+001 193533 -7.6067e+005 -7.4399e+005 -8.0100e+005 184402 193429,193507,193481
 3.0000e+001 193708 -2.0115e+005 -5.0459e+006 -7.8605e+005 184204 193607,193659,193633
 3.0000e+001 193685 -6.8103e+005 -4.5940e+006 -8.4507e+005 184204 193581,193659,193607
 3.0000e+001 193860 -4.0297e+005 -1.7554e+006  1.6367e+005 183908 193759,193811,193785
 3.0000e+001 193837 -8.1250e+004 -1.7383e+006  3.0109e+005 183908 193733,193811,193759
 3.0000e+001 194061 -3.4702e+005 -1.7598e+006 -1.8089e+005 183710 193911,193989,193937
 3.0000e+001 194038 -2.9451e+005 -1.2107e+006 -1.2928e+005 183710 193885,193989,193911
 3.0000e+001 194015 -4.8712e+005 -8.3437e+005 -3.1287e+005 183710 193937,193989,193963
 3.0000e+001 194262 -1.3096e+006 -5.1444e+006 -1.8032e+006 183420 194086,194164,194112
 3.0000e+001 194239 -9.3495e+005 -2.7959e+006 -6.5382e+004 183420 194086,194190,194164
 3.0000e+001 194216 -3.7687e+006 -1.0637e+007  1.2524e+006 183420 194112,194164,194138
 3.0000e+001 194414 -2.5635e+005 -6.0937e+006  4.4635e+005 183222 194287,194339,194313
 3.0000e+001 194391 -3.9160e+005 -5.9354e+005 -1.7350e+005 183222 194287,194365,194339
 3.0000e+001 194517 -9.2306e+005 -1.2515e+006 -1.1263e+005 183024 194439,194491,194465
 3.0000e+001 194718  1.7004e+006 -1.8589e+007  2.4953e+006 182734 194568,194620,194594
 3.0000e+001 194695 -1.0021e+006 -4.9541e+006 -3.2883e+006 182734 194542,194620,194568
 3.0000e+001 194672 -3.0377e+006 -2.8401e+006 -1.6621e+006 182734 194542,194646,194620
 3.0000e+001 194870 -1.0426e+006 -2.6478e+006  8.9743e+005 182444 194769,194821,194795
 3.0000e+001 194847 -1.1052e+006 -1.3963e+006 -8.7175e+005 182444 194743,194821,194769
 3.0000e+001 195071 -6.0142e+005 -3.6425e+006  6.1471e+005 182154 194895,194947,194921
 3.0000e+001 195048 -2.4707e+005 -1.7179e+006  3.7448e+005 182154 194895,194999,194947
 3.0000e+001 195025 -3.3806e+004 -2.5385e+006  4.3658e+005 182154 194947,194999,194973
 3.0000e+001 195223 -4.1683e+005 -2.5254e+006 -9.7287e+004 181814 195096,195148,195122
 3.0000e+001 195200 -1.7379e+005 -1.5290e+006 -7.0696e+004 181814 195096,195174,195148
 3.0000e+001 195375 -6.0525e+004 -1.5595e+006  2.5587e+005 181524 195248,195300,195274
 3.0000e+001 195352 -1.5593e+004 -2.0661e+006  3.5457e+005 181524 195248,195326,195300
 3.0000e+001 195527 -4.4169e+004 -5.3446e+005  3.1978e+005 181326 195426,195478,195452
 3.0000e+001 195504 -4.7502e+005 -1.5416e+006  6.5901e+005 181326 195400,195478,195426
 3.0000e+001 195679  4.5731e+005 -1.4310e+007 -1.3478e+005 180936 195578,195630,195604
 3.0000e+001 195656 -1.3012e+006 -4.3057e+006 -2.6425e+004 180936 195552,195630,195578
 3.0000e+001 195831 -5.2157e+005 -2.9111e+005 -1.4723e+005 180646 195704,195756,195730
 3.0000e+001 195808 -6.1745e+005 -4.2454e+004 -3.1855e+003 180646 195704,195782,195756
 3.0000e+001 196032 -2.9011e+005 -2.6435e+006  9.5071e+005 180306 195882,195960,195934
 3.0000e+001 196009 -5.2223e+005 -8.2168e+005 -2.3115e+005 180306 195856,195960,195882
 3.0000e+001 195986  4.7279e+005 -4.1902e+006 -7.7312e+005 180306 195882,195934,195908
 3.0000e+001 196233 -3.2782e+004 -6.5781e+005 -1.1976e+006 179944 196057,196109,196083
 3.0000e+001 196210 -1.3122e+006 -6.5716e+006  7.4650e+005 179944 196057,196135,196109
 3.0000e+001 196187 -3.1438e+006  7.0262e+006 -2.5201e+006 179944 196057,196161,196135
 3.0000e+001 196385 -5.9014e+005 -1.1085e+006 -7.0866e+005 179604 196258,196310,196284
 3.0000e+001 196362 -7.0744e+005 -1.4097e+006 -8.6833e+005 179604 196258,196336,196310
 3.0000e+001 196586 -2.3254e+005 -1.2536e+006 -1.1585e+005 179114 196410,196488,196436
 3.0000e+001 196563  1.1431e+005 -2.8768e+006 -1.3926e+005 179114 196410,196514,196488
 3.0000e+001 196540 -5.2462e+003 -1.1990e+006 -1.1540e+005 179114 196436,196488,196462
 3.0000e+001 196738 -4.6157e+005 -3.0018e+006 -2.9166e+005 178674 196611,196663,196637
 3.0000e+001 196715 -3.2343e+005 -3.9846e+006  9.0466e+003 178674 196611,196689,196663
 3.0000e+001 196939  1.6424e+006 -1.1310e+007 -6.7567e+005 178334 196789,196867,196841
 3.0000e+001 196916 -1.1907e+006 -1.1414e+007  9.6482e+005 178334 196763,196867,196789
 3.0000e+001 196893 -2.0019e+006 -8.1004e+006 -4.6649e+006 178334 196789,196841,196815
 3.0000e+001 197091 -4.8812e+005 -8.0745e+006 -3.8901e+005 177930 196990,197042,197016
 3.0000e+001 197068  1.3585e+005 -5.3625e+006 -2.2408e+005 177930 196964,197042,196990
 3.0000e+001 197194 -8.9864e+002 -1.1948e+006 -1.3535e+003 177732 197116,197168,197142
 3.0000e+001 197346 -3.6457e+005 -8.0833e+006 -5.7580e+005 177534 197219,197271,197245
 3.0000e+001 197323  6.3150e+005 -1.1035e+007  9.9281e+005 177534 197219,197297,197271
 3.0000e+001 197547 -4.3517e+005 -5.5905e+006 -1.1181e+006 177130 197397,197449,197423
 3.0000e+001 197524 -6.8966e+005 -5.6777e+006 -9.5655e+005 177130 197397,197475,197449
 3.0000e+001 197501 -6.1621e+005 -1.3583e+007 -1.6684e+006 177130 197371,197475,197397
 3.0000e+001 197748 -2.6952e+005 -9.2764e+006 -1.6797e+005 176790 197598,197676,197624
 3.0000e+001 197725 -1.3516e+005 -6.7914e+006  7.4382e+004 176790 197572,197676,197598
 3.0000e+001 197702 -4.7182e+005 -7.1570e+006  4.0735e+005 176790 197624,197676,197650
 3.0000e+001 197900 -1.1110e+005 -6.2312e+006 -9.1802e+005 176300 197773,197825,197799
 3.0000e+001 197877  2.4843e+005 -6.8804e+006 -9.8172e+005 176300 197773,197851,197825
 3.0000e+001 198052 -9.4755e+005 -1.1832e+007 -2.3668e+006 176010 197925,197977,197951
 3.0000e+001 198029 -1.4900e+006 -7.5966e+006 -1.7591e+006 176010 197925,198003,197977
 3.0000e+001 198204 -2.4748e+006 -6.3524e+006 -1.8502e+006 175670 198103,198155,198129
 3.0000e+001 198181 -2.8835e+006 -8.2825e+006 -1.8662e+006 175670 198077,198155,198103
 3.0000e+001 198405 -3.4987e+005 -9.3143e+006 -1.2885e+006 175266 198255,198307,198281
 3.0000e+001 198382 -9.9189e+004 -8.7515e+006 -8.3497e+005 175266 198229,198307,198255
 3.0000e+001 198359 -1.2858e+006 -6.7924e+006 -2.3185e+006 175266 198229,198333,198307
 3.0000e+001 198606 -5.0900e+004 -1.0826e+006  4.9073e+004 174876 198430,198508,198482
 3.0000e+001 198583 -2.1267e+005 -1.1337e+006  1.5931e+005 174876 198430,198534,198508
 3.0000e+001 198560 -1.5375e+005 -5.7385e+005 -1.1895e+005 174876 198430,198482,198456
 3.0000e+001 198758 -1.9276e+004 -9.1657e+004 -4.3925e+004 174536 198657,198709,198683
 3.0000e+001 198735 -1.7587e+004 -9.0290e+004 -4.6643e+004 174536 198631,198709,198657
 3.0000e+001 199008  2.0217e+005 -1.2288e+007  6.2499e+005 174132 198835,198913,198887
 3.0000e+001 198985  6.6684e+003 -5.7076e+006  7.0760e+005 174132 198809,198913,198835
 3.0000e+001 198962 -6.1674e+004 -6.1697e+006 -2.1166e+006 174132 198783,198913,198809
 3.0000e+001 198939  9.3361e+005 -1.2842e+007  6.4262e+005 174132 198835,198887,198861
 3.0000e+001 199160 -1.2315e+006 -5.3873e+006 -5.4009e+005 173842 199059,199111,199085
 3.0000e+001 199137 -1.5054e+006 -3.3885e+006 -1.1806e+006 173842 199033,199111,199059
 3.0000e+001 199361 -5.2702e+005 -1.2521e+007  1.2648e+006 173438 199237,199289,199263
 3.0000e+001 199338 -9.6545e+005 -8.7382e+006  1.9462e+006 173438 199211,199289,199237
 3.0000e+001 199315 -8.8681e+005 -1.1391e+007 -3.0869e+005 173438 199185,199289,199211
 3.0000e+001 199513  7.1508e+005 -1.5272e+007  2.7319e+006 173190 199386,199438,199412
 3.0000e+001 199490  4.9527e+005 -1.0573e+007 -4.3427e+005 173190 199386,199464,199438
 3.0000e+001 199665 -5.9649e+005 -3.7883e+006  3.1901e+005 172750 199564,199616,199590
 3.0000e+001 199642 -1.2493e+006 -1.7800e+006 -7.1959e+004 172750 199538,199616,199564
 3.0000e+001 199817 -8.4647e+005 -1.0042e+007 -3.4295e+006 172524 199690,199742,199716
 3.0000e+001 199794 -4.4048e+006 -5.3832e+006 -1.9769e+006 172524 199690,199768,199742
 3.0000e+001 199969 -1.9786e+004 -9.8765e+006 -5.0077e+005 172348 199842,199894,199868
 3.0000e+001 199946  9.2132e+005 -9.7482e+006  3.3128e+005 172348 199842,199920,199894
 3.0000e+001 200121  4.3782e+005 -9.9887e+006 -1.1864e+006 172008 199994,200046,200020
 3.0000e+001 200098 -7.6738e+005 -4.2679e+006 -4.5266e+005 172008 199994,200072,200046
 3.0000e+001 200273 -2.1375e+005 -7.8099e+006  4.4107e+005 171668 200172,200224,200198
 3.0000e+001 200250 -4.8985e+005 -7.4777e+006 -1.7642e+005 171668 200146,200224,200172
 3.0000e+001 200474  3.0389e+005 -1.3536e+007 -1.4033e+006 171264 200350,200402,200376
 3.0000e+001 200451 -2.8161e+005 -1.0313e+007 -5.2657e+005 171264 200324,200402,200350
 3.0000e+001 200428 -9.2450e+005 -8.3771e+006  1.9118e+006 171264 200298,200402,200324
 3.0000e+001 200626  3.1621e+005 -1.2359e+007  1.4689e+005 170832 200525,200577,200551
 3.0000e+001 200603 -3.7240e+005 -7.9110e+006  4.2531e+004 170832 200499,200577,200525
 3.0000e+001 200827  5.1297e+004 -1.1357e+007  1.0738e+006 170492 200677,200729,200703
 3.0000e+001 200804 -1.4483e+006 -5.6393e+006 -3.1939e+006 170492 200651,200729,200677
 3.0000e+001 200781 -3.1197e+006 -3.8363e+006 -1.8698e+006 170492 200651,200755,200729
 3.0000e+001 201077  1.1619e+006 -3.9409e+006  2.4875e+005 170088 200878,200956,200904
 3.0000e+001 201054 -4.8736e+005 -4.0271e+006 -1.6773e+006 170088 200852,200956,200878
 3.0000e+001 201031  5.8700e+005 -3.2262e+006  3.9570e+006 170088 200904,200956,200930
 3.0000e+001 201008  5.3274e+006 -1.0427e+007  2.7738e+006 170088 200852,200982,200956
 3.0000e+001 201278  6.0124e+005 -2.1465e+006  4.3527e+004 169798 201102,201154,201128
 3.0000e+001 201255 -1.6369e+006 -1.0635e+007 -9.2627e+005 169798 201102,201206,201154
 3.0000e+001 201232 -1.2295e+006 -3.2518e+006  1.1223e+006 169798 201154,201206,201180
 3.0000e+001 201430 -9.6318e+005 -1.7095e+007 -2.2959e+006 169337 201303,201355,201329
 3.0000e+001 201407 -5.4565e+005 -6.1796e+006 -5.1436e+005 169337 201303,201381,201355
 3.0000e+001 201631 -5.2037e+005 -8.8598e+006 -9.3248e+004 168883 201481,201559,201507
 3.0000e+001 201608  6.7925e+005 -8.1440e+006  4.2975e+005 168883 201455,201559,201481
 3.0000e+001 201585 -7.9266e+005 -8.8130e+006 -2.7353e+005 168883 201507,201559,201533
 3.0000e+001 201832 -7.3146e+005 -1.5694e+007  6.7558e+005 168479 201682,201734,201708
 3.0000e+001 201809 -2.3911e+006 -1.2858e+007 -1.7632e+006 168479 201656,201734,201682
 3.0000e+001 201786 -1.9085e+006 -1.0923e+007 -8.2943e+004 168479 201656,201760,201734
 3.0000e+001 202033 -3.2539e+005 -8.0377e+006  1.3334e+006 167825 201883,201935,201909
 3.0000e+001 202010 -1.5636e+006 -9.5622e+006 -1.5294e+006 167825 201857,201935,201883
 3.0000e+001 201987 -1.8411e+005 -1.7754e+007 -8.0666e+004 167825 201857,201961,201935
 3.0000e+001 202234 -6.5248e+005 -8.0452e+006 -2.3553e+006 167435 202058,202136,202084
 3.0000e+001 202211 -8.5028e+005 -1.0962e+007  1.2320e+006 167435 202058,202162,202136
 3.0000e+001 202188 -7.9336e+005 -3.7799e+006  5.9006e+005 167435 202084,202136,202110
 3.0000e+001 202386  4.2313e+005 -8.2047e+006  2.6586e+005 167002 202285,202337,202311
 3.0000e+001 202363 -8.2040e+005 -1.7818e+006  7.2287e+005 167002 202259,202337,202285
 3.0000e+001 202538  1.2370e+005 -1.0504e+007 -3.2931e+005 166662 202411,202463,202437
 3.0000e+001 202515 -7.1440e+005 -5.3577e+006  1.5424e+005 166662 202411,202489,202463
 3.0000e+001 202690  2.1078e+005 -9.1633e+006 -1.6687e+006 166322 202589,202641,202615
 3.0000e+001 202667  4.1806e+005 -8.0958e+006 -8.6237e+005 166322 202563,202641,202589
 3.0000e+001 202891 -7.5698e+005 -4.1333e+006  5.4899e+005 165918 202715,202767,202741
 3.0000e+001 202868 -1.4587e+006 -7.2350e+006  7.8397e+003 165918 202715,202793,202767
 3.0000e+001 202845 -3.6861e+005 -6.1890e+006 -6.6359e+005 165918 202715,202819,202793
 3.0000e+001 203092 -9.1336e+005 -9.5245e+006 -1.3110e+006 165628 202916,202968,202942
 3.0000e+001 203069 -2.2237e+005 -1.4447e+007 -6.6136e+005 165628 202916,202994,202968
 3.0000e+001 203046 -1.5271e+006 -1.2520e+007 -2.5989e+006 165628 202916,203020,202994
 3.0000e+001 203293 -5.1054e+006 -1.3684e+007  1.4697e+006 165266 203143,203195,203169
 3.0000e+001 203270 -3.9835e+006 -1.0812e+007 -4.7171e+005 165266 203143,203221,203195
 3.0000e+001 203247 -2.0138e+005 -1.4519e+007 -4.6715e+006 165266 203117,203221,203143
 3.0000e+001 203445  3.0501e+005 -5.7516e+006  1.2250e+006 164826 203318,203370,203344
 3.0000e+001 203422 -3.6288e+005 -3.6543e+006 -5.6947e+005 164826 203318,203396,203370
 3.0000e+001 203597 -1.2028e+006 -8.7863e+006 -7.2472e+005 164386 203470,203522,203496
 3.0000e+001 203574 -4.1988e+005 -5.9698e+006 -3.5269e+005 164386 203470,203548,203522
 3.0000e+001 203798  1.2640e+004 -8.7308e+006  1.2983e+006 163996 203622,203674,203648
 3.0000e+001 203775 -1.0887e+006 -2.5932e+006 -1.1453e+005 163996 203622,203726,203674
 3.0000e+001 203752 -2.7137e+006 -7.0208e+006  3.2896e+006 163996 203674,203726,203700
 3.0000e+001 203901 -7.9874e+005 -4.7459e+006 -8.9279e+005 163770 203823,203875,203849
 3.0000e+001 204053 -1.9896e+006 -6.9477e+006  1.0693e+006 163474 203952,204004,203978
 3.0000e+001 204030 -5.5059e+005 -8.0530e+006 -1.3957e+006 163474 203926,204004,203952
 3.0000e+001 204205 -7.7778e+004 -5.1744e+006 -3.3827e+005 163034 204104,204156,204130
 3.0000e+001 204182 -2.9803e+005 -1.1189e+007 -5.6406e+006 163034 204078,204156,204104
 3.0000e+001 204357 -3.8644e+005 -8.4209e+006  1.1462e+006 162624 204256,204308,204282
 3.0000e+001 204334 -6.0995e+004 -2.9136e+006  3.3030e+004 162624 204230,204308,204256
 3.0000e+001 204509  6.5795e+002  2.8605e+002  8.4540e+001 162200 204382,204434,204408
 3.0000e+001 204486  1.1612e+003 -4.2692e+002  9.0964e+002 162200 204382,204460,204434
 3.0000e+001 204710 -2.6220e+005 -1.5160e+006  5.9798e+005 161810 204560,204638,204586
 3.0000e+001 204687 -1.0075e+005 -2.1078e+006  3.2696e+003 161810 204534,204638,204560
 3.0000e+001 204664 -3.2702e+005 -5.8207e+005  1.7745e+005 161810 204586,204638,204612
 3.0000e+001 204862 -1.5313e+006 -6.4172e+006 -1.9909e+006 161406 204735,204787,204761
 3.0000e+001 204839 -1.9672e+006 -7.6252e+006 -1.2827e+006 161406 204735,204813,204787
 3.0000e+001 205014 -7.3332e+003 -6.8150e+005  1.6487e+005 161180 204887,204939,204913
 3.0000e+001 204991 -4.7016e+004 -3.0447e+005 -1.6892e+004 161180 204887,204965,204939
 3.0000e+001 205215  6.8011e+005 -3.3550e+006 -2.9915e+005 160726 205039,205091,205065
 3.0000e+001 205192 -8.9938e+005 -9.5023e+006 -8.3542e+005 160726 205039,205143,205091
 3.0000e+001 205169 -1.5372e+004 -2.5070e+006 -5.0977e+004 160726 205091,205143,205117
 3.0000e+001 205416  2.4259e+005 -4.9467e+006  1.6235e+006 160272 205292,205344,205318
 3.0000e+001 205393 -8.6347e+005 -9.5410e+005  8.5551e+005 160272 205240,205344,205292
 3.0000e+001 205370 -6.7701e+005 -1.0526e+006 -2.1088e+005 160272 205240,205292,205266
 3.0000e+001 205568 -6.0578e+004 -9.3117e+005  1.6723e+005 159932 205441,205493,205467
 3.0000e+001 205545 -2.3140e+004 -8.0789e+005  1.4194e+005 159932 205441,205519,205493
 3.0000e+001 205720  2.6952e+002 -2.9621e+005 -5.9434e+004 159542 205593,205645,205619
 3.0000e+001 205697  2.0218e+003 -5.1151e+004 -3.3219e+004 159542 205593,205671,205645
 3.0000e+001 205872  1.1026e+004 -2.6807e+005  5.4958e+004 159252 205745,205797,205771
 3.0000e+001 205849 -1.1567e+005 -8.1284e+005  2.2036e+004 159252 205745,205823,205797
 3.0000e+001 206024 -2.4920e+006 -1.9947e+006 -5.3968e+005 159004 205923,205975,205949
 3.0000e+001 206001 -8.1336e+005 -3.5365e+006  7.0981e+005 159004 205897,205975,205923
 3.0000e+001 206127 -1.3180e+004 -4.1494e+003 -1.4690e+003 158364 206049,206101,206075
 3.0000e+001 206328 -3.7253e+004 -6.5954e+005  6.6484e+004 157960 206178,206256,206204
 3.0000e+001 206305 -7.8824e+004 -6.0468e+005  1.4549e+005 157960 206152,206256,206178
 3.0000e+001 206282 -8.5042e+003 -5.2874e+005  9.8549e+004 157960 206204,206256,206230
 3.0000e+001 206529 -1.1170e+005 -1.0893e+007  7.6309e+004 157648 206405,206457,206431
 3.0000e+001 206506 -3.4072e+006 -8.1549e+006 -1.3039e+006 157648 206379,206457,206405
 3.0000e+001 206483 -9.6186e+005 -6.6065e+006  1.2824e+005 157648 206353,206457,206379
 3.0000e+001 206730  5.5224e+005 -2.0317e+007 -8.1727e+005 157208 206554,206606,206580
 3.0000e+001 206707  9.9654e+005 -2.1908e+007  3.0757e+005 157208 206554,206632,206606
 3.0000e+001 206684 -4.0966e+006 -6.5479e+006 -1.2701e+006 157208 206554,206658,206632
 3.0000e+001 206882 -3.2645e+004 -4.0191e+005  5.0806e+004 157010 206755,206807,206781
 3.0000e+001 206859 -1.1639e+004 -5.7900e+005  1.2533e+005 157010 206755,206833,206807
 3.0000e+001 207034 -3.8934e+005 -8.0959e+006 -2.4504e+005 156620 206907,206959,206933
 3.0000e+001 207011  3.6351e+005 -1.6676e+007  1.7384e+005 156620 206907,206985,206959
 3.0000e+001 207186 -1.5823e+004 -4.5721e+006  1.8061e+005 156330 207085,207137,207111
 3.0000e+001 207163  1.7664e+004 -4.6916e+006 -1.2035e+006 156330 207059,207137,207085
 3.0000e+001 207387 -3.8817e+005 -9.5252e+006  5.6930e+005 155890 207211,207289,207237
 3.0000e+001 207364 -4.9384e+005 -9.6211e+006 -6.6727e+005 155890 207211,207315,207289
 3.0000e+001 207341 -1.6455e+006 -6.4473e+006  2.3917e+006 155890 207237,207289,207263
 3.0000e+001 207588  1.1559e+006 -2.6115e+007  6.0791e+006 155436 207438,207490,207464
 3.0000e+001 207565 -7.0749e+005 -2.1724e+007 -4.9248e+005 155436 207412,207490,207438
 3.0000e+001 207542 -1.3791e+006 -1.5275e+007 -9.3474e+005 155436 207412,207516,207490
 3.0000e+001 207789  1.2407e+006 -3.9781e+007 -2.8551e+006 155260 207639,207691,207665
 3.0000e+001 207766 -4.0248e+006 -1.6278e+007  4.7968e+006 155260 207613,207691,207639
 3.0000e+001 207743 -7.0373e+005 -1.3308e+007 -7.0743e+005 155260 207613,207717,207691
 3.0000e+001 207990 -2.5483e+004 -3.8702e+004 -9.1270e+003 154920 207840,207918,207892
 3.0000e+001 207967 -2.2556e+005 -1.3547e+005 -1.7266e+005 154920 207814,207918,207840
 3.0000e+001 207944 -1.1946e+004 -2.8009e+004 -1.6550e+004 154920 207840,207892,207866
 3.0000e+001 208191 -1.2415e+005 -1.6155e+007 -7.7494e+005 154630 208015,208093,208041
 3.0000e+001 208168  6.6700e+005 -1.1502e+007 -1.3901e+006 154630 208015,208119,208093
 3.0000e+001 208145 -2.5513e+006 -1.0389e+007 -5.1486e+006 154630 208041,208093,208067
 3.0000e+001 208343 -3.3735e+003 -2.9637e+003 -1.1608e+003 154240 208216,208268,208242
 3.0000e+001 208320 -1.9465e+003  2.1777e+002 -5.7488e+003 154240 208216,208294,208268
 3.0000e+001 208495  2.5442e+006 -3.4920e+007 -7.5019e+006 153950 208394,208446,208420
 3.0000e+001 208472 -2.8372e+006 -1.6606e+007  5.0474e+006 153950 208368,208446,208394
 3.0000e+001 208647 -7.9372e+005 -1.9747e+007  9.0360e+006 153603 208520,208572,208546
 3.0000e+001 208624 -5.4367e+006 -6.6262e+006 -4.2557e+006 153603 208520,208598,208572
 3.0000e+001 208848 -7.5291e+005 -7.8726e+006  2.4640e+006 153149 208698,208776,208724
 3.0000e+001 208825  5.7226e+005 -1.6781e+007 -2.0872e+006 153149 208672,208776,208698
 3.0000e+001 208802 -2.7015e+006 -5.9906e+006  1.5799e+006 153149 208724,208776,208750
 3.0000e+001 209000 -1.1486e+006 -1.3418e+007 -2.3486e+005 152859 208873,208925,208899
 3.0000e+001 208977  2.7431e+004 -1.9128e+007  5.9854e+005 152859 208873,208951,208925
 3.0000e+001 209152  5.4413e+005 -1.6638e+007 -3.7199e+005 152569 209051,209103,209077
 3.0000e+001 209129  6.3485e+005 -1.7474e+007 -8.4288e+005 152569 209025,209103,209051
 3.0000e+001 209304 -3.8089e+003  4.9388e+002 -1.4706e+003 152065 209177,209229,209203
 3.0000e+001 209281 -2.5585e+003  4.5922e+003 -3.3295e+003 152065 209177,209255,209229
 3.0000e+001 209456  6.2560e+005 -1.5158e+007 -1.2536e+004 151775 209355,209407,209381
 3.0000e+001 209433  1.1079e+006 -1.9406e+007 -9.7309e+004 151775 209329,209407,209355
 3.0000e+001 209608 -6.9125e+005 -1.9517e+007 -3.0813e+005 151371 209481,209533,209507
 3.0000e+001 209585  6.1658e+005 -2.2897e+007  6.2473e+005 151371 209481,209559,209533
 3.0000e+001 209760 -6.1810e+005 -9.4226e+006  9.7757e+005 150981 209659,209711,209685
 3.0000e+001 209737 -1.6887e+005 -1.4889e+007 -5.4972e+006 150981 209633,209711,209659
 3.0000e+001 209912  2.3802e+006 -3.9926e+007 -2.8845e+006 150619 209811,209863,209837
 3.0000e+001 209889 -6.9969e+005 -2.3902e+007  2.9256e+006 150619 209785,209863,209811
 3.0000e+001 210064 -2.3016e+006 -4.4353e+006 -1.4360e+006 150279 209937,209989,209963
 3.0000e+001 210041  1.4798e+006 -2.4645e+007 -1.4590e+006 150279 209937,210015,209989
 3.0000e+001 210265 -1.4709e+005 -2.0170e+007 -2.5300e+006 149989 210115,210167,210141
 3.0000e+001 210242 -1.6206e+006 -1.7387e+007  7.4320e+005 149989 210115,210193,210167
 3.0000e+001 210219 -1.4055e+006 -2.2197e+007  6.9778e+005 149989 210089,210193,210115
 3.0000e+001 210417 -2.1523e+006 -6.8815e+006  2.6374e+005 149599 210316,210368,210342
 3.0000e+001 210394  4.8081e+005 -2.1449e+007 -2.9210e+006 149599 210290,210368,210316
 3.0000e+001 210618 -4.3587e+006 -1.4388e+007  1.7383e+006 149095 210468,210520,210494
 3.0000e+001 210595 -4.1482e+006 -1.4334e+007  1.7222e+006 149095 210442,210520,210468
 3.0000e+001 210572 -1.9797e+006 -2.8207e+007  3.1903e+006 149095 210442,210546,210520
 3.0000e+001 210819 -1.2930e+005 -1.6629e+006 -9.9226e+004 148748 210695,210747,210721
 3.0000e+001 210796 -1.8151e+004 -1.8511e+006  6.1716e+004 148748 210669,210747,210695
 3.0000e+001 210773 -2.2617e+005 -1.3430e+006  5.5218e+005 148748 210643,210747,210669
 3.0000e+001 210971 -7.7943e+000  2.9438e+002 -7.8274e+001 148408 210870,210922,210896
 3.0000e+001 210948 -2.3924e+002 -6.5543e+002 -1.9492e+002 148408 210844,210922,210870
 3.0000e+001 211123 -9.6577e+005 -1.4788e+007  1.0623e+006 148118 210996,211048,211022
 3.0000e+001 211100  1.1153e+006 -1.9495e+007  5.8664e+006 148118 210996,211074,211048
 3.0000e+001 211275 -4.3162e+006 -1.3948e+007 -1.0181e+006 147778 211148,211200,211174
 3.0000e+001 211252  5.1312e+005 -3.2711e+007  1.0554e+007 147778 211148,211226,211200
 3.0000e+001 211427 -4.8976e+006 -6.2664e+006  2.9810e+006 147324 211326,211378,211352
 3.0000e+001 211404  6.8229e+005 -2.0507e+007 -2.2544e+006 147324 211300,211378,211326
 3.0000e+001 211628  6.2092e+002  2.4256e+002 -5.3118e+002 147012 211452,211504,211478
 3.0000e+001 211605 -4.9053e+002 -4.4274e+003 -6.1859e+001 147012 211452,211556,211504
 3.0000e+001 211582 -3.9845e+002 -1.6959e+003 -7.4578e+002 147012 211504,211556,211530
 3.0000e+001 211829 -3.4114e+006 -8.9285e+006  3.9315e+006 146636 211679,211757,211731
 3.0000e+001 211806  5.9904e+006 -3.1240e+007 -3.4976e+006 146636 211653,211757,211679
 3.0000e+001 211783  2.0604e+006 -8.2093e+006  3.9321e+006 146636 211679,211731,211705
 3.0000e+001 211981  6.5119e+004 -1.1650e+006  3.2070e+004 146246 211880,211932,211906
 3.0000e+001 211958  1.9991e+004 -1.3653e+005 -6.0248e+003 146246 211854,211932,211880
 3.0000e+001 212133 -8.1505e+001  1.1981e+002 -7.8587e+001 145956 212006,212058,212032
 3.0000e+001 212110  7.2286e+002 -1.9771e+002  4.6003e+001 145956 212006,212084,212058
 3.0000e+001 212285 -6.4461e+004 -1.1844e+006  3.3798e+004 145544 212184,212236,212210
 3.0000e+001 212262 -6.2310e+004 -3.4460e+005 -2.7641e+004 145544 212158,212236,212184
 3.0000e+001 212486  8.1307e+005 -1.3410e+007  1.5082e+006 144990 212362,212414,212388
 3.0000e+001 212463  6.5207e+004 -9.9757e+006  3.2692e+006 144990 212310,212414,212362
 3.0000e+001 212440 -2.0560e+006 -4.0267e+006  1.8000e+006 144990 212310,212362,212336
 3.0000e+001 212638 -8.0081e+004 -8.2251e+005  2.3343e+005 144600 212537,212589,212563
 3.0000e+001 212615  2.8241e+004 -4.1593e+005  1.5830e+005 144600 212511,212589,212537
 3.0000e+001 212839 -7.4726e+004 -1.0210e+006 -2.0430e+005 144210 212689,212741,212715
 3.0000e+001 212816 -1.2366e+004 -1.2175e+006 -4.5052e+004 144210 212663,212741,212689
 3.0000e+001 212793  6.8662e+004 -7.5988e+005 -7.2746e+004 144210 212663,212767,212741
 3.0000e+001 212991 -3.1596e+005 -6.3058e+005  1.9046e+005 143920 212890,212942,212916
 3.0000e+001 212968 -3.3776e+004 -3.3337e+006 -1.8515e+005 143920 212864,212942,212890
 3.0000e+001 213143  2.1817e+004 -9.4318e+005  1.2659e+005 143480 213016,213068,213042
 3.0000e+001 213120 -7.6678e+004 -6.7053e+005 -1.4165e+005 143480 213016,213094,213068
 3.0000e+001 213295 -6.5217e+005 -5.7779e+006  2.6015e+006 142990 213194,213246,213220
 3.0000e+001 213272 -2.6924e+005 -2.5944e+006  2.1262e+006 142990 213168,213246,213194
 3.0000e+001 213447 -1.3728e+006 -4.0518e+006  9.8925e+005 142600 213320,213372,213346
 3.0000e+001 213424 -2.4597e+006 -3.2257e+006  3.8793e+005 142600 213320,213398,213372
 3.0000e+001 213599 -1.7817e+005 -1.1361e+006 -3.6222e+005 142260 213472,213524,213498
 3.0000e+001 213576 -1.0566e+005 -1.2943e+006  1.9117e+005 142260 213472,213550,213524
 3.0000e+001 213751 -9.6600e+005 -1.4160e+006  1.7391e+005 141870 213624,213676,213650
 3.0000e+001 213728 -2.0815e+006 -1.3594e+006 -1.6449e+005 141870 213624,213702,213676
 3.0000e+001 213903 -2.1655e+006 -5.4059e+006 -2.5698e+006 141530 213776,213828,213802
 3.0000e+001 213880 -8.5028e+005 -5.7998e+006 -1.6740e+006 141530 213776,213854,213828
 3.0000e+001 214055  4.5728e+001 -3.6872e+002 -2.1681e+001 141218 213928,213980,213954
 3.0000e+001 214032  1.6384e+002 -7.5593e+002  5.9654e+001 141218 213928,214006,213980
 3.0000e+001 214207  1.7669e+003  4.0999e+002 -3.2664e+002 140928 214080,214132,214106
 3.0000e+001 214184  1.8527e+003  4.6775e+002 -7.2446e+002 140928 214080,214158,214132
 3.0000e+001 214359 -1.1007e+006 -5.3417e+005 -1.0074e+006 140538 214232,214284,214258
 3.0000e+001 214336  5.0646e+005 -2.8638e+006  6.6171e+005 140538 214232,214310,214284
 3.0000e+001 214560 -1.5167e+005 -2.0400e+006  1.8783e+005 140248 214384,214462,214410
 3.0000e+001 214537 -2.2368e+005 -1.2922e+006 -6.0202e+004 140248 214384,214488,214462
 3.0000e+001 214514 -2.1656e+005 -9.6578e+005 -2.0367e+005 140248 214410,214462,214436
 3.0000e+001 214712 -1.4478e+006 -5.9353e+006  9.6602e+005 140000 214611,214663,214637
 3.0000e+001 214689 -1.2613e+006 -4.0615e+006  1.0137e+006 140000 214585,214663,214611
 3.0000e+001 214913 -6.6913e+005 -5.0115e+006 -1.2730e+006 139596 214737,214815,214763
 3.0000e+001 214890 -4.9880e+005 -2.6956e+006 -1.3052e+005 139596 214737,214841,214815
 3.0000e+001 214867  5.1405e+005 -7.6040e+006 -7.6216e+005 139596 214763,214815,214789
 3.0000e+001 215016 -3.5480e+002 -3.1013e+004 -8.4579e+002 139420 214938,214990,214964
 3.0000e+001 215168 -4.9027e+005 -9.5126e+006  1.8683e+006 139130 215067,215119,215093
 3.0000e+001 215145 -1.0218e+006 -9.4737e+006  3.1948e+006 139130 215041,215119,215067
 3.0000e+001 215320 -1.4320e+006 -2.1102e+006  1.1064e+006 138790 215219,215271,215245
 3.0000e+001 215297  5.0400e+005 -1.2207e+007  3.1402e+006 138790 215193,215271,215219
 3.0000e+001 215472 -8.8943e+004 -1.3088e+006  5.1343e+005 138514 215345,215397,215371
 3.0000e+001 215449 -3.7685e+004 -8.2330e+005  1.3615e+005 138514 215345,215423,215397
 3.0000e+001 215624 -2.1712e+005 -9.0567e+006  4.7488e+005 138174 215497,215549,215523
 3.0000e+001 215601 -5.2036e+004 -7.2111e+006  1.6038e+005 138174 215497,215575,215549
 3.0000e+001 215776 -5.3884e+005 -2.4163e+006  1.4536e+006 137734 215649,215701,215675
 3.0000e+001 215753 -1.5763e+005 -1.4991e+006 -1.8967e+005 137734 215649,215727,215701
 3.0000e+001 215977 -1.4133e+006 -1.7516e+007  4.1264e+006 137344 215801,215879,215827
 3.0000e+001 215954 -1.0376e+005 -9.8807e+006 -1.8109e+006 137344 215801,215905,215879
 3.0000e+001 215931  1.4639e+006 -2.6009e+007 -2.2629e+006 137344 215827,215879,215853
 3.0000e+001 216129 -2.9284e+005 -7.4084e+006  9.2488e+005 136940 216028,216080,216054
 3.0000e+001 216106 -1.2992e+005 -5.2472e+006  5.1402e+005 136940 216002,216080,216028
 3.0000e+001 216330 -6.3991e+005 -8.0450e+006  1.1957e+006 136600 216180,216232,216206
 3.0000e+001 216307 -4.5557e+005 -8.0966e+006  1.5688e+006 136600 216154,216232,216180
 3.0000e+001 216284 -2.0425e+006 -6.1182e+006  8.3047e+005 136600 216154,216258,216232
 3.0000e+001 216482  8.4056e+005 -6.2969e+006  3.3527e+005 136260 216381,216433,216407
 3.0000e+001 216459  2.7747e+005 -7.5648e+006 -1.4959e+005 136260 216355,216433,216381
 3.0000e+001 216634 -6.4411e+005 -6.0739e+006  1.7589e+006 135970 216533,216585,216559
 3.0000e+001 216611 -3.1011e+005 -8.1928e+006  1.9928e+006 135970 216507,216585,216533
 3.0000e+001 216835 -1.1287e+006 -5.4482e+006  1.0919e+004 135608 216685,216763,216711
 3.0000e+001 216812  2.8859e+005 -6.1442e+006 -1.3551e+006 135608 216659,216763,216685
 3.0000e+001 216789 -1.3835e+006 -9.7185e+006  4.5342e+005 135608 216711,216763,216737
 3.0000e+001 217036 -3.8549e+005 -6.9054e+006  1.0249e+006 135312 216912,216964,216938
 3.0000e+001 217013 -3.3728e+005 -8.0405e+006  1.4826e+006 135312 216886,216964,216912
 3.0000e+001 216990 -6.9347e+005 -8.4025e+006  1.2654e+006 135312 216860,216964,216886
 3.0000e+001 217237 -1.5435e+005 -1.4742e+006  3.6774e+005 134908 217061,217139,217113
 3.0000e+001 217214 -4.0536e+005 -1.6593e+006  8.6794e+005 134908 217061,217165,217139
 3.0000e+001 217191 -4.3707e+005 -1.6274e+006  4.8785e+005 134908 217061,217113,217087
 3.0000e+001 217438 -1.5841e+006 -2.3710e+007  1.1064e+006 134568 217288,217366,217314
 3.0000e+001 217415  1.1265e+006 -3.0006e+007  1.1069e+006 134568 217262,217366,217288
 3.0000e+001 217392  1.5369e+004 -2.2049e+007 -3.6747e+005 134568 217314,217366,217340
 3.0000e+001 217590 -3.9829e+005 -1.4699e+006  5.4887e+005 134106 217463,217515,217489
 3.0000e+001 217567 -1.4258e+005 -1.2578e+006  2.9857e+005 134106 217463,217541,217515
 3.0000e+001 217791 -2.2077e+006 -3.1413e+007 -1.1934e+007 133816 217641,217693,217667
 3.0000e+001 217768  4.3699e+006 -3.7353e+007  5.6421e+006 133816 217641,217719,217693
 3.0000e+001 217745 -8.3257e+006 -3.9779e+006  5.7549e+006 133816 217615,217719,217641
 3.0000e+001 217992 -3.0476e+006 -5.4970e+006  3.9911e+006 133355 217842,217920,217894
 3.0000e+001 217969  1.8505e+005 -1.5339e+007 -1.1054e+006 133355 217816,217920,217842
 3.0000e+001 217946 -5.1765e+005 -3.1054e+006  6.2770e+005 133355 217842,217894,217868
 3.0000e+001 218193  1.3605e+005 -5.9342e+006 -4.5178e+006 132851 218017,218095,218069
 3.0000e+001 218170 -2.3032e+006 -1.0552e+007  7.1004e+006 132851 218017,218121,218095
 3.0000e+001 218147 -4.1353e+006 -5.3971e+006 -2.8375e+006 132851 218017,218069,218043
 3.0000e+001 218345 -4.6934e+005 -3.6849e+006  9.7079e+005 132511 218244,218296,218270
 3.0000e+001 218322 -9.0096e+005 -2.8442e+006  4.1248e+005 132511 218218,218296,218244
 3.0000e+001 218497  5.8617e+005 -3.4457e+007 -2.9482e+006 132235 218396,218448,218422
 3.0000e+001 218474 -1.9756e+006 -1.0439e+007  1.7450e+005 132235 218370,218448,218396
 3.0000e+001 218698 -3.1725e+005 -1.5820e+007  3.7889e+005 131945 218574,218626,218600
 3.0000e+001 218675 -1.6876e+006 -2.1475e+007  2.7817e+005 131945 218522,218626,218574
 3.0000e+001 218652 -1.5183e+006 -1.5954e+007 -1.4338e+006 131945 218522,218574,218548
 3.0000e+001 218850 -9.2627e+005 -2.2300e+007 -1.7636e+006 131655 218723,218775,218749
 3.0000e+001 218827 -7.0032e+005 -1.3534e+007 -8.0516e+005 131655 218723,218801,218775
 3.0000e+001 218953 -4.2176e+005 -5.2606e+006  8.6006e+005 131215 218875,218927,218901
 3.0000e+001 219105 -4.6362e+005 -7.8151e+006 -9.8477e+005 130875 218978,219030,219004
 3.0000e+001 219082 -5.7489e+005 -3.3899e+006  4.0067e+003 130875 218978,219056,219030
 3.0000e+001 219306 -4.0694e+005 -6.0705e+006  1.1431e+005 130429 219156,219234,219208
 3.0000e+001 219283 -6.1269e+005 -3.5816e+006  6.7482e+005 130429 219130,219234,219156
 3.0000e+001 219260 -2.3526e+006 -6.7174e+006  2.0068e+006 130429 219156,219208,219182
 3.0000e+001 219507 -4.0380e+005 -2.9089e+006  6.4873e+005 130025 219383,219435,219409
 3.0000e+001 219484 -3.3209e+005 -3.2349e+006  8.5028e+005 130025 219331,219435,219383
 3.0000e+001 219461 -5.0054e+005 -1.9362e+006  3.0176e+005 130025 219331,219383,219357
 3.0000e+001 219659  1.6547e+004 -1.0068e+007  5.9304e+005 129685 219558,219610,219584
 3.0000e+001 219636  2.3257e+005 -1.4583e+007 -5.0251e+006 129685 219532,219610,219558
 3.0000e+001 219860 -1.8541e+005 -4.2577e+006  1.2939e+006 129395 219710,219788,219762
 3.0000e+001 219837 -8.9148e+005 -3.9802e+006  8.9731e+005 129395 219684,219788,219710
 3.0000e+001 219814  3.9493e+005 -6.1612e+006 -1.3114e+005 129395 219710,219762,219736
 3.0000e+001 220061  1.9334e+005 -3.7809e+006  3.5810e+005 128991 219937,219989,219963
 3.0000e+001 220038 -4.6386e+004 -4.3187e+006  1.4819e+005 128991 219885,219989,219937
 3.0000e+001 220015  7.7440e+004 -4.1758e+006  4.8522e+005 128991 219885,219937,219911
 3.0000e+001 220262 -2.5555e+005 -2.9801e+006  8.0361e+004 128701 220086,220164,220112
 3.0000e+001 220239  1.5553e+005 -3.7176e+006  3.1995e+005 128701 220086,220190,220164
 3.0000e+001 220216 -1.3777e+005 -2.6585e+006  6.0001e+005 128701 220112,220164,220138
 3.0000e+001 220463 -3.3233e+006 -1.0318e+007  2.8626e+006 128297 220339,220391,220365
 3.0000e+001 220440  2.2397e+006 -2.0010e+007  6.8957e+005 128297 220313,220391,220339
 3.0000e+001 220417 -3.4780e+005 -2.3911e+007 -5.2630e+006 128297 220287,220391,220313
 3.0000e+001 220615 -2.0925e+006 -4.9466e+006 -1.3422e+006 128007 220488,220540,220514
 3.0000e+001 220592  1.9567e+006 -1.5442e+007 -1.9948e+005 128007 220488,220566,220540
 3.0000e+001 220767 -9.6396e+003 -3.8279e+006 -9.8730e+004 127567 220640,220692,220666
 3.0000e+001 220744 -2.0293e+005 -2.0560e+006 -1.1095e+005 127567 220640,220718,220692
 3.0000e+001 220919 -1.2203e+005 -1.8697e+007 -1.8799e+006 127163 220792,220844,220818
 3.0000e+001 220896  1.4458e+006 -2.1484e+007  1.1356e+006 127163 220792,220870,220844
 3.0000e+001 221071 -1.1984e+006 -4.0898e+006  1.5433e+006 126915 220970,221022,220996
 3.0000e+001 221048 -1.1039e+006 -4.6765e+006  1.3329e+006 126915 220944,221022,220970
 3.0000e+001 221272 -2.1232e+006 -4.7225e+006  2.9886e+006 126461 221122,221174,221148
 3.0000e+001 221249 -5.0476e+006 -6.2208e+006  3.9126e+005 126461 221122,221200,221174
 3.0000e+001 221226  8.7295e+005 -1.6243e+007 -4.1417e+006 126461 221096,221200,221122
 3.0000e+001 221375 -1.8410e+001 -1.2210e+002 -5.8654e+000 126213 221297,221349,221323
 3.0000e+001 221478  2.6836e+002 -1.7326e+001  3.9172e+001 125766 221400,221452,221426
 3.0000e+001 221679 -9.3404e+004 -2.4564e+006  2.3920e+005 125212 221503,221555,221529
 3.0000e+001 221656 -1.5622e+005 -3.1570e+006  4.4552e+004 125212 221503,221581,221555
 3.0000e+001 221633  2.5399e+005 -5.9325e+006  1.3605e+006 125212 221503,221607,221581
 3.0000e+001 221929 -1.0945e+005 -7.2957e+005  3.0634e+005 124872 221782,221834,221808
 3.0000e+001 221906 -9.1126e+004 -7.3198e+005  2.8225e+005 124872 221756,221834,221782
 3.0000e+001 221883 -1.3546e+005 -5.1964e+005  1.9783e+005 124872 221704,221834,221756
 3.0000e+001 221860 -2.0575e+005 -1.0079e+006  1.3170e+005 124872 221704,221756,221730
 3.0000e+001 222130 -6.9001e+005 -1.1089e+007 -1.4240e+006 124582 221980,222058,222006
 3.0000e+001 222107 -1.7770e+006 -1.1295e+007 -1.5173e+006 124582 221954,222058,221980
 3.0000e+001 222084 -1.9472e+006 -1.2353e+007 -2.1836e+006 124582 222006,222058,222032
 3.0000e+001 222282 -2.8205e+006 -1.3834e+007 -3.5952e+006 124192 222181,222233,222207
 3.0000e+001 222259 -1.1033e+006 -1.3323e+007 -3.2909e+006 124192 222155,222233,222181
 3.0000e+001 222483 -2.7963e+005 -4.1809e+006 -8.8185e+005 123702 222333,222385,222359
 3.0000e+001 222460 -3.0910e+005 -3.6569e+006 -1.0772e+005 123702 222333,222411,222385
 3.0000e+001 222437 -2.7311e+005 -1.8068e+006 -3.8248e+005 123702 222307,222411,222333
 3.0000e+001 222635 -5.6727e+005 -1.5974e+006 -5.1104e+005 123312 222508,222560,222534
 3.0000e+001 222612  3.5084e+005 -6.1999e+006 -3.7464e+005 123312 222508,222586,222560
 3.0000e+001 222787 -1.9809e+005 -1.9498e+006 -6.5964e+004 122858 222686,222738,222712
 3.0000e+001 222764 -3.1937e+005 -1.8911e+006 -5.5702e+005 122858 222660,222738,222686
 3.0000e+001 222939 -9.4926e+004 -1.2956e+006 -1.0909e+004 122568 222812,222864,222838
 3.0000e+001 222916 -8.1816e+003 -8.0575e+005  8.7355e+004 122568 222812,222890,222864
 3.0000e+001 223091 -2.5587e+005 -3.2240e+006 -7.4993e+005 122392 222964,223016,222990
 3.0000e+001 223068  4.7270e+005 -4.0898e+006  6.9317e+004 122392 222964,223042,223016
 3.0000e+001 223292 -3.1608e+005 -1.2903e+007 -2.2641e+006 121852 223142,223220,223194
 3.0000e+001 223269 -1.8486e+006 -1.0745e+007 -9.5133e+005 121852 223116,223220,223142
 3.0000e+001 223246 -3.6540e+005 -1.2952e+007 -2.1736e+006 121852 223142,223194,223168
 3.0000e+001 223493 -1.3189e+006 -1.0842e+007  3.0135e+005 121406 223343,223395,223369
 3.0000e+001 223470 -2.2429e+006 -8.6279e+006 -1.5930e+006 121406 223343,223421,223395
 3.0000e+001 223447 -1.5167e+006 -6.1817e+006  2.6099e+006 121406 223317,223421,223343
 3.0000e+001 223645  4.0492e+005 -1.2458e+007  5.6074e+005 121002 223544,223596,223570
 3.0000e+001 223622 -1.6032e+006 -5.3009e+006  1.0748e+006 121002 223518,223596,223544
 3.0000e+001 223846 -2.4203e+005 -9.3813e+006  8.2647e+004 120662 223670,223748,223696
 3.0000e+001 223823  6.5723e+005 -5.8369e+006 -9.1879e+004 120662 223670,223774,223748
 3.0000e+001 223800 -1.1992e+006 -4.1952e+006 -1.3661e+006 120662 223696,223748,223722
 3.0000e+001 224047 -4.7716e+005 -5.1221e+006  1.3075e+006 120222 223897,223949,223923
 3.0000e+001 224024  4.6758e+005 -6.7542e+006 -7.5497e+005 120222 223871,223949,223897
 3.0000e+001 224001 -3.1821e+005 -6.0991e+006 -7.7568e+005 120222 223871,223975,223949
 3.0000e+001 224248  7.7859e+005 -5.4363e+006 -6.6577e+005 119875 224124,224176,224150
 3.0000e+001 224225 -1.1042e+006 -1.2073e+007 -2.0102e+006 119875 224098,224176,224124
 3.0000e+001 224202 -5.2406e+005 -2.1617e+006  8.8298e+004 119875 224072,224176,224098
 3.0000e+001 224449 -2.5868e+005 -5.3177e+006 -3.7830e+005 119677 224325,224377,224351
 3.0000e+001 224426 -6.6145e+005 -6.9333e+006 -2.4612e+005 119677 224299,224377,224325
 3.0000e+001 224403 -4.0824e+005 -3.6545e+006 -1.1059e+005 119677 224273,224377,224299
 3.0000e+001 224552 -5.5815e+005 -3.3765e+006 -1.1585e+005 119273 224474,224526,224500
 3.0000e+001 224704 -1.9313e+006 -1.4965e+007 -2.7509e+006 118983 224603,224655,224629
 3.0000e+001 224681 -8.8464e+005 -1.3284e+007 -1.6189e+006 118983 224577,224655,224603
 3.0000e+001 224856 -5.5444e+005 -1.0643e+007 -3.1724e+005 118529 224755,224807,224781
 3.0000e+001 224833  2.6512e+005 -1.5149e+007 -1.4410e+006 118529 224729,224807,224755
 3.0000e+001 225008 -6.6350e+005 -8.8276e+006  8.7287e+004 118353 224881,224933,224907
 3.0000e+001 224985 -3.1658e+005 -3.2090e+006 -4.7703e+004 118353 224881,224959,224933
 3.0000e+001 225209 -3.8186e+005 -8.4339e+006 -5.8226e+005 117949 225059,225137,225111
 3.0000e+001 225186 -4.4283e+005 -8.4686e+006 -6.3315e+005 117949 225033,225137,225059
 3.0000e+001 225163  7.8857e+004 -9.5923e+006 -1.4986e+005 117949 225059,225111,225085
 3.0000e+001 225410  3.3070e+004 -8.4783e+006  8.6740e+005 117559 225260,225338,225312
 3.0000e+001 225387 -4.8278e+005 -8.6888e+006  5.8793e+005 117559 225234,225338,225260
 3.0000e+001 225364 -7.1947e+005 -5.9488e+006 -2.0680e+006 117559 225260,225312,225286
 3.0000e+001 225611 -1.3489e+006 -1.2206e+007 -5.9490e+006 117361 225461,225513,225487
 3.0000e+001 225588  1.6691e+006 -1.2700e+007  1.2700e+006 117361 225461,225539,225513
 3.0000e+001 225565 -2.4158e+006 -7.8007e+006  4.3317e+006 117361 225435,225539,225461
 3.0000e+001 225812  1.4504e+005 -7.6244e+006 -3.5392e+005 116900 225636,225714,225662
 3.0000e+001 225789  7.7247e+005 -8.4447e+006 -4.4548e+005 116900 225636,225740,225714
 3.0000e+001 225766 -4.8167e+004 -7.6215e+006 -6.0608e+005 116900 225662,225714,225688
 3.0000e+001 225964 -3.4459e+005 -6.2748e+006 -1.3944e+005 116560 225837,225889,225863
 3.0000e+001 225941  1.0716e+005 -8.7369e+006  2.2060e+005 116560 225837,225915,225889
 3.0000e+001 226165  5.1408e+004 -8.2860e+006 -3.4242e+005 116106 226015,226093,226041
 3.0000e+001 226142  1.8112e+005 -1.0139e+007 -3.1002e+006 116106 225989,226093,226015
 3.0000e+001 226119 -2.4581e+006 -4.4190e+006  1.7266e+005 116106 226041,226093,226067
 3.0000e+001 226268 -1.7086e+006 -1.1145e+007  3.5252e+005 115716 226190,226242,226216
 3.0000e+001 226420  3.1673e+005 -9.3569e+006  1.9112e+006 115376 226293,226345,226319
 3.0000e+001 226397  3.1725e+005 -8.9979e+006  1.2771e+006 115376 226293,226371,226345
 3.0000e+001 226621  1.3862e+004 -4.2139e+006  6.3536e+005 114972 226497,226549,226523
 3.0000e+001 226598 -4.7690e+005 -1.1880e+007 -6.0352e+005 114972 226445,226549,226497
 3.0000e+001 226575  2.1978e+005 -6.4605e+006  8.6176e+005 114972 226445,226497,226471
 3.0000e+001 226773 -1.2428e+006 -4.6538e+006 -9.9811e+005 114670 226646,226698,226672
 3.0000e+001 226750  6.4400e+005 -9.1420e+006  6.1018e+005 114670 226646,226724,226698
 3.0000e+001 226974  6.7579e+004 -3.1605e+006 -5.2681e+005 114082 226798,226850,226824
 3.0000e+001 226951  1.8193e+005 -4.2106e+006 -1.5622e+005 114082 226798,226902,226850
 3.0000e+001 226928  5.9670e+004 -5.7735e+006 -5.7459e+005 114082 226850,226902,226876
 3.0000e+001 227175 -8.0420e+005 -5.7539e+006 -8.5288e+005 113678 226999,227051,227025
 3.0000e+001 227152 -1.7707e+006 -7.5397e+006 -2.1827e+006 113678 226999,227077,227051
 3.0000e+001 227129 -6.0930e+005 -1.2111e+007 -3.3182e+006 113678 226999,227103,227077
 3.0000e+001 227425 -3.3377e+002 -1.0303e+007 -1.0090e+005 113274 227226,227278,227252
 3.0000e+001 227402  6.6170e+005 -1.0163e+007 -3.7798e+006 113274 227226,227330,227278
 3.0000e+001 227379  1.4294e+005 -8.9660e+006 -3.6518e+006 113274 227200,227330,227226
 3.0000e+001 227356 -6.1831e+006 -1.2266e+006 -8.9290e+005 113274 227278,227330,227304
 3.0000e+001 227626  3.6345e+005 -4.8207e+006 -7.7351e+005 112934 227502,227554,227528
 3.0000e+001 227603 -1.0288e+005 -3.8152e+006 -1.4890e+005 112934 227450,227554,227502
 3.0000e+001 227580 -1.1491e+006 -4.5294e+006 -8.6501e+005 112934 227450,227502,227476
 3.0000e+001 227876 -1.1132e+005 -2.9410e+006 -1.7287e+005 112437 227677,227755,227703
 3.0000e+001 227853 -1.1901e+006 -3.3892e+006  1.2945e+006 112437 227677,227781,227755
 3.0000e+001 227830 -4.7111e+005 -1.4666e+006  6.7291e+005 112437 227703,227755,227729
 3.0000e+001 227807 -4.1963e+005 -8.2224e+006 -4.0204e+005 112437 227651,227781,227677
 3.0000e+001 228126 -1.0335e+006 -4.8982e+006  6.1454e+005 112041 227927,228005,227953
 3.0000e+001 228103 -3.7597e+005 -8.4712e+006 -1.4968e+006 112041 227927,228031,228005
 3.0000e+001 228080 -1.4186e+006 -5.9468e+006  3.1676e+005 112041 227953,228005,227979
 3.0000e+001 228057 -2.0782e+005 -6.8812e+006 -1.3291e+006 112041 227901,228031,227927
 3.0000e+001 228327 -1.0352e+006 -6.4052e+006 -7.8881e+005 111693 228151,228203,228177
 3.0000e+001 228304 -4.2346e+005 -3.5270e+006 -1.3704e+006 111693 228151,228229,228203
 3.0000e+001 228281  7.0142e+005 -6.8036e+006  1.0283e+006 111693 228151,228255,228229
 3.0000e+001 228479 -3.8205e+006 -1.4848e+007 -6.5183e+006 111253 228352,228404,228378
 3.0000e+001 228456 -3.3891e+006 -9.5489e+006 -1.5117e+006 111253 228352,228430,228404
 3.0000e+001 228582  6.0955e+001 -6.7719e+004 -1.2932e+003 110906 228504,228556,228530
 3.0000e+001 228783 -1.8425e+005 -2.4595e+006  7.3957e+005 110416 228633,228711,228659
 3.0000e+001 228760 -2.0533e+005 -1.4648e+006  3.3096e+005 110416 228607,228711,228633
 3.0000e+001 228737 -4.1900e+005 -3.3565e+006  8.8650e+005 110416 228659,228711,228685
 3.0000e+001 228935 -2.0671e+005 -3.8261e+006 -1.3026e+005 110012 228808,228860,228834
 3.0000e+001 228912 -5.9777e+005 -8.0929e+006 -8.7426e+005 110012 228808,228886,228860
 3.0000e+001 229087 -1.1397e+006 -3.3179e+006 -1.4620e+006 109672 228960,229012,228986
 3.0000e+001 229064 -6.0723e+005 -7.3076e+006 -9.8190e+004 109672 228960,229038,229012
 3.0000e+001 229190  2.8720e+004 -7.8134e+005 -5.7213e+004 109332 229112,229164,229138
 3.0000e+001 229391  2.4900e+004 -3.3438e+005 -9.2540e+004 109156 229267,229319,229293
 3.0000e+001 229368 -1.1153e+005 -7.8113e+005 -1.8126e+005 109156 229215,229319,229267
 3.0000e+001 229345 -6.6656e+002 -2.0067e+005 -5.0613e+004 109156 229215,229267,229241
 3.0000e+001 229543  3.9325e+004 -1.0708e+007  8.4560e+005 108752 229416,229468,229442
 3.0000e+001 229520 -5.4210e+005 -1.1278e+007  1.1949e+006 108752 229416,229494,229468
 3.0000e+001 229744 -2.2955e+005 -8.4121e+006  2.3880e+005 108198 229594,229646,229620
 3.0000e+001 229721 -1.1409e+006 -8.7182e+006  1.1275e+006 108198 229594,229672,229646
 3.0000e+001 229698  3.5412e+005 -1.1957e+007 -6.4481e+005 108198 229568,229672,229594
 3.0000e+001 229847 -5.1376e+004 -6.0732e+005 -1.5317e+005 107758 229769,229821,229795
 3.0000e+001 230048 -9.9670e+005 -3.8827e+006 -7.7662e+005 107468 229898,229950,229924
 3.0000e+001 230025 -5.3313e+005 -3.3075e+006  1.9856e+005 107468 229872,229950,229898
 3.0000e+001 230002 -1.1807e+006 -3.7366e+006  5.4022e+005 107468 229872,229976,229950
 3.0000e+001 230298  5.0531e+003 -2.8306e+006  6.6209e+005 107121 230099,230203,230177
 3.0000e+001 230275 -7.8003e+005 -1.2626e+006  3.0928e+005 107121 230073,230203,230099
 3.0000e+001 230252 -4.2076e+005 -3.4792e+006 -1.0517e+006 107121 230099,230177,230151
 3.0000e+001 230229 -1.5596e+005 -4.3798e+006 -2.8612e+005 107121 230099,230151,230125
 3.0000e+001 230450  3.1889e+005 -3.6690e+006 -3.7831e+005 106823 230349,230401,230375
 3.0000e+001 230427 -2.2584e+005 -9.1858e+005  2.1802e+005 106823 230323,230401,230349
 3.0000e+001 230602 -8.5029e+005 -9.3932e+006 -2.1590e+006 106533 230501,230553,230527
 3.0000e+001 230579 -1.1892e+006 -1.0421e+007 -4.1569e+006 106533 230475,230553,230501
 3.0000e+001 230803 -2.6630e+005 -9.0918e+005  6.4802e+004 106029 230679,230731,230705
 3.0000e+001 230780 -3.3881e+005 -1.4204e+006  6.2988e+005 106029 230653,230731,230679
 3.0000e+001 230757  8.4284e+005 -4.6309e+006  5.3586e+005 106029 230627,230731,230653
 3.0000e+001 231004 -2.1161e+005 -3.9134e+006  2.7236e+005 105689 230854,230906,230880
 3.0000e+001 230981  3.3444e+005 -4.5250e+006 -4.4718e+005 105689 230828,230906,230854
 3.0000e+001 230958 -7.3204e+005 -3.1723e+006 -1.5247e+006 105689 230828,230932,230906
 3.0000e+001 231156 -1.2980e+006 -4.4333e+006  1.4001e+006 105377 231055,231107,231081
 3.0000e+001 231133  1.3017e+006 -1.6003e+007 -1.8408e+006 105377 231029,231107,231055
 3.0000e+001 231406 -4.1999e+005 -9.1313e+006 -2.1789e+005 104858 231207,231259,231233
 3.0000e+001 231383 -1.6339e+006 -8.8933e+006 -8.7016e+005 104858 231207,231311,231259
 3.0000e+001 231360 -1.0379e+006 -1.4324e+007 -1.6155e+006 104858 231259,231311,231285
 3.0000e+001 231337 -2.6960e+005 -1.2334e+007 -1.6383e+006 104858 231181,231311,231207
 3.0000e+001 231558 -5.8513e+005 -5.1525e+006  2.4981e+006 104418 231457,231509,231483
 3.0000e+001 231535 -3.2672e+005 -5.2274e+006  8.3513e+005 104418 231431,231509,231457
 3.0000e+001 231710 -5.1934e+005 -2.6679e+006 -3.1376e+005 103978 231583,231635,231609
 3.0000e+001 231687 -6.3995e+005 -1.6018e+006 -3.4403e+005 103978 231583,231661,231635
 3.0000e+001 231862 -1.2599e+004 -5.8985e+005 -5.4135e+004 103588 231761,231813,231787
 3.0000e+001 231839 -5.6074e+002 -5.3109e+005 -5.6527e+004 103588 231735,231813,231761
 3.0000e+001 232014 -2.8895e+006 -7.0996e+006 -2.6545e+006 103248 231887,231939,231913
 3.0000e+001 231991  5.5034e+005 -2.0595e+007 -6.1229e+006 103248 231887,231965,231939
 3.0000e+001 232215 -2.1401e+005 -3.3778e+006  6.2153e+005 102844 232039,232117,232065
 3.0000e+001 232192  8.0124e+004 -4.0285e+006 -2.1019e+005 102844 232039,232143,232117
 3.0000e+001 232169 -3.0464e+005 -2.0137e+006 -3.2153e+005 102844 232065,232117,232091
 3.0000e+001 232416 -4.1206e+006 -1.1157e+007 -3.3556e+006 102554 232240,232318,232292
 3.0000e+001 232393  1.1123e+006 -1.6417e+007 -1.9512e+005 102554 232240,232344,232318
 3.0000e+001 232370 -4.5309e+006 -5.0457e+006 -1.3192e+006 102554 232240,232292,232266
 3.0000e+001 232568  2.4408e+005 -4.9612e+006  9.4048e+005 102100 232441,232493,232467
 3.0000e+001 232545  3.4076e+004 -4.4809e+006 -1.5419e+005 102100 232441,232519,232493
 3.0000e+001 232769 -2.5165e+005 -2.2530e+006 -3.5762e+005 101596 232645,232697,232671
 3.0000e+001 232746 -2.0289e+005 -2.0106e+006 -5.0669e+005 101596 232593,232697,232645
 3.0000e+001 232723  2.7019e+005 -5.3084e+006 -6.5059e+005 101596 232593,232645,232619
 3.0000e+001 232921 -1.3054e+003 -8.6633e+002  1.6231e+002 101420 232794,232846,232820
 3.0000e+001 232898 -2.1791e+003 -4.1308e+002  1.2910e+003 101420 232794,232872,232846
 3.0000e+001 233073 -1.0589e+006 -4.0084e+006 -6.7889e+005 101023 232946,232998,232972
 3.0000e+001 233050  1.4099e+005 -6.7289e+006  1.3816e+006 101023 232946,233024,232998
 3.0000e+001 233225 -3.9532e+005 -3.2278e+006  4.0048e+003 100661 233098,233150,233124
 3.0000e+001 233202  3.4324e+005 -6.9848e+006  2.5195e+005 100661 233098,233176,233150
 3.0000e+001 233426 -1.3050e+006 -7.8343e+006 -2.1961e+006 100265 233276,233328,233302
 3.0000e+001 233403 -1.4291e+006 -7.0703e+006 -1.2890e+005 100265 233276,233354,233328
 3.0000e+001 233380 -1.4585e+006 -1.1678e+007 -1.0725e+006 100265 233250,233354,233276
 3.0000e+001 233578 -6.1067e+002 -8.2532e+004 -1.5647e+003 100032 233451,233503,233477
 3.0000e+001 233555 -3.8423e+004 -9.3765e+004  3.4114e+004 100032 233451,233529,233503
 3.0000e+001 233681 -1.2010e+005 -7.1912e+004  7.1771e+004 99742 233603,233655,233629
 3.0000e+001 233784 -4.9354e+005 -3.3558e+006  4.4966e+005 99402 233706,233758,233732
 3.0000e+001 233936 -7.6716e+005 -3.1787e+006  4.4987e+005 99062 233835,233887,233861
 3.0000e+001 233913 -4.6662e+005 -1.8421e+006 -6.6878e+004 99062 233809,233887,233835
 3.0000e+001 234088 -2.5891e+005 -4.2111e+006 -2.8572e+005 98772 233987,234039,234013
 3.0000e+001 234065 -1.5376e+006 -4.3028e+006  3.3993e+006 98772 233961,234039,233987
 3.0000e+001 234240 -3.0656e+004 -7.1186e+005  1.4342e+005 98160 234139,234191,234165
 3.0000e+001 234217  1.9437e+004 -5.0141e+005  1.3981e+005 98160 234113,234191,234139
 3.0000e+001 234441 -1.8594e+004 -1.4019e+006  2.1725e+004 97820 234317,234369,234343
 3.0000e+001 234418  5.7766e+002 -1.3264e+006  3.0476e+004 97820 234291,234369,234317
 3.0000e+001 234395  9.4793e+004 -1.8379e+006 -2.4012e+004 97820 234265,234369,234291
 3.0000e+001 234593 -2.7240e+005 -2.2016e+006 -6.1506e+003 97366 234466,234518,234492
 3.0000e+001 234570 -1.4111e+005 -4.0918e+006  9.9138e+004 97366 234466,234544,234518
 3.0000e+001 234794 -5.9611e+005 -1.0823e+006 -5.4133e+005 96976 234618,234670,234644
 3.0000e+001 234771  1.0024e+004 -3.3686e+006 -1.0801e+005 96976 234618,234722,234670
 3.0000e+001 234748 -1.0616e+005 -2.1816e+006 -6.6790e+005 96976 234670,234722,234696
 3.0000e+001 234946 -8.8958e+005 -3.0660e+006  1.2853e+006 96568 234845,234897,234871
 3.0000e+001 234923 -6.4525e+005 -1.8140e+006  1.0976e+006 96568 234819,234897,234845
 3.0000e+001 235196  2.8428e+004 -1.5572e+006  3.9422e+005 96216 234997,235075,235049
 3.0000e+001 235173 -6.3491e+005 -4.4546e+006  1.6634e+006 96216 234997,235101,235075
 3.0000e+001 235150 -7.7724e+005 -3.8185e+006  1.0747e+006 96216 234997,235049,235023
 3.0000e+001 235127 -1.5767e+005 -5.8347e+006 -2.1135e+006 96216 234971,235101,234997
 3.0000e+001 235348 -1.2793e+006 -3.0058e+006 -9.7701e+005 95863 235247,235299,235273
 3.0000e+001 235325 -1.0520e+006 -1.6810e+006 -1.0164e+006 95863 235221,235299,235247
 3.0000e+001 235500 -1.6524e+006 -2.9129e+006 -2.6291e+006 95339 235373,235425,235399
 3.0000e+001 235477 -5.5276e+005 -7.0200e+006  3.8317e+006 95339 235373,235451,235425
 3.0000e+001 235701 -4.2592e+005 -3.8643e+006  1.6382e+006 95023 235525,235577,235551
 3.0000e+001 235678 -2.7470e+004 -1.5367e+006 -1.8633e+005 95023 235525,235629,235577
 3.0000e+001 235655 -5.2397e+005 -1.3362e+006 -2.3993e+004 95023 235577,235629,235603
 3.0000e+001 235853  8.8510e+005 -9.7302e+006  1.0764e+006 94671 235726,235778,235752
 3.0000e+001 235830 -2.9391e+005 -7.5122e+006 -5.8851e+005 94671 235726,235804,235778
 3.0000e+001 236005 -1.0970e+006 -7.1702e+006 -8.4253e+005 94261 235904,235956,235930
 3.0000e+001 235982 -1.7114e+006 -8.4878e+006 -2.0362e+006 94261 235878,235956,235904
 3.0000e+001 236206 -6.2152e+005 -1.2092e+006  1.2652e+006 93853 236056,236134,236082
 3.0000e+001 236183 -5.1176e+005 -1.2229e+006  3.9472e+005 93853 236030,236134,236056
 3.0000e+001 236160 -3.5545e+005 -2.5676e+006  1.0212e+006 93853 236082,236134,236108
 3.0000e+001 236407 -6.9393e+005 -6.2834e+006  2.6896e+004 93557 236257,236309,236283
 3.0000e+001 236384 -2.0775e+006 -7.0139e+006 -1.7741e+006 93557 236231,236309,236257
 3.0000e+001 236361 -6.8305e+005 -1.1484e+007 -3.3559e+005 93557 236231,236335,236309
 3.0000e+001 236559 -2.4708e+005 -9.5921e+005 -1.0928e+004 93149 236432,236484,236458
 3.0000e+001 236536 -1.2340e+005 -4.5642e+005  4.0277e+004 93149 236432,236510,236484
 3.0000e+001 236711 -2.2791e+005 -1.1161e+006  4.6390e+005 92853 236584,236636,236610
 3.0000e+001 236688 -7.5434e+004 -6.7523e+005  3.0856e+005 92853 236584,236662,236636
 3.0000e+001 236912 -2.3859e+005 -4.1843e+006  1.4285e+006 92501 236736,236788,236762
 3.0000e+001 236889 -4.7500e+005 -2.6724e+006  5.8062e+005 92501 236736,236840,236788
 3.0000e+001 236866 -6.8610e+005 -3.4036e+006  6.9726e+005 92501 236788,236840,236814
 3.0000e+001 237113 -2.7034e+005 -4.2917e+006  3.2241e+005 92291 236963,237041,237015
 3.0000e+001 237090 -3.6401e+004 -2.9781e+006  3.3670e+005 92291 236937,237041,236963
 3.0000e+001 237067 -2.0783e+005 -3.9417e+006  9.0357e+005 92291 236963,237015,236989
 3.0000e+001 237265  9.0226e+004 -6.3027e+005 -2.5682e+005 91871 237138,237190,237164
 3.0000e+001 237242 -3.7322e+005 -1.7043e+006 -6.1361e+005 91871 237138,237216,237190
 3.0000e+001 237368 -9.2299e+002 -2.6145e+006  6.3187e+002 91581 237290,237342,237316
 3.0000e+001 237520 -7.8246e+004 -4.7154e+005  1.6232e+005 91184 237419,237471,237445
 3.0000e+001 237497 -1.6559e+005 -5.4176e+005  1.0525e+005 91184 237393,237471,237419
 3.0000e+001 237672 -3.6064e+005 -2.8415e+006  8.2082e+005 90894 237545,237597,237571
 3.0000e+001 237649 -1.1267e+005 -2.4205e+006  5.8601e+005 90894 237545,237623,237597
 3.0000e+001 237873 -1.1545e+006 -4.8783e+006  7.4627e+005 90490 237749,237801,237775
 3.0000e+001 237850 -5.5827e+005 -4.5067e+006  1.2606e+006 90490 237723,237801,237749
 3.0000e+001 237827 -8.6049e+005 -4.5835e+006 -1.0199e+006 90490 237697,237801,237723
 3.0000e+001 238074 -7.2372e+005 -6.5924e+006  9.6149e+004 90100 237898,237976,237950
 3.0000e+001 238051 -2.0140e+006 -6.8788e+006  1.6376e+005 90100 237898,238002,237976
 3.0000e+001 238028 -6.3643e+005 -6.0237e+006  3.5632e+004 90100 237898,237950,237924
 3.0000e+001 238275 -5.7693e+005 -3.6989e+006  4.1973e+005 89696 238125,238177,238151
 3.0000e+001 238252 -3.1175e+005 -3.2171e+006 -4.0844e+005 89696 238099,238177,238125
 3.0000e+001 238229 -2.8402e+005 -3.4593e+006 -4.0563e+005 89696 238099,238203,238177
 3.0000e+001 238427  2.2526e+004 -8.0083e+004 -3.1030e+004 89206 238326,238378,238352
 3.0000e+001 238404 -2.6798e+004 -4.6226e+005 -8.0641e+004 89206 238300,238378,238326
 3.0000e+001 238579 -1.4735e+006 -5.4332e+006  1.7567e+006 88908 238452,238504,238478
 3.0000e+001 238556 -3.2468e+005 -4.6285e+006  5.3944e+005 88908 238452,238530,238504
 3.0000e+001 238682 -1.0515e+002 -4.8949e+005 -2.7027e+002 88568 238604,238656,238630
 3.0000e+001 238883  4.6418e+004 -5.7540e+006  1.4458e+006 88278 238733,238811,238785
 3.0000e+001 238860 -5.4138e+005 -4.1190e+006  1.3146e+006 88278 238707,238811,238733
 3.0000e+001 238837 -2.0558e+005 -5.9675e+006  1.1065e+006 88278 238733,238785,238759
 3.0000e+001 239035 -1.0984e+006 -5.4619e+006 -3.2156e+005 87988 238908,238960,238934
 3.0000e+001 239012 -1.3878e+006 -3.5334e+006  4.9662e+005 87988 238908,238986,238960
 3.0000e+001 239138  1.0144e+003 -1.0028e+006  8.3011e+004 87648 239060,239112,239086
 3.0000e+001 239339 -9.5756e+005 -3.3219e+006 -1.8626e+006 87358 239163,239215,239189
 3.0000e+001 239316 -9.8222e+005 -2.4127e+006 -5.6564e+005 87358 239163,239241,239215
 3.0000e+001 239293 -8.9899e+005 -1.2275e+006 -1.0399e+006 87358 239163,239267,239241
 3.0000e+001 239589 -6.4485e+002 -5.1143e+001  1.1625e+002 86961 239390,239468,239416
 3.0000e+001 239566 -3.5857e+003 -7.9575e+002 -1.6011e+002 86961 239390,239494,239468
 3.0000e+001 239543 -1.0453e+003  9.2784e+001 -2.1116e+002 86961 239416,239468,239442
 3.0000e+001 239520 -1.0142e+003 -3.3472e+003 -1.2619e+002 86961 239364,239494,239390
 3.0000e+001 239741 -1.2196e+006 -4.4318e+006 -4.1140e+005 86621 239640,239692,239666
 3.0000e+001 239718 -6.0254e+005 -5.8702e+006 -1.4065e+006 86621 239614,239692,239640
 3.0000e+001 239893 -4.0713e+005 -5.5740e+006  1.2625e+006 86217 239792,239844,239818
 3.0000e+001 239870 -5.1559e+005 -4.8369e+006  8.5894e+005 86217 239766,239844,239792
 3.0000e+001 240045 -7.0103e+005 -4.9429e+006  4.0485e+005 85827 239918,239970,239944
 3.0000e+001 240022 -1.9086e+005 -4.8084e+006  2.0913e+005 85827 239918,239996,239970
 3.0000e+001 240197 -6.7191e+005 -7.8795e+006  9.2303e+005 85437 240096,240148,240122
 3.0000e+001 240174 -1.5861e+006 -3.0458e+006 -4.4169e+005 85437 240070,240148,240096
 3.0000e+001 240349 -1.5319e+005 -1.6990e+006  5.6244e+005 85147 240222,240274,240248
 3.0000e+001 240326 -3.5130e+005 -1.3321e+006  2.0488e+005 85147 240222,240300,240274
 3.0000e+001 240501 -6.0394e+005 -2.2232e+006  1.0530e+006 84807 240374,240426,240400
 3.0000e+001 240478 -1.0569e+006 -1.8076e+006  5.7231e+005 84807 240374,240452,240426
 3.0000e+001 240653 -1.0059e+004 -3.1142e+005 -5.4514e+004 84303 240552,240604,240578
 3.0000e+001 240630 -9.2325e+003 -3.0619e+005 -5.4943e+004 84303 240526,240604,240552
 3.0000e+001 240854 -1.0559e+005 -1.1910e+007 -5.0972e+006 83929 240704,240756,240730
 3.0000e+001 240831  1.6260e+006 -9.8349e+006  2.2240e+006 83929 240704,240782,240756
 3.0000e+001 240808 -3.2309e+006  1.5010e+006  2.6805e+006 83929 240678,240782,240704
 3.0000e+001 241055  2.5097e+002 -2.6184e+004 -4.4542e+003 83539 240879,240957,240931
 3.0000e+001 241032 -2.4949e+003 -2.7430e+004 -3.2940e+003 83539 240879,240983,240957
 3.0000e+001 241009 -7.7145e+003 -4.1298e+003 -5.1466e+003 83539 240879,240931,240905
 3.0000e+001 241207 -2.3697e+004 -1.8775e+006  4.8079e+005 83079 241106,241158,241132
 3.0000e+001 241184 -1.4395e+005 -1.1317e+006  5.4551e+005 83079 241080,241158,241106
 3.0000e+001 241408  1.1579e+006 -4.6421e+006  5.5016e+005 82665 241232,241284,241258
 3.0000e+001 241385 -1.7294e+006 -1.3731e+007 -4.0712e+006 82665 241232,241336,241284
 3.0000e+001 241362 -4.3102e+006  5.1057e+006  7.1984e+006 82665 241284,241336,241310
 3.0000e+001 241658 -1.9456e+005 -3.8378e+006  3.5179e+005 82375 241485,241563,241511
 3.0000e+001 241635  4.2925e+004 -2.8209e+006  3.8500e+005 82375 241433,241563,241485
 3.0000e+001 241612 -6.8716e+004 -3.2076e+006  4.5492e+005 82375 241433,241485,241459
 3.0000e+001 241589 -4.6094e+005 -4.5134e+006  6.1649e+005 82375 241511,241563,241537
 3.0000e+001 241810 -6.1022e+005 -3.6857e+006  1.6926e+005 82035 241683,241735,241709
 3.0000e+001 241787 -6.5799e+005 -3.9289e+006  4.9175e+005 82035 241683,241761,241735
 3.0000e+001 241962 -7.9920e+005 -3.7121e+006  3.7283e+005 81695 241861,241913,241887
 3.0000e+001 241939 -5.7764e+005 -4.3095e+006 -6.9772e+005 81695 241835,241913,241861
 3.0000e+001 242114 -9.1750e+005 -6.2372e+006  1.8885e+006 81355 242013,242065,242039
 3.0000e+001 242091 -4.4735e+005 -4.6798e+006  1.3339e+006 81355 241987,242065,242013
 3.0000e+001 242266 -1.0304e+005 -4.6408e+005 -1.0549e+005 80951 242139,242191,242165
 3.0000e+001 242243 -1.4859e+005 -6.8007e+005 -1.5203e+004 80951 242139,242217,242191
 3.0000e+001 242467 -2.6451e+005 -4.5752e+006  5.7611e+005 80311 242291,242369,242343
 3.0000e+001 242444  8.6790e+004 -3.2725e+006  4.2444e+005 80311 242291,242395,242369
 3.0000e+001 242421 -3.2201e+005 -3.0608e+006  2.3885e+005 80311 242291,242343,242317
 3.0000e+001 242619 -1.5308e+006 -3.3688e+006  4.2749e+005 80021 242492,242544,242518
 3.0000e+001 242596 -1.4124e+006 -3.0123e+006  1.2979e+006 80021 242492,242570,242544
 3.0000e+001 242869 -3.2998e+005 -1.4754e+006  4.6666e+005 79631 242644,242722,242696
 3.0000e+001 242846 -2.1936e+005 -1.3944e+006  4.0819e+005 79631 242644,242774,242722
 3.0000e+001 242823 -3.1697e+005 -1.8293e+006  3.7295e+005 79631 242722,242774,242748
 3.0000e+001 242800 -4.0950e+005 -1.8406e+006  4.9594e+005 79631 242644,242696,242670
 3.0000e+001 243070 -7.3919e+004 -1.4921e+007  2.9840e+006 79341 242920,242972,242946
 3.0000e+001 243047 -9.1264e+005 -8.7674e+006 -3.7509e+004 79341 242920,242998,242972
 3.0000e+001 243024 -1.0620e+006 -5.9574e+006  2.5157e+006 79341 242894,242998,242920
 3.0000e+001 243222 -2.9826e+005 -3.3857e+006  1.2063e+006 78801 243121,243173,243147
 3.0000e+001 243199 -8.6703e+005 -5.1781e+006  1.9556e+006 78801 243095,243173,243121
 3.0000e+001 243423 -6.4089e+005 -4.8492e+006 -8.5091e+005 78511 243273,243325,243299
 3.0000e+001 243400  2.2551e+005 -9.1591e+006  1.4596e+006 78511 243273,243351,243325
 3.0000e+001 243377 -5.5974e+003 -9.2949e+006  2.3789e+005 78511 243247,243351,243273
 3.0000e+001 243624 -3.7808e+005 -3.1289e+006 -4.9851e+005 78107 243474,243552,243526
 3.0000e+001 243601 -5.2332e+005 -2.5989e+006 -8.2820e+005 78107 243448,243552,243474
 3.0000e+001 243578 -1.0166e+006 -4.7968e+006 -2.0539e+006 78107 243474,243526,243500
 3.0000e+001 243776 -7.2879e+005 -3.9674e+006 -8.8470e+005 77653 243649,243701,243675
 3.0000e+001 243753 -1.7606e+006 -7.6304e+006 -3.5002e+005 77653 243649,243727,243701
 3.0000e+001 243977 -5.5142e+005 -5.7365e+006 -2.3303e+004 77093 243801,243853,243827
 3.0000e+001 243954 -1.5004e+005 -4.4656e+006  5.9283e+005 77093 243801,243879,243853
 3.0000e+001 243931  7.2239e+004 -3.6051e+006  2.5360e+005 77093 243801,243905,243879
 3.0000e+001 244080 -1.6313e+006 -5.1189e+006  1.2898e+005 76791 244002,244054,244028
 3.0000e+001 244232 -1.4074e+005 -4.6816e+006  5.0173e+004 76311 244131,244183,244157
 3.0000e+001 244209  8.9654e+004 -8.7524e+006  6.5205e+005 76311 244105,244183,244131
 3.0000e+001 244433 -1.4962e+006 -1.6712e+007  2.6798e+006 75903 244283,244335,244309
 3.0000e+001 244410 -5.7877e+005 -1.3702e+007  4.8882e+005 75903 244283,244361,244335
 3.0000e+001 244387 -2.6233e+006 -1.0068e+007  3.1962e+006 75903 244257,244361,244283
 3.0000e+001 244585  1.8492e+004 -1.6404e+007  1.6665e+006 75419 244458,244510,244484
 3.0000e+001 244562 -6.8201e+005 -1.1272e+007  5.5742e+005 75419 244458,244536,244510
 3.0000e+001 244737 -3.5092e+005 -1.7796e+006 -1.4180e+005 75215 244636,244688,244662
 3.0000e+001 244714 -2.0823e+005 -5.2671e+006 -1.4818e+005 75215 244610,244688,244636
 3.0000e+001 244889 -9.8323e+005 -4.9995e+006 -4.8291e+005 74857 244788,244840,244814
 3.0000e+001 244866 -4.0253e+005 -2.8902e+006 -1.1810e+005 74857 244762,244840,244788
 3.0000e+001 245041  4.3163e+004 -1.9715e+005 -1.4110e+005 74653 244940,244992,244966
 3.0000e+001 245018 -2.1748e+004 -4.1735e+004  7.2110e+004 74653 244914,244992,244940
 3.0000e+001 245144 -1.9151e+005 -9.3192e+006 -1.3321e+006 74359 245066,245118,245092
 3.0000e+001 245296 -1.8822e+004 -1.9549e+006 -6.4197e+005 74007 245169,245221,245195
 3.0000e+001 245273 -3.8619e+005 -3.3151e+006 -8.4919e+005 74007 245169,245247,245221
 3.0000e+001 245448 -8.6143e+005 -8.6991e+006  2.3312e+006 73711 245321,245373,245347
 3.0000e+001 245425 -1.4293e+005 -8.4671e+006 -3.7669e+006 73711 245321,245399,245373
 3.0000e+001 245600  5.7621e+005 -1.2105e+007 -7.9607e+005 73301 245499,245551,245525
 3.0000e+001 245577 -1.6144e+006 -8.8755e+006  1.8101e+006 73301 245473,245551,245499
 3.0000e+001 245752 -1.7723e+006 -3.1847e+006 -1.7249e+006 72995 245625,245677,245651
 3.0000e+001 245729  9.4189e+005 -1.2393e+007 -1.6532e+006 72995 245625,245703,245677
 3.0000e+001 245953 -2.5969e+006 -1.3645e+007  1.8026e+006 72585 245777,245829,245803
 3.0000e+001 245930 -1.3297e+006 -1.5038e+007  3.5636e+006 72585 245777,245855,245829
 3.0000e+001 245907 -8.5490e+005 -1.2491e+007  2.6582e+006 72585 245777,245881,245855
 3.0000e+001 246154 -2.9038e+005 -6.4310e+006  1.2202e+006 72127 246030,246082,246056
 3.0000e+001 246131 -9.8767e+005 -8.6102e+006  7.5092e+005 72127 245978,246082,246030
 3.0000e+001 246108 -9.9793e+004 -7.7872e+006  1.7616e+005 72127 245978,246030,246004
 3.0000e+001 246257 -1.2225e+006 -2.7281e+006 -2.4893e+004 71737 246179,246231,246205
 3.0000e+001 246360 -1.2115e+005 -2.8242e+006  3.5234e+005 71447 246282,246334,246308
 3.0000e+001 246512 -1.6028e+005 -2.8428e+006  7.8373e+005 71157 246385,246437,246411
 3.0000e+001 246489 -6.4389e+004 -2.6173e+006  3.9523e+005 71157 246385,246463,246437
 3.0000e+001 246664 -1.7203e+005 -2.9030e+006 -2.7117e+005 70753 246537,246589,246563
 3.0000e+001 246641 -6.1409e+005 -1.8077e+006 -7.3950e+004 70753 246537,246615,246589
 3.0000e+001 246865 -2.0114e+006 -1.1151e+007  6.5947e+006 70249 246715,246767,246741
 3.0000e+001 246842 -2.8642e+006 -1.0017e+007  1.4149e+005 70249 246715,246793,246767
 3.0000e+001 246819 -7.4180e+005 -1.4292e+007 -2.6108e+006 70249 246689,246793,246715
 3.0000e+001 247066 -1.7160e+005 -2.2095e+006  4.7883e+005 70023 246916,246994,246942
 3.0000e+001 247043  9.1079e+004 -2.7402e+006  2.6655e+005 70023 246890,246994,246916
 3.0000e+001 247020 -1.5137e+005 -1.8556e+006  2.3506e+005 70023 246942,246994,246968
 3.0000e+001 247267 -2.4849e+005 -4.6026e+006 -2.9870e+005 69633 247091,247143,247117
 3.0000e+001 247244 -7.7112e+004 -3.5346e+006 -2.1508e+005 69633 247091,247169,247143
 3.0000e+001 247221  7.8699e+002 -3.0624e+006 -2.2186e+005 69633 247091,247195,247169
 3.0000e+001 247419 -8.8028e+005 -5.5316e+006  7.5184e+005 69457 247318,247370,247344
 3.0000e+001 247396 -1.0116e+006 -3.8589e+006  8.9929e+005 69457 247292,247370,247318
 3.0000e+001 247522 -2.9520e+002 -7.8004e+002  4.3190e+002 69209 247444,247496,247470
 3.0000e+001 247625 -1.9575e+006 -1.9634e+006 -6.0095e+005 68919 247547,247599,247573
 3.0000e+001 247777  3.9807e+005 -7.2621e+006 -5.3408e+005 68579 247650,247702,247676
 3.0000e+001 247754 -3.1001e+005 -2.9016e+006 -1.3294e+005 68579 247650,247728,247702
 3.0000e+001 247929  1.3778e+005 -4.2286e+006  1.9627e+006 68289 247802,247854,247828
 3.0000e+001 247906 -2.0464e+005 -1.7267e+006 -2.7702e+005 68289 247802,247880,247854
 3.0000e+001 248081 -3.4639e+005 -5.6920e+006  1.3524e+006 67949 247980,248032,248006
 3.0000e+001 248058 -5.3007e+005 -1.5138e+006  6.7482e+004 67949 247954,248032,247980
 3.0000e+001 248233 -1.6545e+006 -5.6270e+006 -6.7155e+005 67616 248132,248184,248158
 3.0000e+001 248210 -5.9391e+005 -6.1436e+006 -4.1968e+005 67616 248106,248184,248132
 3.0000e+001 248434 -1.2967e+005 -4.6454e+006 -3.1082e+005 67212 248284,248336,248310
 3.0000e+001 248411 -5.8671e+004 -4.6971e+006 -5.5103e+005 67212 248258,248336,248284
 3.0000e+001 248388 -1.5496e+006 -3.3971e+006 -5.8743e+005 67212 248258,248362,248336
 3.0000e+001 248586  1.7629e+004 -5.6319e+006  6.1605e+005 66872 248485,248537,248511
 3.0000e+001 248563 -8.0501e+005 -1.9355e+006 -1.4870e+005 66872 248459,248537,248485
 3.0000e+001 248738 -2.1900e+005 -5.0472e+006  9.4817e+004 66510 248637,248689,248663
 3.0000e+001 248715 -3.2323e+005 -8.2581e+006  1.8275e+005 66510 248611,248689,248637
 3.0000e+001 248890 -3.0062e+004 -7.0931e+005  1.4539e+005 66220 248789,248841,248815
 3.0000e+001 248867 -1.7659e+005 -9.3772e+005 -2.3611e+005 66220 248763,248841,248789
 3.0000e+001 249091 -9.4786e+005 -9.8562e+006  2.9823e+006 65759 248915,248967,248941
 3.0000e+001 249068 -7.2763e+005 -8.9577e+006  3.0032e+006 65759 248915,248993,248967
 3.0000e+001 249045 -3.2929e+005 -6.3756e+006  1.2606e+006 65759 248915,249019,248993
 3.0000e+001 249243 -1.5197e+005 -8.1387e+006  1.7627e+006 65419 249142,249194,249168
 3.0000e+001 249220 -2.4082e+005 -4.1921e+006  4.7861e+005 65419 249116,249194,249142
 3.0000e+001 249395 -4.0394e+005 -2.7427e+006 -2.7090e+005 65079 249268,249320,249294
 3.0000e+001 249372 -3.9296e+005 -3.8491e+006 -6.2615e+005 65079 249268,249346,249320
 3.0000e+001 249547 -5.7947e+004 -7.2176e+005 -7.0495e+004 64739 249420,249472,249446
 3.0000e+001 249524 -1.4429e+005 -7.5984e+005 -2.4998e+004 64739 249420,249498,249472
 3.0000e+001 249650 -1.2742e+006 -6.0700e+006 -2.3181e+006 64342 249572,249624,249598
 3.0000e+001 249851 -3.5047e+005 -5.7779e+006 -5.2739e+005 63938 249701,249779,249753
 3.0000e+001 249828 -1.6664e+005 -5.9997e+006  1.0654e+006 63938 249675,249779,249701
 3.0000e+001 249805 -5.6854e+005 -6.6699e+006 -3.3369e+005 63938 249701,249753,249727
 3.0000e+001 250052 -6.9389e+005 -5.0703e+006 -6.2381e+005 63341 249876,249954,249902
 3.0000e+001 250029 -1.0662e+006 -6.1361e+006 -3.6681e+005 63341 249876,249980,249954
 3.0000e+001 250006  7.0174e+005 -6.6423e+006  6.6354e+005 63341 249902,249954,249928
 3.0000e+001 250253 -1.2995e+005 -3.3934e+006 -3.9213e+005 63058 250077,250129,250103
 3.0000e+001 250230 -5.2557e+005 -4.2940e+006 -9.5231e+004 63058 250077,250155,250129
 3.0000e+001 250207 -3.0911e+005 -3.8559e+006 -7.6471e+005 63058 250077,250181,250155
 3.0000e+001 250454 -9.4970e+005 -7.6363e+006  1.4381e+006 62832 250304,250382,250330
 3.0000e+001 250431  2.5206e+005 -9.5929e+006 -2.5296e+006 62832 250278,250382,250304
 3.0000e+001 250408 -2.4624e+006 -4.5972e+006  3.0977e+005 62832 250330,250382,250356
 3.0000e+001 250606  1.8698e+005 -1.9403e+007  1.0552e+006 62428 250479,250531,250505
 3.0000e+001 250583 -5.9714e+005 -1.2098e+007 -5.5439e+005 62428 250479,250557,250531
 3.0000e+001 250758 -1.1318e+005 -7.4360e+006  6.7275e+005 62202 250631,250683,250657
 3.0000e+001 250735 -1.0147e+005 -8.2621e+006  1.8899e+006 62202 250631,250709,250683
 3.0000e+001 250861 -1.4179e+006 -2.5903e+006 -4.2960e+004 61954 250783,250835,250809
 3.0000e+001 251062 -2.0683e+006 -1.3076e+007 -2.6579e+005 61557 250912,250990,250938
 3.0000e+001 251039 -2.9894e+005 -1.3058e+007  2.8497e+005 61557 250886,250990,250912
 3.0000e+001 251016 -8.1184e+005 -1.1349e+007 -1.5936e+006 61557 250938,250990,250964
 3.0000e+001 251263 -9.2663e+005 -7.5769e+006 -4.6870e+004 61167 251113,251165,251139
 3.0000e+001 251240 -3.8280e+005 -7.4116e+006 -3.3241e+005 61167 251113,251191,251165
 3.0000e+001 251217 -1.2769e+006 -7.2258e+006  2.0266e+006 61167 251087,251191,251113
 3.0000e+001 251415 -1.2460e+006 -3.7448e+006  1.0483e+006 60827 251288,251340,251314
 3.0000e+001 251392 -6.5950e+005 -1.8811e+006  2.8730e+004 60827 251288,251366,251340
 3.0000e+001 251567  1.2842e+005 -5.1162e+006  4.8254e+005 60487 251466,251518,251492
 3.0000e+001 251544  1.5008e+004 -3.4108e+006 -3.0304e+005 60487 251440,251518,251466
 3.0000e+001 251719  2.2802e+004 -1.0198e+007 -3.5442e+005 59983 251592,251644,251618
 3.0000e+001 251696 -9.6962e+005 -8.5283e+006 -5.2963e+004 59983 251592,251670,251644
 3.0000e+001 251920  5.2378e+004 -1.9103e+006 -2.1866e+004 59807 251770,251848,251796
 3.0000e+001 251897  5.0354e+004 -1.8887e+006 -3.0446e+004 59807 251744,251848,251770
 3.0000e+001 251874 -1.2872e+004 -2.2897e+006 -8.0991e+004 59807 251796,251848,251822
 3.0000e+001 252023 -2.7924e+005 -4.5868e+006  5.4688e+004 59517 251945,251997,251971
 3.0000e+001 252175  1.4981e+006 -1.3038e+007 -2.8226e+005 59269 252074,252126,252100
 3.0000e+001 252152 -2.0278e+005 -7.9256e+006  1.7130e+005 59269 252048,252126,252074
 3.0000e+001 252278 -4.7107e+005 -2.6751e+006  1.2203e+006 58979 252200,252252,252226
 3.0000e+001 252381 -2.2171e+006 -2.7202e+006  1.1129e+006 58689 252303,252355,252329
 3.0000e+001 252533 -9.5485e+005 -4.6859e+006 -3.3150e+005 58249 252432,252484,252458
 3.0000e+001 252510 -9.4055e+005 -5.4049e+006 -9.4057e+005 58249 252406,252484,252432
 3.0000e+001 252734 -2.7420e+005 -4.4418e+006  3.1806e+004 57902 252584,252662,252610
 3.0000e+001 252711  6.2427e+005 -4.8870e+006 -8.5388e+004 57902 252558,252662,252584
 3.0000e+001 252688 -1.6987e+005 -3.4132e+006 -3.3423e+005 57902 252610,252662,252636
 3.0000e+001 252886 -6.9852e+004 -4.5371e+006 -1.9102e+005 57540 252785,252837,252811
 3.0000e+001 252863  2.0491e+005 -4.5501e+006 -1.1189e+005 57540 252759,252837,252785
 3.0000e+001 253038 -5.6218e+005 -5.6834e+006  1.3615e+006 57086 252937,252989,252963
 3.0000e+001 253015 -3.0148e+005 -2.5507e+006  2.0444e+005 57086 252911,252989,252937
 3.0000e+001 253239 -1.4976e+006 -6.0696e+006 -1.6023e+006 56796 253063,253141,253115
 3.0000e+001 253216  1.5063e+005 -7.0420e+006 -2.6636e+005 56796 253063,253167,253141
 3.0000e+001 253193 -7.4144e+005 -7.6188e+006 -2.0447e+006 56796 253063,253115,253089
 3.0000e+001 253342 -5.4899e+005 -1.6507e+007  1.6683e+004 56349 253264,253316,253290
 3.0000e+001 253543 -9.4668e+005 -8.3876e+006 -8.8286e+005 56009 253367,253419,253393
 3.0000e+001 253520 -7.0038e+005 -4.9708e+006 -5.2040e+005 56009 253367,253445,253419
 3.0000e+001 253497 -2.8457e+005 -6.3673e+006  1.1007e+005 56009 253367,253471,253445
 3.0000e+001 253695 -2.2417e+005 -2.2205e+006  2.5147e+005 55733 253594,253646,253620
 3.0000e+001 253672 -1.3348e+006 -7.5600e+005 -1.7773e+005 55733 253568,253646,253594
 3.0000e+001 253798 -4.9687e+005 -2.2741e+006 -1.3607e+005 55557 253720,253772,253746
 3.0000e+001 253950 -5.3409e+005 -4.0441e+006  3.3416e+005 55153 253849,253901,253875
 3.0000e+001 253927  8.1814e+004 -4.7400e+006 -4.9733e+005 55153 253823,253901,253849
 3.0000e+001 254151 -1.1893e+006 -4.5830e+006  7.9343e+005 54863 253975,254053,254001
 3.0000e+001 254128 -5.5539e+005 -4.7953e+006 -1.3121e+004 54863 253975,254079,254053
 3.0000e+001 254105 -4.4357e+005 -3.4753e+006  1.6368e+005 54863 254001,254053,254027
 3.0000e+001 254303  1.9479e+005 -2.5487e+006  3.1353e+005 54373 254176,254228,254202
 3.0000e+001 254280 -4.7680e+004 -1.3248e+006  1.1010e+005 54373 254176,254254,254228
 3.0000e+001 254455 -1.0363e+005 -4.9926e+006 -3.4873e+005 53975 254354,254406,254380
 3.0000e+001 254432 -5.9369e+005 -1.2014e+006  1.8418e+005 53975 254328,254406,254354
 3.0000e+001 254607 -4.0330e+005 -4.7917e+006 -5.0114e+005 53585 254480,254532,254506
 3.0000e+001 254584 -3.1323e+005 -4.7464e+006 -5.4786e+005 53585 254480,254558,254532
 3.0000e+001 254808 -9.4307e+005 -3.4461e+006 -3.9238e+003 53245 254658,254736,254684
 3.0000e+001 254785 -1.0614e+006 -1.7004e+006 -3.4817e+005 53245 254632,254736,254658
 3.0000e+001 254762 -5.0772e+005 -2.6062e+006 -4.6013e+005 53245 254684,254736,254710
 3.0000e+001 254911 -2.9380e+005 -4.6728e+006  1.3238e+005 52955 254833,254885,254859
 3.0000e+001 255063 -7.2350e+005 -5.9203e+006 -1.1019e+005 52551 254962,255014,254988
 3.0000e+001 255040 -7.1014e+005 -6.4870e+006 -3.5306e+005 52551 254936,255014,254962
 3.0000e+001 255264 -5.0825e+005 -1.1553e+006  6.4818e+005 52261 255114,255166,255140
 3.0000e+001 255241 -7.5132e+005 -2.6323e+006  1.1482e+006 52261 255114,255192,255166
 3.0000e+001 255218  1.3903e+005 -3.7853e+006  6.7390e+004 52261 255088,255192,255114
 3.0000e+001 255416 -5.1586e+005 -4.8867e+006  1.4907e+006 51971 255289,255341,255315
 3.0000e+001 255393 -2.5722e+005 -4.4603e+006 -1.8778e+005 51971 255289,255367,255341
 3.0000e+001 255568 -1.6418e+006 -1.2422e+006 -1.4508e+005 51681 255441,255493,255467
 3.0000e+001 255545 -3.0070e+005 -6.9922e+006  6.9571e+005 51681 255441,255519,255493
 3.0000e+001 255769 -1.9537e+005 -3.1290e+006 -1.1035e+005 51291 255619,255697,255671
 3.0000e+001 255746 -1.7592e+005 -2.8522e+006 -3.2626e+005 51291 255593,255697,255619
 3.0000e+001 255723 -1.9631e+005 -4.6318e+006 -4.8161e+005 51291 255619,255671,255645
 3.0000e+001 255921 -4.0342e+005 -2.8460e+006  7.4457e+005 50951 255820,255872,255846
 3.0000e+001 255898 -1.4958e+005 -2.0396e+006  1.0454e+005 50951 255794,255872,255820
 3.0000e+001 256171 -1.2641e+006 -4.0540e+006 -5.2979e+004 50547 256024,256076,256050
 3.0000e+001 256148 -9.2576e+005 -4.2153e+006  4.7575e+005 50547 255972,256076,256024
 3.0000e+001 256125 -3.1019e+005 -5.0894e+006 -1.7410e+005 50547 255946,256076,255972
 3.0000e+001 256102 -8.6113e+005 -3.4817e+006  2.2391e+005 50547 255972,256024,255998
 3.0000e+001 256323  3.0566e+005 -5.0299e+006  8.4799e+005 50093 256196,256248,256222
 3.0000e+001 256300 -9.7326e+005 -2.5607e+006 -1.0965e+006 50093 256196,256274,256248
 3.0000e+001 256426  3.4480e+002 -2.5737e+003  9.6137e+002 49845 256348,256400,256374
 3.0000e+001 256627 -1.1281e+005 -4.7027e+006  1.3284e+005 49555 256477,256555,256503
 3.0000e+001 256604 -2.8501e+005 -3.5339e+006  1.2506e+005 49555 256451,256555,256477
 3.0000e+001 256581 -4.1397e+005 -4.0515e+006  3.1319e+005 49555 256503,256555,256529
 3.0000e+001 256828 -6.4913e+005 -2.8892e+006 -1.7680e+005 49056 256652,256730,256678
 3.0000e+001 256805 -3.6336e+005 -2.9911e+006 -3.8423e+005 49056 256652,256756,256730
 3.0000e+001 256782 -6.1635e+005 -2.3598e+006 -5.3288e+005 49056 256678,256730,256704
 3.0000e+001 256931 -7.1763e+004 -9.6866e+004  7.4844e+004 48766 256853,256905,256879
 3.0000e+001 257083 -9.0782e+005 -4.2339e+006 -6.9472e+005 48568 256982,257034,257008
 3.0000e+001 257060 -7.3313e+005 -3.5474e+006 -6.0928e+005 48568 256956,257034,256982
 3.0000e+001 257186 -2.2742e+003 -2.1803e+006  1.2352e+003 48228 257108,257160,257134
 3.0000e+001 257338 -4.1765e+005 -1.9346e+006  6.3758e+005 47888 257237,257289,257263
 3.0000e+001 257315 -4.2780e+005 -1.7267e+006  5.4739e+005 47888 257211,257289,257237
 3.0000e+001 257539 -2.8814e+005 -4.1039e+006  1.0149e+005 47548 257363,257441,257415
 3.0000e+001 257516 -5.6354e+005 -3.8617e+006 -3.4920e+005 47548 257363,257467,257441
 3.0000e+001 257493 -5.8930e+005 -2.9032e+006 -1.9362e+005 47548 257363,257415,257389
 3.0000e+001 257740 -2.8372e+005 -4.0835e+006  4.2172e+005 46994 257564,257642,257616
 3.0000e+001 257717 -4.3125e+005 -3.4363e+006  1.8129e+005 46994 257564,257668,257642
 3.0000e+001 257694 -7.1557e+005 -4.4421e+006  8.3320e+004 46994 257564,257616,257590
 3.0000e+001 257843 -9.5842e+005 -2.4958e+006  2.8712e+004 46654 257765,257817,257791
 3.0000e+001 257995 -7.4939e+005 -3.1435e+006  2.9300e+005 46364 257894,257946,257920
 3.0000e+001 257972 -6.9906e+005 -3.9170e+006 -1.4185e+005 46364 257868,257946,257894
 3.0000e+001 258147 -1.8121e+005 -3.2102e+006  2.5071e+005 46024 258046,258098,258072
 3.0000e+001 258124 -3.2307e+005 -2.9291e+006  3.3443e+005 46024 258020,258098,258046
 3.0000e+001 258250 -7.5219e+005 -2.6468e+006  9.1937e+005 45741 258172,258224,258198
 3.0000e+001 258402 -1.5737e+005 -3.1617e+006  2.8948e+005 45401 258301,258353,258327
 3.0000e+001 258379 -6.4428e+005 -1.8484e+006  2.2555e+005 45401 258275,258353,258301
 3.0000e+001 258603 -7.1210e+005 -2.0688e+006 -7.8582e+003 45071 258427,258505,258479
 3.0000e+001 258580 -1.9187e+005 -4.9124e+006  2.6103e+005 45071 258427,258531,258505
 3.0000e+001 258557 -2.2513e+005 -2.7347e+006  2.3582e+005 45071 258427,258479,258453
 3.0000e+001 258755 -1.9163e+005 -3.6882e+006 -3.5335e+005 44681 258654,258706,258680
 3.0000e+001 258732 -1.7818e+005 -3.8744e+006 -3.6263e+005 44681 258628,258706,258654
 3.0000e+001 258907 -6.8735e+005 -1.2229e+006 -1.2502e+005 44157 258806,258858,258832
 3.0000e+001 258884 -3.3293e+005 -1.4065e+006 -8.9845e+004 44157 258780,258858,258806
 3.0000e+001 259010 -7.0303e+005 -7.5075e+005  4.0507e+003 43705 258932,258984,258958
 3.0000e+001 259113 -3.5188e+005 -3.8302e+006  2.9051e+005 43284 259035,259087,259061
 3.0000e+001 259216 -6.3085e+005 -2.8977e+006 -1.4638e+005 42954 259138,259190,259164
 3.0000e+001 259319 -8.8652e+005 -1.8464e+006  8.1104e+003 42116 259241,259293,259267
 3.0000e+001 259422 -1.8769e+005 -3.7399e+006 -2.4536e+005 41804 259344,259396,259370
 3.0000e+001 259525 -5.8830e+005 -5.1190e+006  7.6983e+005 41219 259447,259499,259473
 3.0000e+001 259628 -8.8360e+005 -2.6423e+006 -3.6257e+005 385 259550,259602,259576
 3.2000e+001 190120 -3.5404e+005 -1.8119e+006 -4.4104e+005 189630 189993,190045,190019
 3.2000e+001 190097 -7.1937e+005 -9.6245e+005 -1.6090e+005 189630 189993,190071,190045
 3.2000e+001 190319 -1.4432e+006 -3.3084e+006  3.3091e+005 189312 190169,190221,190195
 3.2000e+001 190296 -6.9484e+005 -2.0122e+006 -8.2122e+005 189312 190169,190247,190221
 3.2000e+001 190273 -6.8202e+005 -1.5302e+006  8.5226e+004 189312 190143,190247,190169
 3.2000e+001 190518 -4.5816e+005 -1.4900e+005 -3.1862e+004 189124 190368,190446,190420
 3.2000e+001 190495 -5.7533e+005 -6.0690e+004  3.5941e+004 189124 190342,190446,190368
 3.2000e+001 190472 -8.3730e+005 -2.1901e+005 -9.8121e+004 189124 190368,190420,190394
 3.2000e+001 190619 -4.5239e+005 -2.1983e+005 -8.5639e+003 188926 190541,190593,190567
 3.2000e+001 190771 -5.0257e+005 -1.9437e+005  5.6668e+003 188614 190670,190722,190696
 3.2000e+001 190748 -5.0434e+005  7.5952e+004  7.7658e+004 188614 190644,190722,190670
 3.2000e+001 190972 -3.0346e+005 -1.0843e+006 -3.8784e+005 188324 190848,190900,190874
 3.2000e+001 190949 -5.4988e+005 -8.8996e+005 -3.0324e+005 188324 190796,190900,190848
 3.2000e+001 190926 -1.5307e+005 -1.7875e+006 -1.6712e+005 188324 190796,190848,190822
 3.2000e+001 191124 -6.7744e+005 -1.3910e+006 -1.9160e+005 188034 191023,191075,191049
 3.2000e+001 191101 -1.6953e+005 -1.5219e+006 -1.4478e+005 188034 190997,191075,191023
 3.2000e+001 191276 -4.1948e+005 -7.9379e+005 -1.2519e+005 187836 191149,191201,191175
 3.2000e+001 191253 -3.7513e+005 -5.8858e+005 -4.4882e+003 187836 191149,191227,191201
 3.2000e+001 191379 -4.5899e+005 -2.8278e+005 -8.7745e+004 187546 191301,191353,191327
 3.2000e+001 191531 -4.8083e+005 -4.4543e+006 -1.6742e+006 187256 191430,191482,191456
 3.2000e+001 191508 -5.9781e+005 -2.9256e+006  4.6607e+005 187256 191404,191482,191430
 3.2000e+001 191634 -7.2249e+005 -5.4227e+005 -5.5551e+004 187058 191556,191608,191582
 3.2000e+001 191835 -3.4238e+005 -3.1169e+005  6.9827e+004 186860 191659,191711,191685
 3.2000e+001 191812 -2.8069e+005 -2.4434e+005  1.0845e+005 186860 191659,191737,191711
 3.2000e+001 191789 -1.9387e+005 -5.7215e+004 -2.3831e+004 186860 191659,191763,191737
 3.2000e+001 191987 -7.5576e+005 -1.1183e+006  4.3641e+005 186662 191886,191938,191912
 3.2000e+001 191964 -4.8534e+005 -4.5420e+005 -4.7007e+004 186662 191860,191938,191886
 3.2000e+001 192090 -5.8422e+005 -5.1335e+005  8.7247e+004 186486 192012,192064,192038
 3.2000e+001 192242 -4.9755e+005 -3.7297e+006 -2.8111e+003 186288 192115,192167,192141
 3.2000e+001 192219 -4.6083e+005 -3.2600e+006  1.2469e+005 186288 192115,192193,192167
 3.2000e+001 192394 -2.7563e+005 -3.1440e+006 -3.2436e+005 185935 192293,192345,192319
 3.2000e+001 192371 -3.4516e+005 -2.8569e+006 -3.9610e+005 185935 192267,192345,192293
 3.2000e+001 192546 -4.6003e+005 -1.8714e+006 -1.8969e+005 185675 192419,192471,192445
 3.2000e+001 192523 -5.1279e+005 -7.0170e+005 -7.5235e+004 185675 192419,192497,192471
 3.2000e+001 192649 -2.6732e+005 -1.8523e+006  5.7086e+004 185499 192571,192623,192597
 3.2000e+001 192801 -1.1082e+006 -8.2950e+005  2.2755e+005 185301 192674,192726,192700
 3.2000e+001 192778 -6.6325e+005 -8.5092e+005  6.2370e+005 185301 192674,192752,192726
 3.2000e+001 193002 -1.3827e+005 -1.7704e+006 -4.4368e+005 185046 192852,192930,192878
 3.2000e+001 192979 -3.5457e+005 -2.5956e+006 -3.7349e+005 185046 192826,192930,192852
 3.2000e+001 192956  2.4581e+005 -3.0258e+006 -7.3937e+004 185046 192878,192930,192904
 3.2000e+001 193203 -1.5669e+006 -1.3748e+006 -5.8408e+005 184798 193079,193131,193105
 3.2000e+001 193180  1.1557e+005 -4.4242e+006 -1.3632e+006 184798 193027,193131,193079
 3.2000e+001 193157 -8.6707e+005 -4.9226e+006  1.9032e+006 184798 193027,193079,193053
 3.2000e+001 193404 -2.7458e+005 -4.3541e+006 -3.9982e+005 184600 193254,193306,193280
 3.2000e+001 193381 -2.9070e+005 -2.3852e+006  8.5793e+004 184600 193254,193332,193306
 3.2000e+001 193358 -9.6336e+005 -4.5940e+005 -2.4090e+005 184600 193228,193332,193254
 3.2000e+001 193556 -6.0856e+005 -9.2315e+005 -5.4653e+005 184402 193429,193481,193455
 3.2000e+001 193533 -7.4146e+005 -6.8859e+005 -7.2415e+005 184402 193429,193507,193481
 3.2000e+001 193708 -2.7432e+005 -3.7182e+006 -6.1527e+005 184204 193607,193659,193633
 3.2000e+001 193685 -6.0648e+005 -3.3496e+006 -6.4147e+005 184204 193581,193659,193607
 3.2000e+001 193860 -4.9013e+005 -1.1617e+006  8.0527e+004 183908 193759,193811,193785
 3.2000e+001 193837 -7.7591e+004 -1.2022e+006  2.4344e+005 183908 193733,193811,193759
 3.2000e+001 194061 -4.1569e+005 -2.2366e+006 -1.0594e+005 183710 193911,193989,193937
 3.2000e+001 194038 -3.1201e+005 -1.4664e+006 -7.1354e+004 183710 193885,193989,193911
 3.2000e+001 194015 -7.7158e+005 -5.8921e+005 -2.9248e+005 183710 193937,193989,193963
 3.2000e+001 194262 -1.5108e+006 -4.4870e+006 -1.6380e+006 183420 194086,194164,194112
 3.2000e+001 194239 -1.1140e+006 -1.8157e+006  6.8176e+005 183420 194086,194190,194164
 3.2000e+001 194216 -3.4258e+006 -1.0654e+007  1.6590e+006 183420 194112,194164,194138
 3.2000e+001 194414 -6.3954e+005 -5.1916e+006 -7.0138e+004 183222 194287,194339,194313
 3.2000e+001 194391 -3.8802e+005 -4.3953e+005 -2.2489e+005 183222 194287,194365,194339
 3.2000e+001 194517 -8.6678e+005 -7.4602e+005  7.8295e+004 183024 194439,194491,194465
 3.2000e+001 194718  2.0349e+006 -1.6942e+007  2.8444e+006 182734 194568,194620,194594
 3.2000e+001 194695 -9.4168e+005 -3.2958e+006 -2.8249e+006 182734 194542,194620,194568
 3.2000e+001 194672 -2.8171e+006 -2.3247e+006 -1.3221e+006 182734 194542,194646,194620
 3.2000e+001 194870 -8.3183e+005 -1.9753e+006  6.9726e+005 182444 194769,194821,194795
 3.2000e+001 194847 -1.0922e+006 -1.5579e+006 -9.7139e+005 182444 194743,194821,194769
 3.2000e+001 195071 -3.0542e+005 -3.0977e+006  7.1721e+005 182154 194895,194947,194921
 3.2000e+001 195048 -1.8468e+005 -1.7656e+006  2.1934e+005 182154 194895,194999,194947
 3.2000e+001 195025 -2.0653e+005 -1.1696e+006  2.5454e+005 182154 194947,194999,194973
 3.2000e+001 195223 -5.0134e+005 -2.2421e+006 -1.3152e+005 181814 195096,195148,195122
 3.2000e+001 195200 -2.8401e+005 -1.4039e+006 -2.0795e+005 181814 195096,195174,195148
 3.2000e+001 195375 -5.9334e+004 -7.7575e+005  5.2408e+004 181524 195248,195300,195274
 3.2000e+001 195352 -2.2303e+003 -1.9642e+006  3.0066e+005 181524 195248,195326,195300
 3.2000e+001 195527 -5.0149e+004 -8.6354e+005  4.0221e+005 181326 195426,195478,195452
 3.2000e+001 195504 -4.8726e+005 -2.1417e+006  7.6800e+005 181326 195400,195478,195426
 3.2000e+001 195679  3.8579e+005 -1.3614e+007 -1.4760e+005 180936 195578,195630,195604
 3.2000e+001 195656 -1.3186e+006 -3.1527e+006  6.4075e+004 180936 195552,195630,195578
 3.2000e+001 195831 -5.3328e+005 -4.8120e+005 -2.4863e+005 180646 195704,195756,195730
 3.2000e+001 195808 -7.0055e+005 -1.0358e+005 -3.1629e+004 180646 195704,195782,195756
 3.2000e+001 196032 -4.0968e+005 -2.3907e+006  9.1326e+005 180306 195882,195960,195934
 3.2000e+001 196009 -7.5637e+005 -4.4899e+005 -5.3834e+005 180306 195856,195960,195882
 3.2000e+001 195986  4.8449e+005 -3.9726e+006 -8.6342e+005 180306 195882,195934,195908
 3.2000e+001 196233 -1.0389e+005 -2.8709e+005 -7.8834e+005 179944 196057,196109,196083
 3.2000e+001 196210 -9.8021e+005 -4.3180e+006  4.9081e+005 179944 196057,196135,196109
 3.2000e+001 196187 -2.2127e+006  4.6571e+006 -1.6574e+006 179944 196057,196161,196135
 3.2000e+001 196385 -8.4984e+005 -9.4886e+005 -6.7258e+005 179604 196258,196310,196284
 3.2000e+001 196362 -1.0836e+006 -1.4299e+006 -1.0884e+006 179604 196258,196336,196310
 3.2000e+001 196586 -2.5715e+005 -1.0283e+006 -1.3261e+005 179114 196410,196488,196436
 3.2000e+001 196563  1.1038e+005 -2.5251e+006 -1.8227e+005 179114 196410,196514,196488
 3.2000e+001 196540 -9.0310e+003 -9.7737e+005 -9.7814e+004 179114 196436,196488,196462
 3.2000e+001 196738 -3.8202e+005 -2.9369e+006 -2.2264e+005 178674 196611,196663,196637
 3.2000e+001 196715 -5.2864e+005 -3.1979e+006 -9.5354e+004 178674 196611,196689,196663
 3.2000e+001 196939  1.5831e+006 -9.7761e+006 -8.4171e+005 178334 196789,196867,196841
 3.2000e+001 196916 -1.2890e+006 -9.7327e+006  1.5081e+006 178334 196763,196867,196789
 3.2000e+001 196893 -2.0267e+006 -6.8071e+006 -4.3766e+006 178334 196789,196841,196815
 3.2000e+001 197091 -4.1025e+005 -6.8915e+006 -3.6742e+005 177930 196990,197042,197016
 3.2000e+001 197068  1.2953e+005 -4.5093e+006 -1.9279e+005 177930 196964,197042,196990
 3.2000e+001 197194 -6.3448e+002 -6.2719e+005 -9.3966e+002 177732 197116,197168,197142
 3.2000e+001 197346 -2.6723e+005 -7.7606e+006 -3.9185e+005 177534 197219,197271,197245
 3.2000e+001 197323  4.5471e+005 -9.8428e+006  7.1291e+005 177534 197219,197297,197271
 3.2000e+001 197547 -4.7622e+005 -4.3259e+006 -1.1209e+006 177130 197397,197449,197423
 3.2000e+001 197524 -4.8666e+005 -4.4073e+006 -5.7558e+005 177130 197397,197475,197449
 3.2000e+001 197501 -5.6507e+005 -1.1044e+007 -1.2381e+006 177130 197371,197475,197397
 3.2000e+001 197748 -3.2939e+005 -8.6870e+006 -8.9049e+004 176790 197598,197676,197624
 3.2000e+001 197725 -2.4496e+005 -5.9737e+006  1.4028e+005 176790 197572,197676,197598
 3.2000e+001 197702 -5.8698e+005 -6.5488e+006  5.5916e+005 176790 197624,197676,197650
 3.2000e+001 197900 -1.3950e+005 -5.9176e+006 -1.0390e+006 176300 197773,197825,197799
 3.2000e+001 197877  9.3177e+003 -6.2110e+006 -1.0619e+006 176300 197773,197851,197825
 3.2000e+001 198052 -1.1145e+006 -1.0064e+007 -1.8167e+006 176010 197925,197977,197951
 3.2000e+001 198029 -1.2170e+006 -7.0057e+006 -1.6127e+006 176010 197925,198003,197977
 3.2000e+001 198204 -1.5683e+006 -5.0419e+006 -2.0937e+006 175670 198103,198155,198129
 3.2000e+001 198181 -2.0336e+006 -7.0850e+006 -2.0461e+006 175670 198077,198155,198103
 3.2000e+001 198405 -7.2801e+005 -7.8488e+006 -8.2043e+005 175266 198255,198307,198281
 3.2000e+001 198382 -1.5841e+005 -7.8640e+006 -8.5159e+005 175266 198229,198307,198255
 3.2000e+001 198359 -1.3104e+006 -6.2994e+006 -2.0325e+006 175266 198229,198333,198307
 3.2000e+001 198606 -6.8696e+004 -7.8513e+005  4.2628e+004 174876 198430,198508,198482
 3.2000e+001 198583 -3.3248e+005 -8.4889e+005  2.5137e+004 174876 198430,198534,198508
 3.2000e+001 198560 -1.4398e+005 -4.9770e+005 -4.8015e+004 174876 198430,198482,198456
 3.2000e+001 198758  3.7848e-001 -9.7582e-002 -2.6999e-001 174536 198657,198709,198683
 3.2000e+001 198735 -4.4823e-001  2.5688e-002  2.2065e-001 174536 198631,198709,198657
 3.2000e+001 199008  8.9766e+004 -1.0969e+007  4.6877e+005 174132 198835,198913,198887
 3.2000e+001 198985 -3.9373e+004 -4.9129e+006  5.8077e+005 174132 198809,198913,198835
 3.2000e+001 198962 -1.1316e+005 -5.3092e+006 -1.8259e+006 174132 198783,198913,198809
 3.2000e+001 198939  8.9919e+005 -1.1742e+007  4.3576e+005 174132 198835,198887,198861
 3.2000e+001 199160 -1.3708e+006 -4.1447e+006 -8.3992e+005 173842 199059,199111,199085
 3.2000e+001 199137 -1.4592e+006 -2.6332e+006 -1.1863e+006 173842 199033,199111,199059
 3.2000e+001 199361 -4.1554e+005 -1.2407e+007  1.3863e+006 173438 199237,199289,199263
 3.2000e+001 199338 -1.1635e+006 -8.7285e+006  1.9329e+006 173438 199211,199289,199237
 3.2000e+001 199315 -9.7657e+005 -1.0884e+007  8.6176e+004 173438 199185,199289,199211
 3.2000e+001 199513  4.7496e+005 -1.4842e+007  2.6651e+006 173190 199386,199438,199412
 3.2000e+001 199490  6.1318e+005 -1.0450e+007 -2.9182e+005 173190 199386,199464,199438
 3.2000e+001 199665 -4.8507e+005 -3.1177e+006  2.6144e+005 172750 199564,199616,199590
 3.2000e+001 199642 -9.6726e+005 -1.3310e+006 -1.8408e+004 172750 199538,199616,199564
 3.2000e+001 199817 -8.8213e+005 -1.1646e+007 -4.1019e+006 172524 199690,199742,199716
 3.2000e+001 199794 -5.1128e+006 -5.6579e+006 -2.4118e+006 172524 199690,199768,199742
 3.2000e+001 199969 -2.5040e+004 -9.3862e+006 -4.9050e+005 172348 199842,199894,199868
 3.2000e+001 199946  9.6579e+005 -9.2481e+006  3.2799e+005 172348 199842,199920,199894
 3.2000e+001 200121  3.8171e+005 -9.0182e+006 -1.1462e+006 172008 199994,200046,200020
 3.2000e+001 200098 -7.0645e+005 -3.8408e+006 -4.4375e+005 172008 199994,200072,200046
 3.2000e+001 200273 -2.5501e+005 -6.2415e+006  2.9007e+005 171668 200172,200224,200198
 3.2000e+001 200250 -3.3085e+005 -5.4739e+006 -1.2044e+005 171668 200146,200224,200172
 3.2000e+001 200474 -5.9078e+004 -1.2166e+007 -1.5608e+006 171264 200350,200402,200376
 3.2000e+001 200451 -2.3074e+005 -9.4658e+006 -7.3670e+005 171264 200324,200402,200350
 3.2000e+001 200428 -1.1610e+006 -7.5484e+006  1.7342e+006 171264 200298,200402,200324
 3.2000e+001 200626  2.6515e+005 -1.1080e+007  8.0506e+004 170832 200525,200577,200551
 3.2000e+001 200603 -3.5075e+005 -6.8633e+006  5.4362e+003 170832 200499,200577,200525
 3.2000e+001 200827  1.1848e+005 -1.0356e+007  9.5759e+005 170492 200677,200729,200703
 3.2000e+001 200804 -1.4384e+006 -4.8988e+006 -2.9321e+006 170492 200651,200729,200677
 3.2000e+001 200781 -2.9078e+006 -3.4367e+006 -1.6998e+006 170492 200651,200755,200729
 3.2000e+001 201077  1.4642e+006 -3.5033e+006  3.1985e+005 170088 200878,200956,200904
 3.2000e+001 201054 -4.5295e+005 -4.2292e+006 -1.8126e+006 170088 200852,200956,200878
 3.2000e+001 201031  7.2007e+005 -3.0981e+006  4.4925e+006 170088 200904,200956,200930
 3.2000e+001 201008  5.7714e+006 -1.1016e+007  2.9064e+006 170088 200852,200982,200956
 3.2000e+001 201278  6.0183e+005 -1.7478e+006 -4.1292e+004 169798 201102,201154,201128
 3.2000e+001 201255 -1.4310e+006 -9.3207e+006 -1.0895e+006 169798 201102,201206,201154
 3.2000e+001 201232 -9.6963e+005 -2.6726e+006  8.1777e+005 169798 201154,201206,201180
 3.2000e+001 201430 -8.8590e+005 -1.5386e+007 -2.1791e+006 169337 201303,201355,201329
 3.2000e+001 201407 -4.9953e+005 -5.5987e+006 -5.1492e+005 169337 201303,201381,201355
 3.2000e+001 201631 -7.9039e+005 -1.0360e+007 -5.5329e+005 168883 201481,201559,201507
 3.2000e+001 201608  5.7034e+005 -8.5658e+006  6.5428e+005 168883 201455,201559,201481
 3.2000e+001 201585 -7.9009e+005 -9.8130e+006 -5.3033e+005 168883 201507,201559,201533
 3.2000e+001 201832 -6.3341e+005 -1.4685e+007  5.5015e+005 168479 201682,201734,201708
 3.2000e+001 201809 -2.3653e+006 -1.1864e+007 -1.8761e+006 168479 201656,201734,201682
 3.2000e+001 201786 -1.9245e+006 -1.0102e+007 -4.2725e+005 168479 201656,201760,201734
 3.2000e+001 202033 -2.2673e+005 -6.9789e+006  1.1815e+006 167825 201883,201935,201909
 3.2000e+001 202010 -1.4130e+006 -8.2624e+006 -1.1707e+006 167825 201857,201935,201883
 3.2000e+001 201987  1.4736e+005 -1.6280e+007  1.5990e+005 167825 201857,201961,201935
 3.2000e+001 202234 -6.7997e+005 -7.1477e+006 -2.1751e+006 167435 202058,202136,202084
 3.2000e+001 202211 -5.9803e+005 -9.5924e+006  8.5280e+005 167435 202058,202162,202136
 3.2000e+001 202188 -7.1108e+005 -3.3285e+006  4.8199e+005 167435 202084,202136,202110
 3.2000e+001 202386  3.9769e+005 -7.6435e+006  1.4788e+005 167002 202285,202337,202311
 3.2000e+001 202363 -7.5885e+005 -1.6541e+006  6.7458e+005 167002 202259,202337,202285
 3.2000e+001 202538  8.1663e+004 -8.9386e+006 -3.5434e+005 166662 202411,202463,202437
 3.2000e+001 202515 -6.0691e+005 -4.7156e+006  4.8903e+004 166662 202411,202489,202463
 3.2000e+001 202690  2.1063e+005 -8.3055e+006 -1.6292e+006 166322 202589,202641,202615
 3.2000e+001 202667  3.2719e+005 -7.3114e+006 -8.6683e+005 166322 202563,202641,202589
 3.2000e+001 202891 -5.7533e+005 -3.2877e+006  6.9131e+005 165918 202715,202767,202741
 3.2000e+001 202868 -1.1554e+006 -6.0146e+006 -1.1545e+005 165918 202715,202793,202767
 3.2000e+001 202845 -1.9037e+005 -5.5087e+006 -5.0288e+005 165918 202715,202819,202793
 3.2000e+001 203092 -7.7586e+005 -8.6120e+006 -1.3813e+006 165628 202916,202968,202942
 3.2000e+001 203069  8.9361e+004 -1.2928e+007 -9.5161e+005 165628 202916,202994,202968
 3.2000e+001 203046 -1.4105e+006 -1.1196e+007 -2.6796e+006 165628 202916,203020,202994
 3.2000e+001 203293 -5.5207e+006 -1.1584e+007  7.3506e+005 165266 203143,203195,203169
 3.2000e+001 203270 -3.6347e+006 -1.0375e+007 -1.4602e+005 165266 203143,203221,203195
 3.2000e+001 203247 -3.6591e+005 -1.4177e+007 -4.3846e+006 165266 203117,203221,203143
 3.2000e+001 203445  3.9753e+005 -5.3130e+006  1.0951e+006 164826 203318,203370,203344
 3.2000e+001 203422 -3.1680e+005 -3.5042e+006 -5.4199e+005 164826 203318,203396,203370
 3.2000e+001 203597 -1.0055e+006 -8.1597e+006 -5.2313e+005 164386 203470,203522,203496
 3.2000e+001 203574 -2.5187e+005 -5.6165e+006 -5.5354e+004 164386 203470,203548,203522
 3.2000e+001 203798  1.0631e+004 -7.8159e+006  1.1003e+006 163996 203622,203674,203648
 3.2000e+001 203775 -1.1781e+006 -1.9984e+006 -1.9612e+005 163996 203622,203726,203674
 3.2000e+001 203752 -2.6366e+006 -5.7062e+006  3.2555e+006 163996 203674,203726,203700
 3.2000e+001 203901 -6.4217e+004 -4.5916e+006 -1.1220e+006 163770 203823,203875,203849
 3.2000e+001 204053 -1.9675e+006 -6.4735e+006  1.4144e+006 163474 203952,204004,203978
 3.2000e+001 204030 -5.7760e+005 -7.6105e+006 -1.0997e+006 163474 203926,204004,203952
 3.2000e+001 204205 -1.8521e+005 -4.7672e+006 -4.3634e+005 163034 204104,204156,204130
 3.2000e+001 204182 -4.7931e+005 -1.0217e+007 -5.2586e+006 163034 204078,204156,204104
 3.2000e+001 204357 -3.0567e+005 -7.4693e+006  9.6367e+005 162624 204256,204308,204282
 3.2000e+001 204334  4.9766e+004 -2.3706e+006  1.4657e+004 162624 204230,204308,204256
 3.2000e+001 204509  4.7090e+001 -1.1237e+004  2.0312e+003 162200 204382,204434,204408
 3.2000e+001 204486 -9.3946e+002 -1.2403e+004  1.0066e+003 162200 204382,204460,204434
 3.2000e+001 204710 -2.8599e+004 -1.4410e+005  7.8556e+004 161810 204560,204638,204586
 3.2000e+001 204687  2.7254e+004 -1.9705e+005  2.1652e+004 161810 204534,204638,204560
 3.2000e+001 204664 -4.0372e+004 -5.9400e+004  3.0076e+004 161810 204586,204638,204612
 3.2000e+001 204862 -1.4174e+006 -6.0381e+006 -1.9755e+006 161406 204735,204787,204761
 3.2000e+001 204839 -2.2449e+006 -6.6806e+006 -1.5349e+006 161406 204735,204813,204787
 3.2000e+001 205014  6.2381e+003 -1.7067e+005  2.2896e+004 161180 204887,204939,204913
 3.2000e+001 204991 -1.3859e+004 -8.9262e+004 -1.3847e+004 161180 204887,204965,204939
 3.2000e+001 205215  6.7682e+005 -2.6940e+006 -1.8710e+005 160726 205039,205091,205065
 3.2000e+001 205192 -8.5960e+005 -8.6738e+006 -7.0103e+005 160726 205039,205143,205091
 3.2000e+001 205169 -9.9543e+004 -1.6898e+006  4.6516e+002 160726 205091,205143,205117
 3.2000e+001 205416  8.9892e+004 -4.6788e+006  1.7597e+006 160272 205292,205344,205318
 3.2000e+001 205393 -8.9215e+005 -9.8258e+005  1.0858e+006 160272 205240,205344,205292
 3.2000e+001 205370 -5.9137e+005 -4.7237e+005  1.8049e+005 160272 205240,205292,205266
 3.2000e+001 205568 -9.0722e+003 -2.5008e+005  1.3600e+004 159932 205441,205493,205467
 3.2000e+001 205545 -1.9212e+004 -2.0102e+005  2.6875e+004 159932 205441,205519,205493
 3.2000e+001 205720 -8.0451e+002 -1.2500e+005  1.1296e+004 159542 205593,205645,205619
 3.2000e+001 205697  1.3526e+004 -8.4344e+004  1.3070e+003 159542 205593,205671,205645
 3.2000e+001 205872  3.6811e+004 -8.7153e+004 -1.3785e+004 159252 205745,205797,205771
 3.2000e+001 205849 -1.0072e+004 -2.5902e+005  1.2037e+004 159252 205745,205823,205797
 3.2000e+001 206024 -3.4941e+006 -8.3030e+005 -1.2296e+006 159004 205923,205975,205949
 3.2000e+001 206001 -1.3142e+006 -1.0984e+006  4.7316e+005 159004 205897,205975,205923
 3.2000e+001 206127 -1.7425e+002 -3.7657e+001 -2.7097e+001 158364 206049,206101,206075
 3.2000e+001 206328  7.6989e+003 -1.3340e+005  4.1524e+004 157960 206178,206256,206204
 3.2000e+001 206305 -1.0488e+003 -1.7977e+005 -1.7760e+004 157960 206152,206256,206178
 3.2000e+001 206282 -3.5239e+004 -6.7562e+004  2.9451e+004 157960 206204,206256,206230
 3.2000e+001 206529 -9.9312e+004 -1.1113e+007  6.7601e+004 157648 206405,206457,206431
 3.2000e+001 206506 -3.7719e+006 -7.8819e+006 -1.4483e+006 157648 206379,206457,206405
 3.2000e+001 206483 -1.0294e+006 -6.1703e+006  1.2748e+005 157648 206353,206457,206379
 3.2000e+001 206730  4.7989e+005 -2.0137e+007 -1.7992e+005 157208 206554,206606,206580
 3.2000e+001 206707  8.4398e+005 -2.1230e+007  8.4393e+005 157208 206554,206632,206606
 3.2000e+001 206684 -5.1240e+006 -6.4228e+006 -9.2141e+005 157208 206554,206658,206632
 3.2000e+001 206882 -1.3591e+004 -6.4789e+004 -1.3743e+004 157010 206755,206807,206781
 3.2000e+001 206859  5.2972e+003 -1.6109e+005  2.4510e+004 157010 206755,206833,206807
 3.2000e+001 207034 -2.5202e+005 -8.9524e+006 -1.6100e+005 156620 206907,206959,206933
 3.2000e+001 207011  2.1099e+005 -1.4366e+007  1.0999e+005 156620 206907,206985,206959
 3.2000e+001 207186 -4.2493e+003 -3.3994e+006  1.2371e+005 156330 207085,207137,207111
 3.2000e+001 207163 -2.7593e+005 -3.5746e+006 -1.0613e+006 156330 207059,207137,207085
 3.2000e+001 207387 -5.6419e+005 -7.9479e+006  1.0464e+006 155890 207211,207289,207237
 3.2000e+001 207364 -8.0368e+005 -8.1224e+006 -9.7392e+005 155890 207211,207315,207289
 3.2000e+001 207341 -1.5525e+006 -5.8989e+006  2.2486e+006 155890 207237,207289,207263
 3.2000e+001 207588  1.0214e+006 -2.6101e+007  6.4558e+006 155436 207438,207490,207464
 3.2000e+001 207565 -6.6804e+005 -2.1425e+007 -5.1858e+005 155436 207412,207490,207438
 3.2000e+001 207542 -1.5343e+006 -1.4181e+007 -9.6932e+005 155436 207412,207516,207490
 3.2000e+001 207789  1.5476e+006 -3.9662e+007 -2.8250e+006 155260 207639,207691,207665
 3.2000e+001 207766 -4.1671e+006 -1.5464e+007  4.9467e+006 155260 207613,207691,207639
 3.2000e+001 207743 -7.3222e+005 -1.2492e+007 -5.3799e+005 155260 207613,207717,207691
 3.2000e+001 207990  2.1647e+003 -1.6586e+004  3.2929e+003 154920 207840,207918,207892
 3.2000e+001 207967  4.4606e+003 -1.7880e+004 -3.0971e+003 154920 207814,207918,207840
 3.2000e+001 207944 -9.8658e+002 -4.7968e+003 -3.2502e+003 154920 207840,207892,207866
 3.2000e+001 208191 -1.4842e+005 -1.5688e+007 -1.1675e+006 154630 208015,208093,208041
 3.2000e+001 208168  5.2713e+005 -1.0785e+007 -1.5930e+006 154630 208015,208119,208093
 3.2000e+001 208145 -2.7888e+006 -9.7598e+006 -5.2168e+006 154630 208041,208093,208067
 3.2000e+001 208343  7.3552e-002  2.2787e-004  4.0939e-003 154240 208216,208268,208242
 3.2000e+001 208320 -1.4063e-001 -4.3568e-004 -7.8275e-003 154240 208216,208294,208268
 3.2000e+001 208495  2.8728e+006 -3.5884e+007 -7.6632e+006 153950 208394,208446,208420
 3.2000e+001 208472 -2.9994e+006 -1.6845e+007  5.3860e+006 153950 208368,208446,208394
 3.2000e+001 208647 -1.1551e+006 -1.9786e+007  9.6541e+006 153603 208520,208572,208546
 3.2000e+001 208624 -5.5782e+006 -6.5839e+006 -4.7106e+006 153603 208520,208598,208572
 3.2000e+001 208848 -7.6362e+005 -7.8658e+006  2.6052e+006 153149 208698,208776,208724
 3.2000e+001 208825  9.8424e+005 -1.6227e+007 -1.6127e+006 153149 208672,208776,208698
 3.2000e+001 208802 -2.7295e+006 -5.6312e+006  1.7506e+006 153149 208724,208776,208750
 3.2000e+001 209000 -1.3411e+006 -1.2014e+007 -4.8956e+005 152859 208873,208925,208899
 3.2000e+001 208977 -3.1094e+004 -1.8847e+007  5.3533e+005 152859 208873,208951,208925
 3.2000e+001 209152  9.0736e+005 -1.6320e+007 -4.9325e+005 152569 209051,209103,209077
 3.2000e+001 209129  8.6218e+005 -1.7109e+007 -9.5135e+005 152569 209025,209103,209051
 3.2000e+001 209304 -3.1909e-001 -4.4371e-001 -3.7627e-001 152065 209177,209229,209203
 3.2000e+001 209281  7.2938e-001  1.0142e+000  8.6009e-001 152065 209177,209255,209229
 3.2000e+001 209456  6.8352e+005 -1.3690e+007 -2.2520e+005 151775 209355,209407,209381
 3.2000e+001 209433  1.3844e+006 -1.9016e+007 -2.7808e+005 151775 209329,209407,209355
 3.2000e+001 209608 -7.2640e+005 -1.8132e+007 -5.7090e+005 151371 209481,209533,209507
 3.2000e+001 209585  7.4158e+005 -2.2169e+007  5.6320e+005 151371 209481,209559,209533
 3.2000e+001 209760 -6.4869e+005 -9.2070e+006  9.4997e+005 150981 209659,209711,209685
 3.2000e+001 209737 -1.2941e+005 -1.4402e+007 -5.9686e+006 150981 209633,209711,209659
 3.2000e+001 209912  2.5067e+006 -3.9969e+007 -3.0379e+006 150619 209811,209863,209837
 3.2000e+001 209889 -1.4802e+006 -2.2124e+007  3.3159e+006 150619 209785,209863,209811
 3.2000e+001 210064 -1.9002e+006 -3.2914e+006 -1.4162e+006 150279 209937,209989,209963
 3.2000e+001 210041  2.2469e+006 -2.4812e+007 -2.3001e+006 150279 209937,210015,209989
 3.2000e+001 210265 -7.6293e+004 -1.9147e+007 -1.7923e+006 149989 210115,210167,210141
 3.2000e+001 210242 -9.9577e+005 -1.7559e+007  7.3619e+004 149989 210115,210193,210167
 3.2000e+001 210219 -7.0762e+005 -2.1107e+007  1.3366e+005 149989 210089,210193,210115
 3.2000e+001 210417 -2.8065e+006 -6.3084e+006  3.0717e+005 149599 210316,210368,210342
 3.2000e+001 210394 -6.5686e+005 -2.1270e+007 -3.1611e+006 149599 210290,210368,210316
 3.2000e+001 210618 -4.4717e+006 -1.4256e+007  2.7691e+006 149095 210468,210520,210494
 3.2000e+001 210595 -4.2954e+006 -1.4081e+007  1.5424e+006 149095 210442,210520,210468
 3.2000e+001 210572 -2.1935e+006 -2.7757e+007  3.0390e+006 149095 210442,210546,210520
 3.2000e+001 210819 -9.5608e+002 -1.5322e+005 -2.3186e+004 148748 210695,210747,210721
 3.2000e+001 210796 -2.3378e+003 -1.2688e+005 -2.9251e+004 148748 210669,210747,210695
 3.2000e+001 210773 -1.1296e+004 -6.6670e+004  2.7336e+004 148748 210643,210747,210669
 3.2000e+001 210971 -1.7984e+002 -3.1966e+001 -1.8597e+002 148408 210870,210922,210896
 3.2000e+001 210948 -5.9102e+001 -6.9591e+001 -4.5940e+001 148408 210844,210922,210870
 3.2000e+001 211123 -8.5847e+005 -1.5114e+007  1.2724e+006 148118 210996,211048,211022
 3.2000e+001 211100  1.4464e+006 -1.9636e+007  6.2864e+006 148118 210996,211074,211048
 3.2000e+001 211275 -4.5741e+006 -1.3309e+007 -7.3053e+005 147778 211148,211200,211174
 3.2000e+001 211252  6.6931e+005 -3.2717e+007  1.1272e+007 147778 211148,211226,211200
 3.2000e+001 211427 -4.6609e+006 -6.4828e+006  2.9324e+006 147324 211326,211378,211352
 3.2000e+001 211404  6.9704e+005 -2.0269e+007 -2.1696e+006 147324 211300,211378,211326
 3.2000e+001 211628  2.1281e+002 -1.4664e+002 -1.7846e+002 147012 211452,211504,211478
 3.2000e+001 211605  4.9450e+001 -1.2840e+002  3.1869e+001 147012 211452,211556,211504
 3.2000e+001 211582  2.7145e+001  1.2324e+002 -7.9684e+001 147012 211504,211556,211530
 3.2000e+001 211829 -3.5852e+006 -8.6720e+006  3.9028e+006 146636 211679,211757,211731
 3.2000e+001 211806  5.7683e+006 -3.0801e+007 -3.4193e+006 146636 211653,211757,211679
 3.2000e+001 211783  1.9773e+006 -7.6197e+006  3.5519e+006 146636 211679,211731,211705
 3.2000e+001 211981  4.4233e+004 -7.9010e+005  1.8769e+004 146246 211880,211932,211906
 3.2000e+001 211958  1.3816e+004 -9.9828e+004 -6.8527e+003 146246 211854,211932,211880
 3.2000e+001 212133 -3.0944e+002 -7.6363e+002 -1.8902e+002 145956 212006,212058,212032
 3.2000e+001 212110 -3.4191e+002 -7.3743e+002 -2.0151e+002 145956 212006,212084,212058
 3.2000e+001 212285 -4.2932e+004 -8.1389e+005  1.7989e+004 145544 212184,212236,212210
 3.2000e+001 212262 -3.8375e+004 -2.3129e+005 -2.1801e+004 145544 212158,212236,212184
 3.2000e+001 212486  1.1984e+006 -1.4425e+007  1.6360e+006 144990 212362,212414,212388
 3.2000e+001 212463  7.2313e+004 -1.0162e+007  3.7732e+006 144990 212310,212414,212362
 3.2000e+001 212440 -2.5594e+006 -3.3387e+006  1.8998e+006 144990 212310,212362,212336
 3.2000e+001 212638 -2.2607e+004 -3.5961e+005  7.8716e+004 144600 212537,212589,212563
 3.2000e+001 212615  1.1024e+004 -2.2912e+005  6.7328e+004 144600 212511,212589,212537
 3.2000e+001 212839 -5.8185e+004 -7.9242e+005 -1.5048e+005 144210 212689,212741,212715
 3.2000e+001 212816 -8.3655e+002 -9.6316e+005 -9.8291e+003 144210 212663,212741,212689
 3.2000e+001 212793  4.7966e+004 -6.4182e+005 -4.6780e+004 144210 212663,212767,212741
 3.2000e+001 212991 -1.0810e+005 -1.1694e+005 -1.1250e+005 143920 212890,212942,212916
 3.2000e+001 212968 -2.2108e+005 -4.5077e+005 -2.2325e+005 143920 212864,212942,212890
 3.2000e+001 213143 -1.2258e+004 -6.4114e+005  8.5314e+004 143480 213016,213068,213042
 3.2000e+001 213120 -3.9115e+004 -4.5324e+005 -9.6021e+004 143480 213016,213094,213068
 3.2000e+001 213295 -8.2954e+005 -6.3566e+006  3.0087e+006 142990 213194,213246,213220
 3.2000e+001 213272 -4.6667e+005 -2.8367e+006  2.3369e+006 142990 213168,213246,213194
 3.2000e+001 213447 -1.2588e+006 -3.6336e+006  8.7321e+005 142600 213320,213372,213346
 3.2000e+001 213424 -2.3067e+006 -2.8442e+006  2.8620e+005 142600 213320,213398,213372
 3.2000e+001 213599 -9.8390e+004 -5.6329e+005 -2.4373e+005 142260 213472,213524,213498
 3.2000e+001 213576 -4.0883e+004 -6.5863e+005  1.1428e+005 142260 213472,213550,213524
 3.2000e+001 213751 -7.1064e+005 -9.1525e+005 -3.3279e+005 141870 213624,213676,213650
 3.2000e+001 213728 -1.8395e+006 -3.2942e+005 -1.4022e+006 141870 213624,213702,213676
 3.2000e+001 213903 -1.9956e+006 -4.8169e+006 -2.3004e+006 141530 213776,213828,213802
 3.2000e+001 213880 -7.7787e+005 -5.0881e+006 -1.6041e+006 141530 213776,213854,213828
 3.2000e+001 214055 -2.7478e+002 -9.4380e+002 -4.7981e+000 141218 213928,213980,213954
 3.2000e+001 214032 -2.3702e+001 -2.3560e+003  3.4627e+002 141218 213928,214006,213980
 3.2000e+001 214207 -5.9323e+002 -6.8687e+002  2.0799e+001 140928 214080,214132,214106
 3.2000e+001 214184 -1.0417e+002 -6.5160e+002  1.0853e+003 140928 214080,214158,214132
 3.2000e+001 214359 -5.9215e+005 -2.8577e+005 -5.6097e+005 140538 214232,214284,214258
 3.2000e+001 214336  2.9454e+005 -1.5393e+006  3.4583e+005 140538 214232,214310,214284
 3.2000e+001 214560 -3.0024e+004 -2.0066e+006 -3.1479e+004 140248 214384,214462,214410
 3.2000e+001 214537  1.4855e+005 -7.0833e+005 -8.1613e+004 140248 214384,214488,214462
 3.2000e+001 214514 -2.3842e+005 -1.1569e+006 -3.1453e+005 140248 214410,214462,214436
 3.2000e+001 214712 -1.4782e+006 -5.4130e+006  1.0431e+006 140000 214611,214663,214637
 3.2000e+001 214689 -1.0913e+006 -4.0691e+006  1.3010e+006 140000 214585,214663,214611
 3.2000e+001 214913 -6.0917e+005 -4.6508e+006 -1.1645e+006 139596 214737,214815,214763
 3.2000e+001 214890 -4.4704e+005 -2.5167e+006 -1.2675e+005 139596 214737,214841,214815
 3.2000e+001 214867  4.8097e+005 -7.1123e+006 -6.7068e+005 139596 214763,214815,214789
 3.2000e+001 215016  2.6274e+002 -3.1221e+004  5.6006e+002 139420 214938,214990,214964
 3.2000e+001 215168 -9.8268e+005 -9.9372e+006  2.7154e+006 139130 215067,215119,215093
 3.2000e+001 215145 -8.8889e+005 -9.9077e+006  2.7604e+006 139130 215041,215119,215067
 3.2000e+001 215320 -1.2380e+006 -3.2866e+006  1.5640e+006 138790 215219,215271,215245
 3.2000e+001 215297  2.3554e+005 -1.1933e+007  3.2464e+006 138790 215193,215271,215219
 3.2000e+001 215472 -7.5368e+004 -9.9554e+005  4.0614e+005 138514 215345,215397,215371
 3.2000e+001 215449  1.0982e+004 -6.1528e+005  1.1124e+005 138514 215345,215423,215397
 3.2000e+001 215624 -1.3188e+005 -9.2935e+006  3.7387e+005 138174 215497,215549,215523
 3.2000e+001 215601 -3.8062e+004 -7.6731e+006  1.2066e+005 138174 215497,215575,215549
 3.2000e+001 215776 -2.9147e+005 -1.7671e+006  9.7545e+005 137734 215649,215701,215675
 3.2000e+001 215753 -8.5942e+004 -1.1323e+006 -1.9942e+005 137734 215649,215727,215701
 3.2000e+001 215977 -6.7854e+005 -1.8125e+007  4.5688e+006 137344 215801,215879,215827
 3.2000e+001 215954 -8.6279e+005 -8.6982e+006 -2.6570e+006 137344 215801,215905,215879
 3.2000e+001 215931  6.1298e+005 -2.6301e+007 -1.6968e+006 137344 215827,215879,215853
 3.2000e+001 216129 -2.1137e+005 -6.4277e+006  9.4292e+005 136940 216028,216080,216054
 3.2000e+001 216106 -8.6288e+004 -4.6562e+006  5.7862e+005 136940 216002,216080,216028
 3.2000e+001 216330 -4.0038e+005 -8.2880e+006  1.3507e+006 136600 216180,216232,216206
 3.2000e+001 216307 -5.9413e+005 -8.4450e+006  1.7918e+006 136600 216154,216232,216180
 3.2000e+001 216284 -2.5910e+006 -6.0356e+006  8.8865e+005 136600 216154,216258,216232
 3.2000e+001 216482  1.0160e+006 -6.4281e+006  2.9324e+005 136260 216381,216433,216407
 3.2000e+001 216459  4.7487e+005 -8.0937e+006 -2.5831e+005 136260 216355,216433,216381
 3.2000e+001 216634 -8.9505e+005 -5.4537e+006  1.8522e+006 135970 216533,216585,216559
 3.2000e+001 216611 -3.7000e+005 -7.9414e+006  2.2438e+006 135970 216507,216585,216533
 3.2000e+001 216835 -1.0311e+006 -5.0492e+006  4.9464e+004 135608 216685,216763,216711
 3.2000e+001 216812  2.5996e+005 -5.7319e+006 -1.2648e+006 135608 216659,216763,216685
 3.2000e+001 216789 -1.2772e+006 -8.8409e+006  4.1875e+005 135608 216711,216763,216737
 3.2000e+001 217036 -5.9442e+005 -6.0650e+006  9.9334e+005 135312 216912,216964,216938
 3.2000e+001 217013 -4.6089e+005 -7.5543e+006  1.7271e+006 135312 216886,216964,216912
 3.2000e+001 216990 -4.8603e+005 -8.2662e+006  1.4669e+006 135312 216860,216964,216886
 3.2000e+001 217237 -1.5893e+005 -1.3937e+006  3.9244e+005 134908 217061,217139,217113
 3.2000e+001 217214 -3.6873e+005 -1.5381e+006  7.6951e+005 134908 217061,217165,217139
 3.2000e+001 217191 -3.7355e+005 -1.6430e+006  5.3817e+005 134908 217061,217113,217087
 3.2000e+001 217438 -1.6708e+006 -2.4100e+007  9.2949e+005 134568 217288,217366,217314
 3.2000e+001 217415  1.5851e+006 -3.1447e+007  9.6044e+005 134568 217262,217366,217288
 3.2000e+001 217392 -1.1632e+005 -2.3368e+007 -6.1723e+005 134568 217314,217366,217340
 3.2000e+001 217590 -3.0623e+005 -1.1521e+006  4.9770e+005 134106 217463,217515,217489
 3.2000e+001 217567 -1.1977e+005 -9.3212e+005  2.1591e+005 134106 217463,217541,217515
 3.2000e+001 217791 -1.9131e+006 -3.0967e+007 -9.3114e+006 133816 217641,217693,217667
 3.2000e+001 217768  3.8516e+006 -3.5625e+007  4.3245e+006 133816 217641,217719,217693
 3.2000e+001 217745 -7.4168e+006 -3.8129e+006  5.1826e+006 133816 217615,217719,217641
 3.2000e+001 217992 -3.2672e+006 -5.6426e+006  4.1529e+006 133355 217842,217920,217894
 3.2000e+001 217969  2.2215e+005 -1.6258e+007 -1.2845e+006 133355 217816,217920,217842
 3.2000e+001 217946 -5.0730e+005 -3.2041e+006  7.4418e+005 133355 217842,217894,217868
 3.2000e+001 218193  1.0736e+005 -6.8542e+006 -4.5886e+006 132851 218017,218095,218069
 3.2000e+001 218170 -2.1885e+006 -1.1368e+007  7.5060e+006 132851 218017,218121,218095
 3.2000e+001 218147 -4.2999e+006 -5.7619e+006 -3.0084e+006 132851 218017,218069,218043
 3.2000e+001 218345 -3.0753e+005 -3.1614e+006  8.3549e+005 132511 218244,218296,218270
 3.2000e+001 218322 -5.2639e+005 -2.6272e+006  5.3905e+005 132511 218218,218296,218244
 3.2000e+001 218497  8.9415e+005 -3.4009e+007 -2.8770e+006 132235 218396,218448,218422
 3.2000e+001 218474 -1.6800e+006 -1.0601e+007  3.8839e+004 132235 218370,218448,218396
 3.2000e+001 218698 -3.0336e+005 -1.6004e+007  1.1723e+005 131945 218574,218626,218600
 3.2000e+001 218675 -1.8297e+006 -2.2413e+007  1.0395e+005 131945 218522,218626,218574
 3.2000e+001 218652 -1.6432e+006 -1.6339e+007 -1.7917e+006 131945 218522,218574,218548
 3.2000e+001 218850 -6.8482e+005 -2.1948e+007 -1.5165e+006 131655 218723,218775,218749
 3.2000e+001 218827 -2.1058e+005 -1.3658e+007 -9.1120e+005 131655 218723,218801,218775
 3.2000e+001 218953 -2.6732e+005 -4.2283e+006  5.7598e+005 131215 218875,218927,218901
 3.2000e+001 219105 -3.7378e+005 -7.7322e+006 -1.2256e+006 130875 218978,219030,219004
 3.2000e+001 219082 -5.0066e+005 -3.1457e+006 -1.9067e+005 130875 218978,219056,219030
 3.2000e+001 219306 -5.2670e+005 -5.8857e+006 -1.4528e+005 130429 219156,219234,219208
 3.2000e+001 219283 -6.3885e+005 -3.4158e+006  4.4172e+005 130429 219130,219234,219156
 3.2000e+001 219260 -2.8279e+006 -6.6775e+006  2.4420e+006 130429 219156,219208,219182
 3.2000e+001 219507 -3.5614e+005 -2.6887e+006  6.6136e+005 130025 219383,219435,219409
 3.2000e+001 219484 -3.1768e+005 -3.0671e+006  8.2742e+005 130025 219331,219435,219383
 3.2000e+001 219461 -5.1227e+005 -1.7737e+006  2.8541e+005 130025 219331,219383,219357
 3.2000e+001 219659 -4.6908e+005 -7.8025e+006  9.6116e+005 129685 219558,219610,219584
 3.2000e+001 219636  5.5316e+005 -1.2833e+007 -5.4008e+006 129685 219532,219610,219558
 3.2000e+001 219860 -1.7118e+005 -4.2613e+006  1.3388e+006 129395 219710,219788,219762
 3.2000e+001 219837 -1.0050e+006 -3.7667e+006  8.8335e+005 129395 219684,219788,219710
 3.2000e+001 219814  4.1064e+005 -6.3766e+006 -2.4317e+005 129395 219710,219762,219736
 3.2000e+001 220061  2.0398e+005 -4.0763e+006  3.0302e+005 128991 219937,219989,219963
 3.2000e+001 220038 -5.9914e+004 -4.0215e+006  2.1021e+005 128991 219885,219989,219937
 3.2000e+001 220015 -5.0651e+004 -4.1917e+006  3.9821e+005 128991 219885,219937,219911
 3.2000e+001 220262 -1.7339e+005 -3.2528e+006  1.0362e+005 128701 220086,220164,220112
 3.2000e+001 220239 -2.5442e+005 -3.4543e+006  2.0534e+005 128701 220086,220190,220164
 3.2000e+001 220216 -1.4945e+005 -2.9283e+006  6.6177e+005 128701 220112,220164,220138
 3.2000e+001 220463 -3.1035e+006 -9.2636e+006  3.2265e+006 128297 220339,220391,220365
 3.2000e+001 220440  2.4099e+006 -2.0118e+007  6.5374e+005 128297 220313,220391,220339
 3.2000e+001 220417 -4.3196e+005 -2.4379e+007 -5.7835e+006 128297 220287,220391,220313
 3.2000e+001 220615 -1.6834e+006 -3.7429e+006 -1.2265e+006 128007 220488,220540,220514
 3.2000e+001 220592  1.5330e+006 -1.3670e+007  9.4864e+004 128007 220488,220566,220540
 3.2000e+001 220767 -1.0428e+005 -3.7069e+006 -1.2260e+005 127567 220640,220692,220666
 3.2000e+001 220744 -1.6962e+005 -2.2413e+006 -1.9422e+005 127567 220640,220718,220692
 3.2000e+001 220919 -7.2055e+005 -1.8205e+007 -2.4355e+006 127163 220792,220844,220818
 3.2000e+001 220896  1.4989e+006 -2.1678e+007  1.4037e+006 127163 220792,220870,220844
 3.2000e+001 221071 -1.2922e+006 -4.0821e+006  1.5814e+006 126915 220970,221022,220996
 3.2000e+001 221048 -1.2218e+006 -4.8261e+006  1.3066e+006 126915 220944,221022,220970
 3.2000e+001 221272 -1.9552e+006 -3.8654e+006  2.8124e+006 126461 221122,221174,221148
 3.2000e+001 221249 -4.7687e+006 -5.1737e+006  7.6423e+005 126461 221122,221200,221174
 3.2000e+001 221226  1.1459e+006 -1.4854e+007 -3.5603e+006 126461 221096,221200,221122
 3.2000e+001 221375 -5.2485e+000 -6.0653e+001  2.6010e+000 126213 221297,221349,221323
 3.2000e+001 221478  3.4285e-047  6.2369e-048  3.8177e-048 125766 221400,221452,221426
 3.2000e+001 221679 -4.2901e+004 -2.6127e+006  2.1306e+005 125212 221503,221555,221529
 3.2000e+001 221656 -1.3860e+005 -3.3609e+006  6.7412e+004 125212 221503,221581,221555
 3.2000e+001 221633  3.8529e+005 -6.0902e+006  1.3455e+006 125212 221503,221607,221581
 3.2000e+001 221929 -4.4410e+004 -3.5941e+005  1.2340e+005 124872 221782,221834,221808
 3.2000e+001 221906 -2.9435e+004 -3.2682e+005  1.1097e+005 124872 221756,221834,221782
 3.2000e+001 221883 -7.2070e+004 -9.0063e+004  2.2891e+004 124872 221704,221834,221756
 3.2000e+001 221860 -9.0374e+004 -3.6179e+005 -5.3115e+004 124872 221704,221756,221730
 3.2000e+001 222130 -6.4724e+005 -1.0689e+007 -1.1805e+006 124582 221980,222058,222006
 3.2000e+001 222107 -2.3594e+006 -1.0997e+007 -1.3140e+006 124582 221954,222058,221980
 3.2000e+001 222084 -1.9670e+006 -1.1592e+007 -1.8725e+006 124582 222006,222058,222032
 3.2000e+001 222282 -2.7226e+006 -1.3022e+007 -3.3528e+006 124192 222181,222233,222207
 3.2000e+001 222259 -1.0733e+006 -1.2688e+007 -3.2483e+006 124192 222155,222233,222181
 3.2000e+001 222483 -2.0333e+005 -3.4808e+006 -8.3619e+005 123702 222333,222385,222359
 3.2000e+001 222460 -2.6078e+005 -2.9579e+006 -6.8944e+004 123702 222333,222411,222385
 3.2000e+001 222437 -2.5204e+005 -1.4214e+006 -3.3083e+005 123702 222307,222411,222333
 3.2000e+001 222635 -4.7294e+005 -1.2827e+006 -4.3769e+005 123312 222508,222560,222534
 3.2000e+001 222612  2.9880e+005 -5.1031e+006 -3.2443e+005 123312 222508,222586,222560
 3.2000e+001 222787 -7.7973e+004 -2.2297e+006 -9.5385e+004 122858 222686,222738,222712
 3.2000e+001 222764 -2.2671e+005 -2.4093e+006 -4.8163e+005 122858 222660,222738,222686
 3.2000e+001 222939 -1.3840e+005 -1.6626e+006 -1.6514e+004 122568 222812,222864,222838
 3.2000e+001 222916 -4.4119e+004 -1.0576e+006  1.4722e+005 122568 222812,222890,222864
 3.2000e+001 223091 -2.0350e+005 -2.6721e+006 -6.1356e+005 122392 222964,223016,222990
 3.2000e+001 223068  3.9704e+005 -3.3346e+006  2.5377e+004 122392 222964,223042,223016
 3.2000e+001 223292 -3.8176e+005 -1.1635e+007 -2.2145e+006 121852 223142,223220,223194
 3.2000e+001 223269 -1.8778e+006 -9.6792e+006 -1.0475e+006 121852 223116,223220,223142
 3.2000e+001 223246 -3.1707e+005 -1.1738e+007 -1.9288e+006 121852 223142,223194,223168
 3.2000e+001 223493 -1.2794e+006 -9.9974e+006  4.1729e+005 121406 223343,223395,223369
 3.2000e+001 223470 -2.5976e+006 -8.1162e+006 -1.2308e+006 121406 223343,223421,223395
 3.2000e+001 223447 -1.2866e+006 -5.9384e+006  2.2152e+006 121406 223317,223421,223343
 3.2000e+001 223645  3.8790e+005 -1.2103e+007  6.6269e+005 121002 223544,223596,223570
 3.2000e+001 223622 -1.4529e+006 -5.6945e+006  1.0986e+006 121002 223518,223596,223544
 3.2000e+001 223846 -2.8898e+005 -8.4914e+006 -9.8671e+004 120662 223670,223748,223696
 3.2000e+001 223823  5.2969e+005 -5.1319e+006 -1.1255e+005 120662 223670,223774,223748
 3.2000e+001 223800 -1.1789e+006 -3.8785e+006 -1.3937e+006 120662 223696,223748,223722
 3.2000e+001 224047 -4.5386e+005 -4.8146e+006  1.2346e+006 120222 223897,223949,223923
 3.2000e+001 224024  6.6029e+005 -6.4442e+006 -8.2955e+005 120222 223871,223949,223897
 3.2000e+001 224001 -5.3448e+005 -4.6173e+006 -1.1546e+006 120222 223871,223975,223949
 3.2000e+001 224248  6.8825e+005 -4.8813e+006 -7.7797e+005 119875 224124,224176,224150
 3.2000e+001 224225 -1.1104e+006 -1.0905e+007 -2.1122e+006 119875 224098,224176,224124
 3.2000e+001 224202 -4.7694e+005 -1.9302e+006  5.1564e+004 119875 224072,224176,224098
 3.2000e+001 224449 -2.7045e+005 -5.1497e+006 -4.2116e+005 119677 224325,224377,224351
 3.2000e+001 224426 -6.4519e+005 -6.6506e+006 -3.5229e+005 119677 224299,224377,224325
 3.2000e+001 224403 -3.7087e+005 -2.2213e+006 -2.2552e+005 119677 224273,224377,224299
 3.2000e+001 224552 -4.8866e+005 -2.5361e+006 -2.7171e+005 119273 224474,224526,224500
 3.2000e+001 224704 -1.8058e+006 -1.3893e+007 -2.7378e+006 118983 224603,224655,224629
 3.2000e+001 224681 -7.9265e+005 -1.2065e+007 -1.5212e+006 118983 224577,224655,224603
 3.2000e+001 224856 -4.7115e+005 -9.9674e+006 -2.4365e+005 118529 224755,224807,224781
 3.2000e+001 224833  2.5912e+005 -1.3865e+007 -1.1951e+006 118529 224729,224807,224755
 3.2000e+001 225008 -8.6387e+005 -9.0434e+006  1.1545e+005 118353 224881,224933,224907
 3.2000e+001 224985 -4.0830e+005 -2.0268e+006 -7.1167e+004 118353 224881,224959,224933
 3.2000e+001 225209 -1.4570e+005 -8.0108e+006 -4.7946e+005 117949 225059,225137,225111
 3.2000e+001 225186 -3.5596e+005 -8.0232e+006 -3.9771e+005 117949 225033,225137,225059
 3.2000e+001 225163  8.2987e+004 -8.4647e+006 -3.1564e+005 117949 225059,225111,225085
 3.2000e+001 225410  3.1728e+004 -8.2313e+006  7.9758e+005 117559 225260,225338,225312
 3.2000e+001 225387 -6.7085e+005 -8.5136e+006  4.3411e+005 117559 225234,225338,225260
 3.2000e+001 225364 -6.9739e+005 -5.8220e+006 -2.0145e+006 117559 225260,225312,225286
 3.2000e+001 225611 -1.4268e+006 -1.1765e+007 -5.7081e+006 117361 225461,225513,225487
 3.2000e+001 225588  1.2965e+006 -1.2297e+007  1.3096e+006 117361 225461,225539,225513
 3.2000e+001 225565 -2.2772e+006 -7.8677e+006  4.0827e+006 117361 225435,225539,225461
 3.2000e+001 225812  3.3791e+004 -6.8182e+006 -3.2089e+005 116900 225636,225714,225662
 3.2000e+001 225789  6.8740e+005 -7.9230e+006 -3.5842e+005 116900 225636,225740,225714
 3.2000e+001 225766 -3.8381e+004 -6.8002e+006 -5.1080e+005 116900 225662,225714,225688
 3.2000e+001 225964 -4.2350e+005 -5.4887e+006 -2.2336e+005 116560 225837,225889,225863
 3.2000e+001 225941  1.0855e+005 -8.6354e+006  2.6584e+005 116560 225837,225915,225889
 3.2000e+001 226165  1.3906e+004 -7.5503e+006 -5.3139e+005 116106 226015,226093,226041
 3.2000e+001 226142 -2.1283e+004 -9.0681e+006 -3.0502e+006 116106 225989,226093,226015
 3.2000e+001 226119 -2.2955e+006 -4.0339e+006  1.0018e+005 116106 226041,226093,226067
 3.2000e+001 226268 -1.4858e+006 -1.0441e+007  2.4697e+005 115716 226190,226242,226216
 3.2000e+001 226420  2.2254e+005 -9.1817e+006  1.7512e+006 115376 226293,226345,226319
 3.2000e+001 226397  1.3833e+005 -9.0482e+006  1.4847e+006 115376 226293,226371,226345
 3.2000e+001 226621 -6.4041e+005 -2.7703e+006  5.5737e+005 114972 226497,226549,226523
 3.2000e+001 226598 -5.2386e+005 -1.1890e+007 -5.4068e+005 114972 226445,226549,226497
 3.2000e+001 226575  2.2261e+005 -6.2470e+006  9.0201e+005 114972 226445,226497,226471
 3.2000e+001 226773 -1.0618e+006 -3.7009e+006 -1.2584e+006 114670 226646,226698,226672
 3.2000e+001 226750  7.4412e+005 -8.8477e+006  6.7602e+005 114670 226646,226724,226698
 3.2000e+001 226974  5.8339e+004 -2.9371e+006 -5.0287e+005 114082 226798,226850,226824
 3.2000e+001 226951  1.6958e+005 -3.9701e+006 -1.3801e+005 114082 226798,226902,226850
 3.2000e+001 226928  4.3047e+004 -5.4697e+006 -5.2105e+005 114082 226850,226902,226876
 3.2000e+001 227175 -7.9983e+005 -4.7755e+006 -7.5759e+005 113678 226999,227051,227025
 3.2000e+001 227152 -1.7935e+006 -6.5207e+006 -2.2059e+006 113678 226999,227077,227051
 3.2000e+001 227129 -6.6000e+005 -1.2474e+007 -3.3288e+006 113678 226999,227103,227077
 3.2000e+001 227425  4.5757e+003 -9.4013e+006 -3.7882e+003 113274 227226,227278,227252
 3.2000e+001 227402  6.4728e+005 -9.3422e+006 -3.7905e+006 113274 227226,227330,227278
 3.2000e+001 227379  4.0807e+005 -9.1824e+006 -3.8354e+006 113274 227200,227330,227226
 3.2000e+001 227356 -6.1968e+006 -1.1558e+006 -9.6676e+005 113274 227278,227330,227304
 3.2000e+001 227626  3.6447e+005 -4.8071e+006 -8.5152e+005 112934 227502,227554,227528
 3.2000e+001 227603 -9.3913e+004 -3.6677e+006 -8.8965e+004 112934 227450,227554,227502
 3.2000e+001 227580 -1.2266e+006 -3.9721e+006 -8.0698e+005 112934 227450,227502,227476
 3.2000e+001 227876 -2.3437e+005 -2.2387e+006 -2.7808e+005 112437 227677,227755,227703
 3.2000e+001 227853 -1.2202e+006 -2.6738e+006  1.3113e+006 112437 227677,227781,227755
 3.2000e+001 227830 -4.0870e+005 -1.3204e+006  2.5055e+005 112437 227703,227755,227729
 3.2000e+001 227807 -3.2431e+005 -7.7188e+006 -4.3077e+005 112437 227651,227781,227677
 3.2000e+001 228126 -1.0110e+006 -4.7096e+006  5.3959e+005 112041 227927,228005,227953
 3.2000e+001 228103 -3.7558e+005 -8.0842e+006 -1.4515e+006 112041 227927,228031,228005
 3.2000e+001 228080 -1.3471e+006 -5.7049e+006  2.7708e+005 112041 227953,228005,227979
 3.2000e+001 228057 -2.2978e+005 -6.5963e+006 -1.3027e+006 112041 227901,228031,227927
 3.2000e+001 228327 -1.1205e+006 -5.9983e+006 -8.6214e+005 111693 228151,228203,228177
 3.2000e+001 228304 -5.5874e+005 -3.2063e+006 -1.4072e+006 111693 228151,228229,228203
 3.2000e+001 228281  6.5093e+005 -6.4384e+006  9.5890e+005 111693 228151,228255,228229
 3.2000e+001 228479 -3.9812e+006 -1.3957e+007 -6.4894e+006 111253 228352,228404,228378
 3.2000e+001 228456 -3.3913e+006 -9.0383e+006 -1.4477e+006 111253 228352,228430,228404
 3.2000e+001 228582  2.5711e+001 -6.8422e+004 -5.4449e+002 110906 228504,228556,228530
 3.2000e+001 228783 -1.2357e+005 -1.9923e+006  5.4271e+005 110416 228633,228711,228659
 3.2000e+001 228760 -1.3578e+005 -1.2907e+006  2.5990e+005 110416 228607,228711,228633
 3.2000e+001 228737 -3.1756e+005 -2.8410e+006  6.5515e+005 110416 228659,228711,228685
 3.2000e+001 228935 -1.7689e+005 -3.7884e+006 -1.4307e+005 110012 228808,228860,228834
 3.2000e+001 228912 -6.1961e+005 -7.8773e+006 -8.7443e+005 110012 228808,228886,228860
 3.2000e+001 229087 -1.1243e+006 -3.2278e+006 -1.4445e+006 109672 228960,229012,228986
 3.2000e+001 229064 -5.8532e+005 -7.1330e+006 -1.1189e+005 109672 228960,229038,229012
 3.2000e+001 229190  2.6391e+004 -7.5207e+005 -5.3662e+004 109332 229112,229164,229138
 3.2000e+001 229391 -1.7611e+002 -5.8177e+005 -1.6053e+005 109156 229267,229319,229293
 3.2000e+001 229368 -6.1559e+004 -7.8015e+005 -2.0073e+005 109156 229215,229319,229267
 3.2000e+001 229345  8.3598e+003 -5.1386e+005 -2.2449e+005 109156 229215,229267,229241
 3.2000e+001 229543 -1.4007e+004 -1.0389e+007  8.9911e+005 108752 229416,229468,229442
 3.2000e+001 229520 -5.6323e+005 -1.0952e+007  1.2385e+006 108752 229416,229494,229468
 3.2000e+001 229744 -3.1618e+005 -8.1581e+006  2.7569e+005 108198 229594,229646,229620
 3.2000e+001 229721 -1.1049e+006 -8.4278e+006  1.0997e+006 108198 229594,229672,229646
 3.2000e+001 229698  2.7878e+005 -1.1461e+007 -5.6106e+005 108198 229568,229672,229594
 3.2000e+001 229847 -6.5709e+004 -5.2819e+005 -1.2868e+005 107758 229769,229821,229795
 3.2000e+001 230048 -9.7287e+005 -3.6364e+006 -7.6190e+005 107468 229898,229950,229924
 3.2000e+001 230025 -4.1554e+005 -3.0817e+006  1.2993e+005 107468 229872,229950,229898
 3.2000e+001 230002 -1.1691e+006 -3.2497e+006  2.3324e+005 107468 229872,229976,229950
 3.2000e+001 230298  7.3737e+004 -2.6646e+006  6.9695e+005 107121 230099,230203,230177
 3.2000e+001 230275 -7.0603e+005 -9.7232e+005  3.5790e+005 107121 230073,230203,230099
 3.2000e+001 230252 -2.0702e+005 -3.3737e+006 -1.3181e+006 107121 230099,230177,230151
 3.2000e+001 230229 -2.9065e+005 -4.1817e+006 -6.4468e+005 107121 230099,230151,230125
 3.2000e+001 230450  2.5771e+005 -2.9345e+006 -3.1149e+005 106823 230349,230401,230375
 3.2000e+001 230427 -1.8568e+005 -6.8067e+005  1.7813e+005 106823 230323,230401,230349
 3.2000e+001 230602 -9.1246e+005 -8.9663e+006 -2.1313e+006 106533 230501,230553,230527
 3.2000e+001 230579 -1.1832e+006 -9.8706e+006 -4.1116e+006 106533 230475,230553,230501
 3.2000e+001 230803 -2.0690e+005 -8.3269e+005  1.6545e+004 106029 230679,230731,230705
 3.2000e+001 230780 -2.5737e+005 -1.1889e+006  4.6589e+005 106029 230653,230731,230679
 3.2000e+001 230757  6.4053e+005 -3.7847e+006  3.8112e+005 106029 230627,230731,230653
 3.2000e+001 231004 -2.1400e+005 -3.7799e+006  2.5498e+005 105689 230854,230906,230880
 3.2000e+001 230981  3.1324e+005 -4.4307e+006 -5.0322e+005 105689 230828,230906,230854
 3.2000e+001 230958 -7.2917e+005 -3.1588e+006 -1.5177e+006 105689 230828,230932,230906
 3.2000e+001 231156 -1.3198e+006 -4.1560e+006  1.4242e+006 105377 231055,231107,231081
 3.2000e+001 231133  1.2507e+006 -1.5793e+007 -1.8472e+006 105377 231029,231107,231055
 3.2000e+001 231406 -5.0609e+005 -8.8535e+006 -2.2524e+005 104858 231207,231259,231233
 3.2000e+001 231383 -1.5473e+006 -8.5976e+006 -8.6058e+005 104858 231207,231311,231259
 3.2000e+001 231360 -1.0382e+006 -1.3693e+007 -1.5146e+006 104858 231259,231311,231285
 3.2000e+001 231337 -3.7676e+005 -1.1679e+007 -1.5605e+006 104858 231181,231311,231207
 3.2000e+001 231558 -4.9412e+005 -5.0333e+006  2.3450e+006 104418 231457,231509,231483
 3.2000e+001 231535 -3.3513e+005 -5.1251e+006  9.7065e+005 104418 231431,231509,231457
 3.2000e+001 231710 -5.7804e+005 -2.1921e+006 -3.3442e+005 103978 231583,231635,231609
 3.2000e+001 231687 -7.6370e+005 -1.1582e+006 -3.2457e+005 103978 231583,231661,231635
 3.2000e+001 231862 -1.4815e+004 -6.1624e+005 -6.0468e+004 103588 231761,231813,231787
 3.2000e+001 231839 -6.0176e+003 -5.6753e+005 -6.5515e+004 103588 231735,231813,231761
 3.2000e+001 232014 -2.8127e+006 -6.6723e+006 -2.5401e+006 103248 231887,231939,231913
 3.2000e+001 231991  2.9149e+005 -1.9341e+007 -6.1216e+006 103248 231887,231965,231939
 3.2000e+001 232215 -2.1821e+005 -3.2424e+006  6.0316e+005 102844 232039,232117,232065
 3.2000e+001 232192  7.3859e+004 -3.8265e+006 -1.9741e+005 102844 232039,232143,232117
 3.2000e+001 232169 -2.9293e+005 -1.9280e+006 -3.0598e+005 102844 232065,232117,232091
 3.2000e+001 232416 -4.0602e+006 -1.0707e+007 -3.1243e+006 102554 232240,232318,232292
 3.2000e+001 232393  1.1308e+006 -1.5590e+007 -2.0001e+005 102554 232240,232344,232318
 3.2000e+001 232370 -4.4756e+006 -4.8992e+006 -1.1600e+006 102554 232240,232292,232266
 3.2000e+001 232568  2.7684e+005 -5.1132e+006  9.0054e+005 102100 232441,232493,232467
 3.2000e+001 232545 -9.4338e+004 -4.5506e+006 -4.3805e+005 102100 232441,232519,232493
 3.2000e+001 232769 -2.4494e+005 -2.2549e+006 -3.5688e+005 101596 232645,232697,232671
 3.2000e+001 232746 -1.9394e+005 -2.0069e+006 -4.9702e+005 101596 232593,232697,232645
 3.2000e+001 232723  2.6722e+005 -5.2703e+006 -6.3318e+005 101596 232593,232645,232619
 3.2000e+001 232921 -3.3164e+002 -3.0293e+002  5.1209e+001 101420 232794,232846,232820
 3.2000e+001 232898 -5.8320e+002 -1.1952e+002  3.8574e+002 101420 232794,232872,232846
 3.2000e+001 233073 -1.0434e+006 -3.9362e+006 -6.8036e+005 101023 232946,232998,232972
 3.2000e+001 233050  2.2803e+005 -6.5662e+006  1.3134e+006 101023 232946,233024,232998
 3.2000e+001 233225 -3.7135e+005 -3.0885e+006  3.7321e+003 100661 233098,233150,233124
 3.2000e+001 233202  3.2287e+005 -6.6217e+006  2.3707e+005 100661 233098,233176,233150
 3.2000e+001 233426 -1.3482e+006 -7.6398e+006 -2.0599e+006 100265 233276,233328,233302
 3.2000e+001 233403 -1.4091e+006 -6.8795e+006 -4.2223e+004 100265 233276,233354,233328
 3.2000e+001 233380 -1.4658e+006 -1.1288e+007 -9.5622e+005 100265 233250,233354,233276
 3.2000e+001 233578 -3.8255e+001 -8.5283e+004 -1.2762e+003 100032 233451,233503,233477
 3.2000e+001 233555 -3.6823e+004 -9.5764e+004  3.1675e+004 100032 233451,233529,233503
 3.2000e+001 233681 -1.3272e+005 -6.8380e+004  6.6588e+004 99742 233603,233655,233629
 3.2000e+001 233784 -4.2517e+005 -3.0320e+006  4.8503e+005 99402 233706,233758,233732
 3.2000e+001 233936 -7.5531e+005 -2.9734e+006  4.3699e+005 99062 233835,233887,233861
 3.2000e+001 233913 -4.6887e+005 -1.6993e+006 -5.7890e+004 99062 233809,233887,233835
 3.2000e+001 234088 -2.5136e+005 -4.1310e+006 -3.8311e+005 98772 233987,234039,234013
 3.2000e+001 234065 -1.6203e+006 -4.1937e+006  3.4590e+006 98772 233961,234039,233987
 3.2000e+001 234240 -3.3749e+004 -7.4789e+005  1.5847e+005 98160 234139,234191,234165
 3.2000e+001 234217  1.6047e+004 -5.4273e+005  1.5847e+005 98160 234113,234191,234139
 3.2000e+001 234441 -6.5767e+003 -1.0293e+006 -1.0080e+003 97820 234317,234369,234343
 3.2000e+001 234418  1.5907e+004 -9.3810e+005 -9.6313e+003 97820 234291,234369,234317
 3.2000e+001 234395  1.5072e+004 -1.2056e+006 -5.9862e+004 97820 234265,234369,234291
 3.2000e+001 234593 -2.0574e+005 -1.9475e+006 -6.3184e+004 97366 234466,234518,234492
 3.2000e+001 234570 -7.3938e+004 -3.5534e+006  1.4663e+004 97366 234466,234544,234518
 3.2000e+001 234794 -5.7669e+005 -1.0004e+006 -5.4062e+005 96976 234618,234670,234644
 3.2000e+001 234771 -9.5165e+003 -2.7649e+006 -2.3803e+005 96976 234618,234722,234670
 3.2000e+001 234748 -5.7027e+004 -1.9371e+006 -5.7468e+005 96976 234670,234722,234696
 3.2000e+001 234946 -9.2814e+005 -3.0436e+006  1.2905e+006 96568 234845,234897,234871
 3.2000e+001 234923 -6.8409e+005 -1.8711e+006  1.1675e+006 96568 234819,234897,234845
 3.2000e+001 235196  2.7151e+004 -1.5509e+006  3.8463e+005 96216 234997,235075,235049
 3.2000e+001 235173 -6.2590e+005 -4.4615e+006  1.6580e+006 96216 234997,235101,235075
 3.2000e+001 235150 -7.8431e+005 -3.8886e+006  1.0402e+006 96216 234997,235049,235023
 3.2000e+001 235127 -1.5472e+005 -5.8504e+006 -2.1253e+006 96216 234971,235101,234997
 3.2000e+001 235348 -1.0966e+006 -2.9064e+006 -8.1081e+005 95863 235247,235299,235273
 3.2000e+001 235325 -9.7632e+005 -1.6459e+006 -1.0001e+006 95863 235221,235299,235247
 3.2000e+001 235500 -1.6182e+006 -2.9254e+006 -2.6277e+006 95339 235373,235425,235399
 3.2000e+001 235477 -5.5624e+005 -6.9825e+006  3.8365e+006 95339 235373,235451,235425
 3.2000e+001 235701 -3.8303e+005 -3.9211e+006  1.6198e+006 95023 235525,235577,235551
 3.2000e+001 235678 -2.6716e+004 -1.6020e+006 -1.9994e+005 95023 235525,235629,235577
 3.2000e+001 235655 -5.3052e+005 -1.3737e+006 -4.0458e+004 95023 235577,235629,235603
 3.2000e+001 235853  8.6483e+005 -9.5711e+006  1.0606e+006 94671 235726,235778,235752
 3.2000e+001 235830 -2.9142e+005 -7.3808e+006 -5.8353e+005 94671 235726,235804,235778
 3.2000e+001 236005 -1.1206e+006 -7.0440e+006 -8.0957e+005 94261 235904,235956,235930
 3.2000e+001 235982 -1.6337e+006 -8.3096e+006 -1.9622e+006 94261 235878,235956,235904
 3.2000e+001 236206 -5.8177e+005 -1.0321e+006  1.2685e+006 93853 236056,236134,236082
 3.2000e+001 236183 -6.5177e+005 -1.0915e+006  3.7862e+005 93853 236030,236134,236056
 3.2000e+001 236160 -5.9693e+005 -2.0041e+006  1.0211e+006 93853 236082,236134,236108
 3.2000e+001 236407 -6.6389e+005 -6.1443e+006  7.2717e+004 93557 236257,236309,236283
 3.2000e+001 236384 -1.9634e+006 -6.8553e+006 -1.7318e+006 93557 236231,236309,236257
 3.2000e+001 236361 -6.4319e+005 -1.1253e+007 -3.0520e+005 93557 236231,236335,236309
 3.2000e+001 236559 -2.6358e+005 -1.0315e+006 -4.6929e+003 93149 236432,236484,236458
 3.2000e+001 236536 -1.3183e+005 -4.8149e+005  4.5407e+004 93149 236432,236510,236484
 3.2000e+001 236711 -1.5523e+005 -7.2848e+005  3.1262e+005 92853 236584,236636,236610
 3.2000e+001 236688 -4.7801e+004 -4.5161e+005  2.1048e+005 92853 236584,236662,236636
 3.2000e+001 236912 -2.4918e+005 -4.1636e+006  1.4196e+006 92501 236736,236788,236762
 3.2000e+001 236889 -5.1513e+005 -2.7074e+006  6.0571e+005 92501 236736,236840,236788
 3.2000e+001 236866 -7.0930e+005 -3.3962e+006  7.0296e+005 92501 236788,236840,236814
 3.2000e+001 237113 -3.1411e+005 -4.3246e+006  3.7622e+005 92291 236963,237041,237015
 3.2000e+001 237090 -8.5817e+004 -2.9868e+006  3.7711e+005 92291 236937,237041,236963
 3.2000e+001 237067 -2.1056e+005 -3.9906e+006  9.1538e+005 92291 236963,237015,236989
 3.2000e+001 237265  8.3875e+004 -6.1623e+005 -3.0072e+005 91871 237138,237190,237164
 3.2000e+001 237242 -3.3072e+005 -1.6740e+006 -6.0583e+005 91871 237138,237216,237190
 3.2000e+001 237368 -8.2687e+002 -2.2867e+006  5.6491e+002 91581 237290,237342,237316
 3.2000e+001 237520 -4.9192e+004 -2.9886e+005  1.0129e+005 91184 237419,237471,237445
 3.2000e+001 237497 -1.1098e+005 -3.3069e+005  7.6782e+004 91184 237393,237471,237419
 3.2000e+001 237672 -3.0437e+005 -2.7882e+006  7.8409e+005 90894 237545,237597,237571
 3.2000e+001 237649 -9.5689e+004 -2.5042e+006  6.1883e+005 90894 237545,237623,237597
 3.2000e+001 237873 -1.1523e+006 -4.9306e+006  7.4627e+005 90490 237749,237801,237775
 3.2000e+001 237850 -5.7026e+005 -4.5175e+006  1.2454e+006 90490 237723,237801,237749
 3.2000e+001 237827 -8.8097e+005 -4.5983e+006 -9.6611e+005 90490 237697,237801,237723
 3.2000e+001 238074 -7.6356e+005 -6.5737e+006  1.5303e+005 90100 237898,237976,237950
 3.2000e+001 238051 -1.8889e+006 -6.8369e+006  2.3249e+005 90100 237898,238002,237976
 3.2000e+001 238028 -6.1802e+005 -6.0903e+006  4.6035e+004 90100 237898,237950,237924
 3.2000e+001 238275 -5.2844e+005 -3.5682e+006  4.4146e+005 89696 238125,238177,238151
 3.2000e+001 238252 -3.4130e+005 -3.0442e+006 -5.0049e+005 89696 238099,238177,238125
 3.2000e+001 238229 -3.1243e+005 -3.5212e+006 -4.7964e+005 89696 238099,238203,238177
 3.2000e+001 238427  2.0341e+004 -6.4992e+004 -2.2926e+004 89206 238326,238378,238352
 3.2000e+001 238404 -2.0418e+004 -3.1516e+005 -6.0844e+004 89206 238300,238378,238326
 3.2000e+001 238579 -1.5505e+006 -5.4359e+006  1.7316e+006 88908 238452,238504,238478
 3.2000e+001 238556 -3.4706e+005 -4.6493e+006  5.7947e+005 88908 238452,238530,238504
 3.2000e+001 238682 -1.3634e+002 -4.7312e+005 -3.4727e+002 88568 238604,238656,238630
 3.2000e+001 238883  2.2575e+004 -5.8014e+006  1.4931e+006 88278 238733,238811,238785
 3.2000e+001 238860 -5.5350e+005 -4.1824e+006  1.3659e+006 88278 238707,238811,238733
 3.2000e+001 238837 -2.0838e+005 -6.0267e+006  1.1192e+006 88278 238733,238785,238759
 3.2000e+001 239035 -1.1673e+006 -5.1145e+006 -3.4194e+005 87988 238908,238960,238934
 3.2000e+001 239012 -1.4009e+006 -3.1712e+006  4.0559e+005 87988 238908,238986,238960
 3.2000e+001 239138 -5.5558e+004 -1.0387e+006  3.8815e+004 87648 239060,239112,239086
 3.2000e+001 239339 -9.9060e+005 -3.2649e+006 -1.8580e+006 87358 239163,239215,239189
 3.2000e+001 239316 -1.0089e+006 -2.3151e+006 -5.4084e+005 87358 239163,239241,239215
 3.2000e+001 239293 -8.5974e+005 -1.1885e+006 -1.0072e+006 87358 239163,239267,239241
 3.2000e+001 239589 -3.4922e+001 -5.5209e+002 -9.0940e+001 86961 239390,239468,239416
 3.2000e+001 239566 -8.5787e+002 -8.8627e+002 -3.7372e+002 86961 239390,239494,239468
 3.2000e+001 239543 -1.2755e+002 -3.8718e+002 -1.6861e+002 86961 239416,239468,239442
 3.2000e+001 239520  1.2168e+002 -2.9050e+003 -6.6712e+002 86961 239364,239494,239390
 3.2000e+001 239741 -1.1951e+006 -4.3574e+006 -4.5437e+005 86621 239640,239692,239666
 3.2000e+001 239718 -5.3569e+005 -5.6820e+006 -1.3681e+006 86621 239614,239692,239640
 3.2000e+001 239893 -4.2753e+005 -5.6062e+006  1.2779e+006 86217 239792,239844,239818
 3.2000e+001 239870 -5.4100e+005 -4.9381e+006  8.8697e+005 86217 239766,239844,239792
 3.2000e+001 240045 -7.3343e+005 -4.8095e+006  4.4839e+005 85827 239918,239970,239944
 3.2000e+001 240022 -1.9411e+005 -4.6664e+006  2.1528e+005 85827 239918,239996,239970
 3.2000e+001 240197 -7.2289e+005 -7.9750e+006  9.2551e+005 85437 240096,240148,240122
 3.2000e+001 240174 -1.6480e+006 -3.0994e+006 -4.5653e+005 85437 240070,240148,240096
 3.2000e+001 240349 -1.2718e+005 -1.5194e+006  4.9904e+005 85147 240222,240274,240248
 3.2000e+001 240326 -3.3136e+005 -1.1497e+006  1.3839e+005 85147 240222,240300,240274
 3.2000e+001 240501 -5.2924e+005 -2.1278e+006  9.9852e+005 84807 240374,240426,240400
 3.2000e+001 240478 -1.0434e+006 -1.8559e+006  6.5834e+005 84807 240374,240452,240426
 3.2000e+001 240653 -8.6020e+003 -2.5883e+005 -4.5581e+004 84303 240552,240604,240578
 3.2000e+001 240630 -7.4514e+003 -2.5458e+005 -4.5069e+004 84303 240526,240604,240552
 3.2000e+001 240854 -1.4722e+005 -1.2054e+007 -5.2197e+006 83929 240704,240756,240730
 3.2000e+001 240831  1.6565e+006 -9.9195e+006  2.2890e+006 83929 240704,240782,240756
 3.2000e+001 240808 -3.3039e+006  1.5891e+006  2.7407e+006 83929 240678,240782,240704
 3.2000e+001 241055  3.0968e+001 -1.6449e+004 -3.2428e+003 83539 240879,240957,240931
 3.2000e+001 241032 -2.1807e+003 -1.6356e+004 -4.0984e+003 83539 240879,240983,240957
 3.2000e+001 241009 -4.0874e+003 -2.4770e+003 -4.0980e+003 83539 240879,240931,240905
 3.2000e+001 241207 -1.5372e+004 -1.6608e+006  4.1189e+005 83079 241106,241158,241132
 3.2000e+001 241184 -1.0158e+005 -9.6189e+005  4.8487e+005 83079 241080,241158,241106
 3.2000e+001 241408  1.1449e+006 -4.4794e+006  5.0536e+005 82665 241232,241284,241258
 3.2000e+001 241385 -1.6550e+006 -1.3319e+007 -3.9316e+006 82665 241232,241336,241284
 3.2000e+001 241362 -4.1616e+006  4.8721e+006  6.9503e+006 82665 241284,241336,241310
 3.2000e+001 241658 -1.9646e+005 -3.9066e+006  3.5090e+005 82375 241485,241563,241511
 3.2000e+001 241635  5.1308e+004 -2.7973e+006  3.6245e+005 82375 241433,241563,241485
 3.2000e+001 241612 -6.3499e+004 -3.1980e+006  4.3167e+005 82375 241433,241485,241459
 3.2000e+001 241589 -4.7287e+005 -4.5815e+006  6.1898e+005 82375 241511,241563,241537
 3.2000e+001 241810 -6.1293e+005 -3.5368e+006  1.0551e+005 82035 241683,241735,241709
 3.2000e+001 241787 -7.1216e+005 -3.8860e+006  5.6156e+005 82035 241683,241761,241735
 3.2000e+001 241962 -7.7100e+005 -3.6687e+006  3.4638e+005 81695 241861,241913,241887
 3.2000e+001 241939 -5.5794e+005 -4.2391e+006 -6.7602e+005 81695 241835,241913,241861
 3.2000e+001 242114 -9.4202e+005 -6.2741e+006  1.9309e+006 81355 242013,242065,242039
 3.2000e+001 242091 -4.8868e+005 -4.7358e+006  1.4557e+006 81355 241987,242065,242013
 3.2000e+001 242266 -8.1472e+004 -3.7481e+005 -7.6754e+004 80951 242139,242191,242165
 3.2000e+001 242243 -1.2797e+005 -5.8836e+005 -4.0333e+003 80951 242139,242217,242191
 3.2000e+001 242467 -2.6798e+005 -4.5905e+006  5.5651e+005 80311 242291,242369,242343
 3.2000e+001 242444  8.0711e+004 -3.2698e+006  4.1649e+005 80311 242291,242395,242369
 3.2000e+001 242421 -3.2012e+005 -3.0800e+006  2.2582e+005 80311 242291,242343,242317
 3.2000e+001 242619 -1.5993e+006 -3.4482e+006  4.4317e+005 80021 242492,242544,242518
 3.2000e+001 242596 -1.4768e+006 -3.0784e+006  1.3530e+006 80021 242492,242570,242544
 3.2000e+001 242869 -2.8048e+005 -1.3082e+006  4.0725e+005 79631 242644,242722,242696
 3.2000e+001 242846 -2.0054e+005 -1.2135e+006  3.5523e+005 79631 242644,242774,242722
 3.2000e+001 242823 -2.8844e+005 -1.6343e+006  2.9173e+005 79631 242722,242774,242748
 3.2000e+001 242800 -3.4614e+005 -1.6115e+006  4.3290e+005 79631 242644,242696,242670
 3.2000e+001 243070 -3.6970e+004 -1.5265e+007  3.0373e+006 79341 242920,242972,242946
 3.2000e+001 243047 -9.1024e+005 -9.0836e+006  5.1603e+003 79341 242920,242998,242972
 3.2000e+001 243024 -1.1074e+006 -6.2057e+006  2.6218e+006 79341 242894,242998,242920
 3.2000e+001 243222 -3.1693e+005 -3.4741e+006  1.2178e+006 78801 243121,243173,243147
 3.2000e+001 243199 -9.3217e+005 -5.3854e+006  2.0657e+006 78801 243095,243173,243121
 3.2000e+001 243423 -6.8492e+005 -4.5721e+006 -8.0332e+005 78511 243273,243325,243299
 3.2000e+001 243400  3.2648e+005 -9.0107e+006  1.5629e+006 78511 243273,243351,243325
 3.2000e+001 243377 -5.5226e+003 -9.1781e+006  2.3393e+005 78511 243247,243351,243273
 3.2000e+001 243624 -3.7689e+005 -3.1354e+006 -5.0199e+005 78107 243474,243552,243526
 3.2000e+001 243601 -5.1830e+005 -2.5906e+006 -8.2998e+005 78107 243448,243552,243474
 3.2000e+001 243578 -9.5807e+005 -4.8324e+006 -2.0907e+006 78107 243474,243526,243500
 3.2000e+001 243776 -6.8805e+005 -3.9184e+006 -8.3235e+005 77653 243649,243701,243675
 3.2000e+001 243753 -1.6782e+006 -7.4695e+006 -3.2934e+005 77653 243649,243727,243701
 3.2000e+001 243977 -5.7094e+005 -5.8044e+006 -5.9784e+004 77093 243801,243853,243827
 3.2000e+001 243954 -1.5244e+005 -4.4719e+006  5.7167e+005 77093 243801,243879,243853
 3.2000e+001 243931  7.6719e+004 -3.6491e+006  2.4259e+005 77093 243801,243905,243879
 3.2000e+001 244080 -1.5679e+006 -5.0992e+006  1.5126e+005 76791 244002,244054,244028
 3.2000e+001 244232 -1.8995e+005 -4.5220e+006  5.3230e+004 76311 244131,244183,244157
 3.2000e+001 244209  1.9749e+004 -8.7314e+006  6.4835e+005 76311 244105,244183,244131
 3.2000e+001 244433 -1.5266e+006 -1.7214e+007  2.9304e+006 75903 244283,244335,244309
 3.2000e+001 244410 -6.5395e+005 -1.3874e+007  5.0106e+005 75903 244283,244361,244335
 3.2000e+001 244387 -2.5698e+006 -1.0295e+007  3.1670e+006 75903 244257,244361,244283
 3.2000e+001 244585  5.7842e+004 -1.6738e+007  1.7900e+006 75419 244458,244510,244484
 3.2000e+001 244562 -6.7516e+005 -1.1622e+007  6.9576e+005 75419 244458,244536,244510
 3.2000e+001 244737 -3.5518e+005 -1.8466e+006 -1.4318e+005 75215 244636,244688,244662
 3.2000e+001 244714 -2.2451e+005 -5.1251e+006 -1.5157e+005 75215 244610,244688,244636
 3.2000e+001 244889 -1.0054e+006 -5.0804e+006 -5.1429e+005 74857 244788,244840,244814
 3.2000e+001 244866 -3.9629e+005 -2.8537e+006 -1.5187e+005 74857 244762,244840,244788
 3.2000e+001 245041  4.3157e+004 -1.9792e+005 -1.4199e+005 74653 244940,244992,244966
 3.2000e+001 245018 -2.1892e+004 -4.1774e+004  7.2199e+004 74653 244914,244992,244940
 3.2000e+001 245144 -2.0916e+005 -9.5235e+006 -1.3982e+006 74359 245066,245118,245092
 3.2000e+001 245296 -1.1346e+004 -1.8584e+006 -6.1296e+005 74007 245169,245221,245195
 3.2000e+001 245273 -3.6872e+005 -3.1982e+006 -8.1202e+005 74007 245169,245247,245221
 3.2000e+001 245448 -8.4688e+005 -8.7705e+006  2.2400e+006 73711 245321,245373,245347
 3.2000e+001 245425 -1.7658e+005 -8.5477e+006 -3.8046e+006 73711 245321,245399,245373
 3.2000e+001 245600  5.7229e+005 -1.2437e+007 -8.4906e+005 73301 245499,245551,245525
 3.2000e+001 245577 -1.7035e+006 -9.1343e+006  1.8157e+006 73301 245473,245551,245499
 3.2000e+001 245752 -2.0619e+006 -2.9784e+006 -1.7759e+006 72995 245625,245677,245651
 3.2000e+001 245729  8.6727e+005 -1.2887e+007 -1.6920e+006 72995 245625,245703,245677
 3.2000e+001 245953 -2.5599e+006 -1.4001e+007  1.8530e+006 72585 245777,245829,245803
 3.2000e+001 245930 -1.2717e+006 -1.5511e+007  3.6708e+006 72585 245777,245855,245829
 3.2000e+001 245907 -8.0713e+005 -1.2441e+007  2.6080e+006 72585 245777,245881,245855
 3.2000e+001 246154 -3.0806e+005 -6.5326e+006  1.2361e+006 72127 246030,246082,246056
 3.2000e+001 246131 -1.0414e+006 -8.8147e+006  7.3822e+005 72127 245978,246082,246030
 3.2000e+001 246108 -9.8050e+004 -8.0755e+006  1.4232e+005 72127 245978,246030,246004
 3.2000e+001 246257 -1.1588e+006 -2.6878e+006 -9.8339e+004 71737 246179,246231,246205
 3.2000e+001 246360 -1.0084e+005 -2.8541e+006  3.4456e+005 71447 246282,246334,246308
 3.2000e+001 246512 -1.8635e+005 -2.8152e+006  8.1392e+005 71157 246385,246437,246411
 3.2000e+001 246489 -5.7737e+004 -2.5368e+006  3.3784e+005 71157 246385,246463,246437
 3.2000e+001 246664 -1.7226e+005 -2.9244e+006 -3.0327e+005 70753 246537,246589,246563
 3.2000e+001 246641 -6.2539e+005 -1.7819e+006 -1.0299e+005 70753 246537,246615,246589
 3.2000e+001 246865 -2.0550e+006 -1.1266e+007  6.9223e+006 70249 246715,246767,246741
 3.2000e+001 246842 -3.0095e+006 -1.0109e+007  1.3912e+005 70249 246715,246793,246767
 3.2000e+001 246819 -6.2024e+005 -1.4705e+007 -2.8030e+006 70249 246689,246793,246715
 3.2000e+001 247066 -1.4708e+005 -2.1856e+006  4.4310e+005 70023 246916,246994,246942
 3.2000e+001 247043  7.9667e+004 -2.6605e+006  2.5203e+005 70023 246890,246994,246916
 3.2000e+001 247020 -1.2751e+005 -1.8847e+006  2.4420e+005 70023 246942,246994,246968
 3.2000e+001 247267 -2.6149e+005 -4.5994e+006 -3.7787e+005 69633 247091,247143,247117
 3.2000e+001 247244 -7.9807e+004 -3.4459e+006 -2.9092e+005 69633 247091,247169,247143
 3.2000e+001 247221 -2.2075e+004 -2.9766e+006 -2.7360e+005 69633 247091,247195,247169
 3.2000e+001 247419 -8.6742e+005 -5.4906e+006  7.0277e+005 69457 247318,247370,247344
 3.2000e+001 247396 -1.0302e+006 -3.6745e+006  8.5233e+005 69457 247292,247370,247318
 3.2000e+001 247522 -1.0640e+002 -1.7613e+001  3.0597e+001 69209 247444,247496,247470
 3.2000e+001 247625 -1.8348e+006 -1.5944e+006 -5.1244e+005 68919 247547,247599,247573
 3.2000e+001 247777  3.3145e+005 -6.9511e+006 -4.3829e+005 68579 247650,247702,247676
 3.2000e+001 247754 -2.6602e+005 -2.6828e+006 -1.1427e+005 68579 247650,247728,247702
 3.2000e+001 247929  1.4387e+005 -4.1708e+006  1.9287e+006 68289 247802,247854,247828
 3.2000e+001 247906 -2.0233e+005 -1.7085e+006 -2.7616e+005 68289 247802,247880,247854
 3.2000e+001 248081 -3.5647e+005 -5.5748e+006  1.3367e+006 67949 247980,248032,248006
 3.2000e+001 248058 -5.2162e+005 -1.2617e+006  4.2677e+004 67949 247954,248032,247980
 3.2000e+001 248233 -1.6175e+006 -5.6531e+006 -6.7205e+005 67616 248132,248184,248158
 3.2000e+001 248210 -5.7761e+005 -6.0625e+006 -4.0109e+005 67616 248106,248184,248132
 3.2000e+001 248434 -1.0939e+005 -4.4399e+006 -2.3496e+005 67212 248284,248336,248310
 3.2000e+001 248411 -6.6258e+004 -4.5059e+006 -5.0139e+005 67212 248258,248336,248284
 3.2000e+001 248388 -1.5179e+006 -3.1388e+006 -5.7155e+005 67212 248258,248362,248336
 3.2000e+001 248586  7.9834e+003 -5.5674e+006  5.7021e+005 66872 248485,248537,248511
 3.2000e+001 248563 -7.9360e+005 -1.7381e+006 -1.8279e+005 66872 248459,248537,248485
 3.2000e+001 248738 -2.3109e+005 -5.0770e+006  1.0009e+005 66510 248637,248689,248663
 3.2000e+001 248715 -3.3767e+005 -8.1523e+006  1.7840e+005 66510 248611,248689,248637
 3.2000e+001 248890 -2.6451e+004 -6.2889e+005  1.2836e+005 66220 248789,248841,248815
 3.2000e+001 248867 -7.9901e+004 -8.0115e+005 -1.8444e+005 66220 248763,248841,248789
 3.2000e+001 249091 -9.7958e+005 -1.0153e+007  3.0816e+006 65759 248915,248967,248941
 3.2000e+001 249068 -7.6296e+005 -9.2667e+006  3.1045e+006 65759 248915,248993,248967
 3.2000e+001 249045 -4.2365e+005 -6.5216e+006  1.2439e+006 65759 248915,249019,248993
 3.2000e+001 249243 -1.2691e+005 -8.0767e+006  1.7224e+006 65419 249142,249194,249168
 3.2000e+001 249220 -1.9544e+005 -4.0240e+006  4.3782e+005 65419 249116,249194,249142
 3.2000e+001 249395 -4.3177e+005 -2.7597e+006 -3.4731e+005 65079 249268,249320,249294
 3.2000e+001 249372 -4.3472e+005 -3.7440e+006 -6.4252e+005 65079 249268,249346,249320
 3.2000e+001 249547 -4.0756e+004 -7.4823e+005 -9.1633e+004 64739 249420,249472,249446
 3.2000e+001 249524 -1.5079e+005 -8.0981e+005 -1.6833e+003 64739 249420,249498,249472
 3.2000e+001 249650 -1.2900e+006 -5.8998e+006 -2.3833e+006 64342 249572,249624,249598
 3.2000e+001 249851 -3.5594e+005 -5.6113e+006 -5.2410e+005 63938 249701,249779,249753
 3.2000e+001 249828 -1.6557e+005 -5.8307e+006  1.0635e+006 63938 249675,249779,249701
 3.2000e+001 249805 -5.6305e+005 -6.5991e+006 -3.3097e+005 63938 249701,249753,249727
 3.2000e+001 250052 -6.3894e+005 -4.9392e+006 -6.7379e+005 63341 249876,249954,249902
 3.2000e+001 250029 -1.0826e+006 -6.0294e+006 -3.4070e+005 63341 249876,249980,249954
 3.2000e+001 250006  7.4386e+005 -6.6312e+006  7.1100e+005 63341 249902,249954,249928
 3.2000e+001 250253 -1.4980e+005 -3.3930e+006 -4.0642e+005 63058 250077,250129,250103
 3.2000e+001 250230 -5.1768e+005 -4.0581e+006 -1.1862e+005 63058 250077,250155,250129
 3.2000e+001 250207 -3.2792e+005 -3.7011e+006 -6.5942e+005 63058 250077,250181,250155
 3.2000e+001 250454 -9.3422e+005 -7.5229e+006  1.3909e+006 62832 250304,250382,250330
 3.2000e+001 250431  2.3879e+005 -9.4377e+006 -2.4858e+006 62832 250278,250382,250304
 3.2000e+001 250408 -2.3916e+006 -4.5770e+006  3.0235e+005 62832 250330,250382,250356
 3.2000e+001 250606  1.2939e+005 -1.9026e+007  9.3279e+005 62428 250479,250531,250505
 3.2000e+001 250583 -5.7650e+005 -1.2464e+007 -5.1188e+005 62428 250479,250557,250531
 3.2000e+001 250758 -8.2545e+004 -7.3961e+006  6.6340e+005 62202 250631,250683,250657
 3.2000e+001 250735 -1.3238e+005 -8.1468e+006  1.7540e+006 62202 250631,250709,250683
 3.2000e+001 250861 -1.3694e+006 -2.6025e+006 -6.5829e+004 61954 250783,250835,250809
 3.2000e+001 251062 -2.2031e+006 -1.2807e+007 -2.2689e+005 61557 250912,250990,250938
 3.2000e+001 251039 -1.9566e+005 -1.3433e+007  2.0952e+005 61557 250886,250990,250912
 3.2000e+001 251016 -8.9963e+005 -1.1357e+007 -1.6866e+006 61557 250938,250990,250964
 3.2000e+001 251263 -9.9803e+005 -7.5089e+006 -7.8959e+004 61167 251113,251165,251139
 3.2000e+001 251240 -4.0776e+005 -7.3701e+006 -3.8252e+005 61167 251113,251191,251165
 3.2000e+001 251217 -1.2719e+006 -7.1749e+006  1.9791e+006 61167 251087,251191,251113
 3.2000e+001 251415 -1.2308e+006 -3.6168e+006  9.9696e+005 60827 251288,251340,251314
 3.2000e+001 251392 -6.3304e+005 -1.7397e+006 -3.1704e+004 60827 251288,251366,251340
 3.2000e+001 251567  1.2861e+005 -5.0596e+006  4.3303e+005 60487 251466,251518,251492
 3.2000e+001 251544  2.1283e+004 -3.4589e+006 -3.0761e+005 60487 251440,251518,251466
 3.2000e+001 251719  4.5530e+004 -1.0102e+007 -3.3058e+005 59983 251592,251644,251618
 3.2000e+001 251696 -9.4451e+005 -8.3938e+006 -3.6187e+004 59983 251592,251670,251644
 3.2000e+001 251920  3.4501e+004 -1.9597e+006 -2.1762e+004 59807 251770,251848,251796
 3.2000e+001 251897  3.8654e+004 -1.8788e+006 -3.6853e+004 59807 251744,251848,251770
 3.2000e+001 251874 -2.2553e+004 -2.2832e+006 -6.8282e+004 59807 251796,251848,251822
 3.2000e+001 252023 -2.2370e+005 -4.5870e+006  3.4091e+004 59517 251945,251997,251971
 3.2000e+001 252175  1.5226e+006 -1.3221e+007 -2.8327e+005 59269 252074,252126,252100
 3.2000e+001 252152 -1.9695e+005 -8.0942e+006  1.6610e+005 59269 252048,252126,252074
 3.2000e+001 252278 -4.4483e+005 -2.5915e+006  1.1815e+006 58979 252200,252252,252226
 3.2000e+001 252381 -2.2521e+006 -2.6643e+006  1.0781e+006 58689 252303,252355,252329
 3.2000e+001 252533 -9.5081e+005 -4.6054e+006 -3.9827e+005 58249 252432,252484,252458
 3.2000e+001 252510 -9.8112e+005 -5.4532e+006 -9.5868e+005 58249 252406,252484,252432
 3.2000e+001 252734 -2.6830e+005 -4.4256e+006 -1.7493e+003 57902 252584,252662,252610
 3.2000e+001 252711  5.9231e+005 -4.8508e+006 -1.1282e+005 57902 252558,252662,252584
 3.2000e+001 252688 -1.6946e+005 -3.4467e+006 -3.5264e+005 57902 252610,252662,252636
 3.2000e+001 252886 -4.7972e+004 -4.6368e+006 -2.2093e+005 57540 252785,252837,252811
 3.2000e+001 252863  2.1688e+005 -4.4842e+006 -9.5457e+004 57540 252759,252837,252785
 3.2000e+001 253038 -5.4967e+005 -5.7441e+006  1.3742e+006 57086 252937,252989,252963
 3.2000e+001 253015 -2.8161e+005 -2.5294e+006  1.8712e+005 57086 252911,252989,252937
 3.2000e+001 253239 -1.4914e+006 -5.9790e+006 -1.6508e+006 56796 253063,253141,253115
 3.2000e+001 253216  1.8018e+005 -6.9129e+006 -3.5217e+005 56796 253063,253167,253141
 3.2000e+001 253193 -7.1354e+005 -7.4154e+006 -2.1112e+006 56796 253063,253115,253089
 3.2000e+001 253342 -5.5780e+005 -1.6763e+007  1.4085e+004 56349 253264,253316,253290
 3.2000e+001 253543 -9.4905e+005 -8.4367e+006 -8.6485e+005 56009 253367,253419,253393
 3.2000e+001 253520 -6.6399e+005 -4.9694e+006 -5.4202e+005 56009 253367,253445,253419
 3.2000e+001 253497 -2.5371e+005 -6.4334e+006  1.2314e+005 56009 253367,253471,253445
 3.2000e+001 253695 -2.5126e+005 -2.1841e+006  2.6922e+005 55733 253594,253646,253620
 3.2000e+001 253672 -1.3037e+006 -7.4854e+005 -1.3175e+005 55733 253568,253646,253594
 3.2000e+001 253798 -5.1287e+005 -2.2757e+006 -1.6552e+005 55557 253720,253772,253746
 3.2000e+001 253950 -5.5952e+005 -4.0673e+006  2.7987e+005 55153 253849,253901,253875
 3.2000e+001 253927  4.9210e+004 -4.7458e+006 -5.3101e+005 55153 253823,253901,253849
 3.2000e+001 254151 -1.1876e+006 -4.6277e+006  7.5186e+005 54863 253975,254053,254001
 3.2000e+001 254128 -5.5531e+005 -4.8081e+006 -4.6276e+004 54863 253975,254079,254053
 3.2000e+001 254105 -4.7199e+005 -3.5555e+006  1.4321e+005 54863 254001,254053,254027
 3.2000e+001 254303  1.7390e+005 -2.4977e+006  2.9515e+005 54373 254176,254228,254202
 3.2000e+001 254280 -4.2060e+003 -1.4191e+006  1.0292e+005 54373 254176,254254,254228
 3.2000e+001 254455 -1.0724e+005 -5.1160e+006 -3.5736e+005 53975 254354,254406,254380
 3.2000e+001 254432 -6.0887e+005 -1.2278e+006  1.8962e+005 53975 254328,254406,254354
 3.2000e+001 254607 -3.6617e+005 -4.8897e+006 -4.9746e+005 53585 254480,254532,254506
 3.2000e+001 254584 -3.4165e+005 -4.7747e+006 -5.3015e+005 53585 254480,254558,254532
 3.2000e+001 254808 -9.4546e+005 -3.4819e+006 -9.1427e+003 53245 254658,254736,254684
 3.2000e+001 254785 -1.0680e+006 -1.6730e+006 -3.6667e+005 53245 254632,254736,254658
 3.2000e+001 254762 -5.1128e+005 -2.5827e+006 -4.4295e+005 53245 254684,254736,254710
 3.2000e+001 254911 -2.9163e+005 -4.5188e+006  1.9990e+005 52955 254833,254885,254859
 3.2000e+001 255063 -7.1218e+005 -5.9959e+006 -1.1721e+005 52551 254962,255014,254988
 3.2000e+001 255040 -7.0746e+005 -6.5325e+006 -3.4857e+005 52551 254936,255014,254962
 3.2000e+001 255264 -5.0522e+005 -1.0843e+006  6.4331e+005 52261 255114,255166,255140
 3.2000e+001 255241 -8.4672e+005 -2.6011e+006  1.1857e+006 52261 255114,255192,255166
 3.2000e+001 255218  1.1609e+005 -3.8610e+006  5.8767e+003 52261 255088,255192,255114
 3.2000e+001 255416 -4.9581e+005 -4.9332e+006  1.4765e+006 51971 255289,255341,255315
 3.2000e+001 255393 -2.3052e+005 -4.5052e+006 -2.0450e+005 51971 255289,255367,255341
 3.2000e+001 255568 -1.5671e+006 -1.1598e+006 -1.6751e+005 51681 255441,255493,255467
 3.2000e+001 255545 -2.7138e+005 -7.0622e+006  7.2696e+005 51681 255441,255519,255493
 3.2000e+001 255769 -1.9222e+005 -3.1415e+006 -1.1341e+005 51291 255619,255697,255671
 3.2000e+001 255746 -1.7154e+005 -2.8653e+006 -3.2414e+005 51291 255593,255697,255619
 3.2000e+001 255723 -2.0082e+005 -4.6897e+006 -4.9808e+005 51291 255619,255671,255645
 3.2000e+001 255921 -3.8993e+005 -2.8690e+006  7.5631e+005 50951 255820,255872,255846
 3.2000e+001 255898 -1.2133e+005 -2.0092e+006  1.0522e+005 50951 255794,255872,255820
 3.2000e+001 256171 -1.2468e+006 -4.1209e+006 -3.7904e+004 50547 256024,256076,256050
 3.2000e+001 256148 -9.2573e+005 -4.2585e+006  4.6046e+005 50547 255972,256076,256024
 3.2000e+001 256125 -3.0225e+005 -5.0866e+006 -1.5442e+005 50547 255946,256076,255972
 3.2000e+001 256102 -8.6651e+005 -3.5876e+006  2.2990e+005 50547 255972,256024,255998
 3.2000e+001 256323  3.2103e+005 -5.1573e+006  8.8618e+005 50093 256196,256248,256222
 3.2000e+001 256300 -9.8259e+005 -2.6034e+006 -1.1252e+006 50093 256196,256274,256248
 3.2000e+001 256426  6.7099e+001 -1.4749e+002  3.4107e+001 49845 256348,256400,256374
 3.2000e+001 256627 -1.1286e+005 -4.7780e+006  1.1693e+005 49555 256477,256555,256503
 3.2000e+001 256604 -2.7747e+005 -3.5356e+006  1.1909e+005 49555 256451,256555,256477
 3.2000e+001 256581 -4.1200e+005 -4.1385e+006  2.9593e+005 49555 256503,256555,256529
 3.2000e+001 256828 -7.0404e+005 -2.8847e+006 -1.8283e+005 49056 256652,256730,256678
 3.2000e+001 256805 -3.4478e+005 -3.0676e+006 -4.4280e+005 49056 256652,256756,256730
 3.2000e+001 256782 -6.3176e+005 -2.3118e+006 -5.6987e+005 49056 256678,256730,256704
 3.2000e+001 256931 -7.1767e+004 -1.1977e+005  7.0506e+004 48766 256853,256905,256879
 3.2000e+001 257083 -9.3261e+005 -4.2857e+006 -7.1475e+005 48568 256982,257034,257008
 3.2000e+001 257060 -7.5938e+005 -3.6090e+006 -6.0028e+005 48568 256956,257034,256982
 3.2000e+001 257186 -1.1236e+003 -2.3212e+006  6.9391e+002 48228 257108,257160,257134
 3.2000e+001 257338 -4.2516e+005 -1.8575e+006  6.3162e+005 47888 257237,257289,257263
 3.2000e+001 257315 -4.2909e+005 -1.7319e+006  5.8090e+005 47888 257211,257289,257237
 3.2000e+001 257539 -2.8486e+005 -4.2217e+006  1.1598e+005 47548 257363,257441,257415
 3.2000e+001 257516 -5.7006e+005 -3.9690e+006 -3.5388e+005 47548 257363,257467,257441
 3.2000e+001 257493 -5.7988e+005 -3.0194e+006 -1.8158e+005 47548 257363,257415,257389
 3.2000e+001 257740 -2.6957e+005 -4.1838e+006  4.2900e+005 46994 257564,257642,257616
 3.2000e+001 257717 -4.3368e+005 -3.4853e+006  1.7017e+005 46994 257564,257668,257642
 3.2000e+001 257694 -7.2069e+005 -4.5124e+006  7.4132e+004 46994 257564,257616,257590
 3.2000e+001 257843 -9.8431e+005 -2.4665e+006 -1.9274e+004 46654 257765,257817,257791
 3.2000e+001 257995 -7.4095e+005 -3.2530e+006  2.8224e+005 46364 257894,257946,257920
 3.2000e+001 257972 -7.0880e+005 -4.0154e+006 -1.4790e+005 46364 257868,257946,257894
 3.2000e+001 258147 -1.7542e+005 -3.3054e+006  2.4914e+005 46024 258046,258098,258072
 3.2000e+001 258124 -3.2802e+005 -2.9932e+006  3.4315e+005 46024 258020,258098,258046
 3.2000e+001 258250 -7.4260e+005 -2.6080e+006  9.2402e+005 45741 258172,258224,258198
 3.2000e+001 258402 -1.7831e+005 -3.1029e+006  2.9320e+005 45401 258301,258353,258327
 3.2000e+001 258379 -6.3604e+005 -1.8346e+006  2.3759e+005 45401 258275,258353,258301
 3.2000e+001 258603 -7.1338e+005 -2.1389e+006 -5.1046e+003 45071 258427,258505,258479
 3.2000e+001 258580 -1.8673e+005 -5.0648e+006  2.7619e+005 45071 258427,258531,258505
 3.2000e+001 258557 -2.2051e+005 -2.8170e+006  2.4155e+005 45071 258427,258479,258453
 3.2000e+001 258755 -1.9005e+005 -3.8060e+006 -3.4811e+005 44681 258654,258706,258680
 3.2000e+001 258732 -1.8460e+005 -3.9408e+006 -3.5727e+005 44681 258628,258706,258654
 3.2000e+001 258907 -7.1604e+005 -1.1317e+006 -1.0291e+005 44157 258806,258858,258832
 3.2000e+001 258884 -3.0635e+005 -1.3856e+006 -7.5882e+004 44157 258780,258858,258806
 3.2000e+001 259010 -7.0982e+005 -6.9499e+005  1.2657e+004 43705 258932,258984,258958
 3.2000e+001 259113 -3.7191e+005 -3.7011e+006  2.6956e+005 43284 259035,259087,259061
 3.2000e+001 259216 -6.3904e+005 -2.8879e+006 -1.3713e+005 42954 259138,259190,259164
 3.2000e+001 259319 -9.0420e+005 -1.9217e+006  1.8431e+004 42116 259241,259293,259267
 3.2000e+001 259422 -1.8705e+005 -3.7048e+006 -2.3027e+005 41804 259344,259396,259370
 3.2000e+001 259525 -5.8437e+005 -5.2604e+006  7.6687e+005 41219 259447,259499,259473
 3.2000e+001 259628 -8.6635e+005 -2.7568e+006 -3.7298e+005 385 259550,259602,259576
 3.4000e+001 190120 -3.1689e+005 -2.0660e+006 -4.3983e+005 189630 189993,190045,190019
 3.4000e+001 190097 -7.4864e+005 -1.1826e+006 -1.5599e+005 189630 189993,190071,190045
 3.4000e+001 190319 -5.8142e+005 -3.0808e+006  3.4086e+005 189312 190169,190221,190195
 3.4000e+001 190296 -7.1931e+005 -1.8617e+006 -8.1328e+005 189312 190169,190247,190221
 3.4000e+001 190273 -5.8176e+005 -1.4114e+006 -1.9176e+004 189312 190143,190247,190169
 3.4000e+001 190518 -3.8217e+005 -4.5718e+005 -4.0015e+004 189124 190368,190446,190420
 3.4000e+001 190495 -5.9482e+005 -2.4714e+005  1.2102e+005 189124 190342,190446,190368
 3.4000e+001 190472 -5.7503e+005 -4.9672e+005 -6.0475e+004 189124 190368,190420,190394
 3.4000e+001 190619 -4.5356e+005 -4.2551e+005 -1.3332e+004 188926 190541,190593,190567
 3.4000e+001 190771 -5.3411e+005 -5.5500e+005 -7.4436e+003 188614 190670,190722,190696
 3.4000e+001 190748 -4.6179e+005 -2.4882e+005  9.8826e+004 188614 190644,190722,190670
 3.4000e+001 190972 -2.7497e+005 -9.6907e+005 -2.0154e+005 188324 190848,190900,190874
 3.4000e+001 190949 -6.0228e+005 -1.1168e+006 -3.1689e+005 188324 190796,190900,190848
 3.4000e+001 190926 -7.7429e+003 -1.8655e+006 -5.7702e+004 188324 190796,190848,190822
 3.4000e+001 191124 -6.2951e+005 -1.6353e+006 -1.9701e+005 188034 191023,191075,191049
 3.4000e+001 191101 -2.1211e+005 -1.7245e+006 -1.7083e+005 188034 190997,191075,191023
 3.4000e+001 191276 -5.9053e+005 -5.8762e+005  3.1620e+004 187836 191149,191201,191175
 3.4000e+001 191253 -2.0001e+005 -4.8388e+005  1.2796e+005 187836 191149,191227,191201
 3.4000e+001 191379 -4.5732e+005 -2.6433e+005 -8.1929e+004 187546 191301,191353,191327
 3.4000e+001 191531 -6.0571e+005 -3.5401e+006 -8.0473e+005 187256 191430,191482,191456
 3.4000e+001 191508 -4.9570e+005 -2.6307e+006  4.2306e+005 187256 191404,191482,191430
 3.4000e+001 191634 -5.8354e+005 -1.4903e+005 -3.4647e+004 187058 191556,191608,191582
 3.4000e+001 191835 -2.9960e+005 -2.2430e+005 -4.5107e+004 186860 191659,191711,191685
 3.4000e+001 191812 -4.8232e+005 -1.3775e+005 -8.2129e+004 186860 191659,191737,191711
 3.4000e+001 191789 -4.6845e+005 -2.3447e+004 -4.4565e+004 186860 191659,191763,191737
 3.4000e+001 191987 -6.5870e+005 -1.4646e+006  5.1759e+005 186662 191886,191938,191912
 3.4000e+001 191964 -5.0621e+005 -6.4085e+005 -7.0619e+004 186662 191860,191938,191886
 3.4000e+001 192090 -6.7099e+005 -1.0022e+006  2.6695e+005 186486 192012,192064,192038
 3.4000e+001 192242 -4.6793e+005 -2.7445e+006 -2.9286e+004 186288 192115,192167,192141
 3.4000e+001 192219 -4.9278e+005 -2.2945e+006  7.1193e+004 186288 192115,192193,192167
 3.4000e+001 192394 -3.2887e+005 -2.2074e+006 -3.2638e+005 185935 192293,192345,192319
 3.4000e+001 192371 -3.1945e+005 -2.1093e+006 -3.6024e+005 185935 192267,192345,192293
 3.4000e+001 192546 -4.2514e+005 -2.1583e+006 -2.8807e+005 185675 192419,192471,192445
 3.4000e+001 192523 -6.1518e+005 -6.8236e+005 -2.0506e+005 185675 192419,192497,192471
 3.4000e+001 192649 -2.2669e+005 -2.0781e+006 -4.4043e+004 185499 192571,192623,192597
 3.4000e+001 192801 -1.0066e+006 -7.7936e+005  5.5834e+004 185301 192674,192726,192700
 3.4000e+001 192778 -5.5487e+005 -8.4472e+005  5.7701e+005 185301 192674,192752,192726
 3.4000e+001 193002 -1.3242e+005 -1.2428e+006 -4.1580e+005 185046 192852,192930,192878
 3.4000e+001 192979 -3.2839e+005 -1.9593e+006 -3.2642e+005 185046 192826,192930,192852
 3.4000e+001 192956  1.9376e+005 -2.1912e+006 -1.4477e+005 185046 192878,192930,192904
 3.4000e+001 193203 -1.2953e+006 -9.5209e+005 -3.7992e+005 184798 193079,193131,193105
 3.4000e+001 193180 -1.9906e+005 -3.1252e+006 -8.7468e+005 184798 193027,193131,193079
 3.4000e+001 193157 -1.2709e+006 -3.5627e+006  1.2966e+006 184798 193027,193079,193053
 3.4000e+001 193404 -4.4443e+005 -3.4453e+006 -1.9073e+005 184600 193254,193306,193280
 3.4000e+001 193381 -2.9729e+005 -1.7840e+006 -1.0812e+004 184600 193254,193332,193306
 3.4000e+001 193358 -8.5604e+005 -4.5634e+005 -2.1422e+005 184600 193228,193332,193254
 3.4000e+001 193556 -3.8469e+005 -1.3238e+006 -5.6104e+005 184402 193429,193481,193455
 3.4000e+001 193533 -8.8361e+005 -9.0889e+005 -8.7354e+005 184402 193429,193507,193481
 3.4000e+001 193708 -4.2332e+005 -2.8165e+006 -4.3259e+005 184204 193607,193659,193633
 3.4000e+001 193685 -3.9595e+005 -3.0635e+006 -4.8410e+005 184204 193581,193659,193607
 3.4000e+001 193860 -4.9752e+005 -1.0234e+006  1.9041e+005 183908 193759,193811,193785
 3.4000e+001 193837 -5.7292e+004 -1.2772e+006  3.2056e+005 183908 193733,193811,193759
 3.4000e+001 194061 -4.1671e+005 -2.2133e+006  4.8061e+003 183710 193911,193989,193937
 3.4000e+001 194038 -3.6916e+005 -1.5213e+006  1.0273e+005 183710 193885,193989,193911
 3.4000e+001 194015 -7.5897e+005 -6.4868e+005 -1.5938e+005 183710 193937,193989,193963
 3.4000e+001 194262 -1.3639e+006 -3.7575e+006 -1.0815e+006 183420 194086,194164,194112
 3.4000e+001 194239 -1.1348e+006 -2.0714e+006  4.9383e+005 183420 194086,194190,194164
 3.4000e+001 194216 -1.4210e+006 -9.9146e+006  1.9584e+006 183420 194112,194164,194138
 3.4000e+001 194414 -6.7053e+005 -4.4143e+006 -4.1763e+004 183222 194287,194339,194313
 3.4000e+001 194391 -4.5531e+005 -3.8282e+005 -1.8780e+005 183222 194287,194365,194339
 3.4000e+001 194517 -5.7540e+005 -5.9446e+005 -1.5189e+004 183024 194439,194491,194465
 3.4000e+001 194718  2.2909e+006 -1.6171e+007  2.7342e+006 182734 194568,194620,194594
 3.4000e+001 194695 -8.6472e+005 -3.2034e+006 -2.6890e+006 182734 194542,194620,194568
 3.4000e+001 194672 -2.9429e+006 -1.9538e+006 -1.0491e+006 182734 194542,194646,194620
 3.4000e+001 194870 -7.0774e+005 -1.6178e+006  6.2416e+005 182444 194769,194821,194795
 3.4000e+001 194847 -9.6234e+005 -1.2756e+006 -8.3558e+005 182444 194743,194821,194769
 3.4000e+001 195071 -3.2144e+005 -2.7837e+006  7.5422e+005 182154 194895,194947,194921
 3.4000e+001 195048 -2.7738e+005 -1.6358e+006  1.7684e+005 182154 194895,194999,194947
 3.4000e+001 195025 -2.9175e+005 -9.2293e+005  2.2773e+005 182154 194947,194999,194973
 3.4000e+001 195223 -6.1833e+005 -2.0610e+006  1.3708e+004 181814 195096,195148,195122
 3.4000e+001 195200 -4.1719e+005 -1.3888e+006 -2.6563e+005 181814 195096,195174,195148
 3.4000e+001 195375 -4.9461e+004 -6.3466e+005 -3.7186e+003 181524 195248,195300,195274
 3.4000e+001 195352  2.9240e+004 -1.7494e+006  2.1662e+005 181524 195248,195326,195300
 3.4000e+001 195527 -5.6046e+004 -9.9261e+005  4.4236e+005 181326 195426,195478,195452
 3.4000e+001 195504 -5.4657e+005 -2.4018e+006  8.4754e+005 181326 195400,195478,195426
 3.4000e+001 195679  1.7879e+005 -1.2797e+007 -3.2799e+005 180936 195578,195630,195604
 3.4000e+001 195656 -1.1279e+006 -3.6265e+006 -6.9452e+004 180936 195552,195630,195578
 3.4000e+001 195831 -6.1296e+005 -6.0433e+005 -3.3001e+005 180646 195704,195756,195730
 3.4000e+001 195808 -6.6623e+005 -1.8997e+005 -8.1976e+004 180646 195704,195782,195756
 3.4000e+001 196032 -6.4312e+005 -2.2470e+006  9.4529e+005 180306 195882,195960,195934
 3.4000e+001 196009 -9.1472e+005 -1.0196e+006 -7.0875e+004 180306 195856,195960,195882
 3.4000e+001 195986  1.7505e+005 -3.4285e+006 -4.0237e+005 180306 195882,195934,195908
 3.4000e+001 196233 -1.5732e+005 -1.6603e+005 -5.3061e+005 179944 196057,196109,196083
 3.4000e+001 196210 -8.0320e+005 -3.1274e+006  3.8691e+005 179944 196057,196135,196109
 3.4000e+001 196187 -1.7324e+006  3.3467e+006 -1.1498e+006 179944 196057,196161,196135
 3.4000e+001 196385 -8.3303e+005 -5.9407e+005 -3.4015e+005 179604 196258,196310,196284
 3.4000e+001 196362 -1.3461e+006 -1.4940e+006 -1.3697e+006 179604 196258,196336,196310
 3.4000e+001 196586 -3.0570e+005 -8.4259e+005 -1.6650e+005 179114 196410,196488,196436
 3.4000e+001 196563  1.1647e+005 -2.3271e+006 -2.5159e+005 179114 196410,196514,196488
 3.4000e+001 196540 -7.8849e+003 -7.9301e+005 -8.0789e+004 179114 196436,196488,196462
 3.4000e+001 196738 -2.3553e+005 -2.1716e+006 -2.2523e+005 178674 196611,196663,196637
 3.4000e+001 196715 -2.3933e+005 -2.9972e+006  5.8138e+004 178674 196611,196689,196663
 3.4000e+001 196939  1.0935e+006 -9.0158e+006 -1.3851e+006 178334 196789,196867,196841
 3.4000e+001 196916 -1.4254e+006 -8.7462e+006  1.7674e+006 178334 196763,196867,196789
 3.4000e+001 196893 -2.4006e+006 -6.3148e+006 -4.4660e+006 178334 196789,196841,196815
 3.4000e+001 197091 -3.9963e+005 -5.7041e+006 -2.4323e+005 177930 196990,197042,197016
 3.4000e+001 197068  7.9373e+004 -3.6755e+006 -1.7766e+005 177930 196964,197042,196990
 3.4000e+001 197194 -4.0339e+002 -3.3754e+005 -6.1104e+002 177732 197116,197168,197142
 3.4000e+001 197346 -3.2911e+005 -7.2140e+006  6.4961e+004 177534 197219,197271,197245
 3.4000e+001 197323 -1.1959e+005 -7.8903e+006  4.2620e+005 177534 197219,197297,197271
 3.4000e+001 197547 -1.5101e+005 -3.7576e+006 -5.0996e+005 177130 197397,197449,197423
 3.4000e+001 197524 -3.3127e+005 -3.7985e+006 -5.3310e+005 177130 197397,197475,197449
 3.4000e+001 197501 -2.1289e+005 -9.1676e+006 -9.7290e+005 177130 197371,197475,197397
 3.4000e+001 197748 -7.8436e+005 -7.3171e+006  4.1916e+005 176790 197598,197676,197624
 3.4000e+001 197725 -5.9899e+005 -5.0528e+006  6.8471e+005 176790 197572,197676,197598
 3.4000e+001 197702 -8.0162e+005 -5.6266e+006  7.1964e+005 176790 197624,197676,197650
 3.4000e+001 197900 -1.8609e+005 -4.5924e+006 -9.9968e+005 176300 197773,197825,197799
 3.4000e+001 197877 -2.2745e+005 -4.6331e+006 -9.7382e+005 176300 197773,197851,197825
 3.4000e+001 198052 -1.1962e+006 -8.1060e+006 -1.4444e+006 176010 197925,197977,197951
 3.4000e+001 198029 -1.0440e+006 -6.2811e+006 -1.4975e+006 176010 197925,198003,197977
 3.4000e+001 198204 -1.2937e+006 -4.6518e+006 -2.1204e+006 175670 198103,198155,198129
 3.4000e+001 198181 -1.7974e+006 -5.9072e+006 -1.6278e+006 175670 198077,198155,198103
 3.4000e+001 198405 -1.1806e+006 -6.4735e+006 -4.1321e+005 175266 198255,198307,198281
 3.4000e+001 198382 -2.1371e+005 -6.9540e+006 -8.4398e+005 175266 198229,198307,198255
 3.4000e+001 198359 -1.4035e+006 -5.5742e+006 -1.8785e+006 175266 198229,198333,198307
 3.4000e+001 198606 -8.5025e+004 -5.7508e+005  4.4292e+004 174876 198430,198508,198482
 3.4000e+001 198583 -4.0084e+005 -6.6153e+005  1.1970e+005 174876 198430,198534,198508
 3.4000e+001 198560 -1.6828e+005 -3.7329e+005 -1.1735e+004 174876 198430,198482,198456
 3.4000e+001 198758 -3.1712e+004 -1.1758e+005 -6.3279e+004 174536 198657,198709,198683
 3.4000e+001 198735 -3.2099e+004 -1.0673e+005 -5.6915e+004 174536 198631,198709,198657
 3.4000e+001 199008 -1.9752e+004 -9.5013e+006  2.7578e+005 174132 198835,198913,198887
 3.4000e+001 198985  3.5714e+004 -4.2121e+006  4.9309e+005 174132 198809,198913,198835
 3.4000e+001 198962 -1.9047e+005 -4.6008e+006 -1.6583e+006 174132 198783,198913,198809
 3.4000e+001 198939  7.1672e+005 -1.0146e+007  2.6336e+005 174132 198835,198887,198861
 3.4000e+001 199160 -1.5251e+006 -3.3785e+006 -1.0309e+006 173842 199059,199111,199085
 3.4000e+001 199137 -1.2337e+006 -1.9664e+006 -9.2258e+005 173842 199033,199111,199059
 3.4000e+001 199361 -4.7453e+005 -1.0029e+007  1.5111e+006 173438 199237,199289,199263
 3.4000e+001 199338 -1.2588e+006 -7.3968e+006  1.8096e+006 173438 199211,199289,199237
 3.4000e+001 199315 -9.4014e+005 -8.8840e+006  5.2378e+005 173438 199185,199289,199211
 3.4000e+001 199513  1.4516e+005 -1.1219e+007  2.1849e+006 173190 199386,199438,199412
 3.4000e+001 199490 -8.6787e+004 -8.4781e+006  3.4547e+005 173190 199386,199464,199438
 3.4000e+001 199665 -4.1261e+005 -2.5142e+006  2.2214e+005 172750 199564,199616,199590
 3.4000e+001 199642 -7.9914e+005 -1.0827e+006 -2.2059e+003 172750 199538,199616,199564
 3.4000e+001 199817 -9.5214e+005 -1.1570e+007 -4.1669e+006 172524 199690,199742,199716
 3.4000e+001 199794 -5.0187e+006 -5.3365e+006 -2.5926e+006 172524 199690,199768,199742
 3.4000e+001 199969 -2.0619e+004 -8.6620e+006 -4.3041e+005 172348 199842,199894,199868
 3.4000e+001 199946  7.4413e+005 -8.5526e+006  2.1242e+005 172348 199842,199920,199894
 3.4000e+001 200121  2.9206e+005 -6.4742e+006 -8.1375e+005 172008 199994,200046,200020
 3.4000e+001 200098 -5.2204e+005 -2.6432e+006 -3.1275e+005 172008 199994,200072,200046
 3.4000e+001 200273 -3.2184e+005 -4.9189e+006  3.1183e+005 171668 200172,200224,200198
 3.4000e+001 200250 -2.9315e+005 -4.0128e+006  4.3564e+004 171668 200146,200224,200172
 3.4000e+001 200474 -1.1360e+005 -1.0508e+007 -1.4311e+006 171264 200350,200402,200376
 3.4000e+001 200451 -9.7736e+004 -8.5522e+006 -7.9221e+005 171264 200324,200402,200350
 3.4000e+001 200428 -1.1586e+006 -6.6578e+006  1.6885e+006 171264 200298,200402,200324
 3.4000e+001 200626  1.3233e+005 -9.4997e+006 -4.4395e+004 170832 200525,200577,200551
 3.4000e+001 200603 -2.8843e+005 -5.9556e+006 -4.4017e+004 170832 200499,200577,200525
 3.4000e+001 200827  3.4019e+005 -7.1011e+006  4.9751e+005 170492 200677,200729,200703
 3.4000e+001 200804 -8.6182e+005 -3.8601e+006 -1.9893e+006 170492 200651,200729,200677
 3.4000e+001 200781 -1.9078e+006 -2.3987e+006 -1.1881e+006 170492 200651,200755,200729
 3.4000e+001 201077  1.0299e+006 -4.7868e+006  2.1822e+005 170088 200878,200956,200904
 3.4000e+001 201054 -5.4558e+005 -4.5399e+006 -1.6776e+006 170088 200852,200956,200878
 3.4000e+001 201031  5.8890e+005 -3.2831e+006  4.2164e+006 170088 200904,200956,200930
 3.4000e+001 201008  4.7021e+006 -1.0690e+007  2.6057e+006 170088 200852,200982,200956
 3.4000e+001 201278  3.6055e+005 -1.2101e+006 -3.0878e+005 169798 201102,201154,201128
 3.4000e+001 201255 -1.8880e+006 -8.8104e+006 -1.9777e+006 169798 201102,201206,201154
 3.4000e+001 201232 -1.8392e+006 -1.0377e+006  3.5711e+005 169798 201154,201206,201180
 3.4000e+001 201430 -6.2017e+005 -1.0880e+007 -1.5852e+006 169337 201303,201355,201329
 3.4000e+001 201407 -3.9963e+005 -3.8838e+006 -3.6763e+005 169337 201303,201381,201355
 3.4000e+001 201631 -1.0394e+006 -1.0396e+007 -9.5527e+005 168883 201481,201559,201507
 3.4000e+001 201608  2.5296e+005 -7.8523e+006  7.1687e+005 168883 201455,201559,201481
 3.4000e+001 201585 -8.5444e+005 -9.6099e+006 -7.9938e+005 168883 201507,201559,201533
 3.4000e+001 201832 -4.5575e+005 -1.2898e+007  4.2498e+005 168479 201682,201734,201708
 3.4000e+001 201809 -2.3155e+006 -1.0341e+007 -1.7784e+006 168479 201656,201734,201682
 3.4000e+001 201786 -1.9230e+006 -8.7796e+006 -6.9431e+005 168479 201656,201760,201734
 3.4000e+001 202033 -1.7147e+005 -5.9257e+006  1.0091e+006 167825 201883,201935,201909
 3.4000e+001 202010 -1.2007e+006 -7.0103e+006 -9.8605e+005 167825 201857,201935,201883
 3.4000e+001 201987  1.9548e+005 -1.4659e+007  3.0093e+005 167825 201857,201961,201935
 3.4000e+001 202234 -6.0072e+005 -6.4901e+006 -2.0240e+006 167435 202058,202136,202084
 3.4000e+001 202211 -6.1997e+005 -8.3765e+006  2.7446e+005 167435 202058,202162,202136
 3.4000e+001 202188 -6.7857e+005 -3.0047e+006  4.1782e+005 167435 202084,202136,202110
 3.4000e+001 202386  4.7247e+004 -4.5969e+006 -1.4648e+005 167002 202285,202337,202311
 3.4000e+001 202363  2.0509e+005 -4.2259e+006 -1.4002e+004 167002 202259,202337,202285
 3.4000e+001 202538 -1.1829e+005 -4.3744e+006 -3.2472e+005 166662 202411,202463,202437
 3.4000e+001 202515 -2.0381e+005 -4.9761e+006 -2.5300e+005 166662 202411,202489,202463
 3.4000e+001 202690  2.0007e+005 -6.1672e+006 -1.3746e+006 166322 202589,202641,202615
 3.4000e+001 202667  2.3865e+005 -4.9861e+006 -4.8052e+005 166322 202563,202641,202589
 3.4000e+001 202891 -1.2112e+006 -1.8151e+006  1.0062e+006 165918 202715,202767,202741
 3.4000e+001 202868 -1.1860e+006 -2.5118e+006 -8.4326e+005 165918 202715,202793,202767
 3.4000e+001 202845  5.5297e+005 -5.5304e+006  3.6363e+005 165918 202715,202819,202793
 3.4000e+001 203092 -2.7996e+005 -6.5481e+006 -8.5987e+005 165628 202916,202968,202942
 3.4000e+001 203069  6.0075e+004 -9.1830e+006 -5.0921e+005 165628 202916,202994,202968
 3.4000e+001 203046 -1.0381e+006 -7.4868e+006 -2.1884e+006 165628 202916,203020,202994
 3.4000e+001 203293 -5.8951e+006 -8.7526e+006 -1.6969e+005 165266 203143,203195,203169
 3.4000e+001 203270 -3.1812e+006 -9.2908e+006  6.0925e+004 165266 203143,203221,203195
 3.4000e+001 203247 -6.8902e+005 -1.2817e+007 -3.8100e+006 165266 203117,203221,203143
 3.4000e+001 203445 -4.1329e+005 -3.1850e+006 -7.8383e+005 164826 203318,203370,203344
 3.4000e+001 203422  3.2764e+005 -5.4817e+006  8.5779e+005 164826 203318,203396,203370
 3.4000e+001 203597 -7.1931e+005 -6.6422e+006 -3.0479e+005 164386 203470,203522,203496
 3.4000e+001 203574 -1.3009e+005 -4.6242e+006  4.0754e+004 164386 203470,203548,203522
 3.4000e+001 203798  6.4290e+003 -6.5544e+006  8.5600e+005 163996 203622,203674,203648
 3.4000e+001 203775 -1.2286e+006 -1.2735e+006 -2.7289e+005 163996 203622,203726,203674
 3.4000e+001 203752 -2.4387e+006 -4.0345e+006  3.0751e+006 163996 203674,203726,203700
 3.4000e+001 203901  4.2552e+005 -4.0432e+006 -1.0871e+006 163770 203823,203875,203849
 3.4000e+001 204053 -2.2918e+006 -4.4700e+006  2.3292e+006 163474 203952,204004,203978
 3.4000e+001 204030 -8.2988e+005 -6.3369e+006 -1.5102e+006 163474 203926,204004,203952
 3.4000e+001 204205 -5.7105e+005 -3.6153e+006 -2.5877e+004 163034 204104,204156,204130
 3.4000e+001 204182 -2.5817e+005 -7.9359e+006 -3.9419e+006 163034 204078,204156,204104
 3.4000e+001 204357 -2.1466e+005 -6.1945e+006  7.4543e+005 162624 204256,204308,204282
 3.4000e+001 204334  1.5868e+005 -1.6791e+006 -3.8508e+003 162624 204230,204308,204256
 3.4000e+001 204509 -1.3036e+004 -1.2684e+005  4.3645e+004 162200 204382,204434,204408
 3.4000e+001 204486 -1.5334e+004 -8.6208e+004  3.1154e+004 162200 204382,204460,204434
 3.4000e+001 204710 -4.8487e+004 -1.2028e+006 -1.3656e+005 161810 204560,204638,204586
 3.4000e+001 204687  1.5805e+004 -1.3821e+006 -3.1965e+005 161810 204534,204638,204560
 3.4000e+001 204664 -1.9363e+005 -1.4725e+006 -2.9007e+005 161810 204586,204638,204612
 3.4000e+001 204862 -1.2601e+006 -4.1471e+006 -1.8975e+006 161406 204735,204787,204761
 3.4000e+001 204839 -2.7408e+006 -4.2809e+006 -1.6560e+006 161406 204735,204813,204787
 3.4000e+001 205014  1.3938e+003 -5.4156e+004  8.8971e+003 161180 204887,204939,204913
 3.4000e+001 204991 -4.2545e+003 -2.7694e+004 -3.6856e+003 161180 204887,204965,204939
 3.4000e+001 205215  5.7726e+005 -1.8997e+006 -9.6568e+004 160726 205039,205091,205065
 3.4000e+001 205192 -7.1362e+005 -6.9317e+006 -5.0536e+005 160726 205039,205143,205091
 3.4000e+001 205169 -1.6044e+005 -9.3489e+005  2.9507e+004 160726 205091,205143,205117
 3.4000e+001 205416  1.1100e+005 -5.3894e+006  2.0179e+006 160272 205292,205344,205318
 3.4000e+001 205393 -1.0224e+006 -1.1343e+006  1.2407e+006 160272 205240,205344,205292
 3.4000e+001 205370 -6.7976e+005 -5.5244e+005  2.0879e+005 160272 205240,205292,205266
 3.4000e+001 205568 -9.0277e+002 -7.5736e+004  2.3395e+003 159932 205441,205493,205467
 3.4000e+001 205545 -1.0043e+004 -6.3038e+004  1.1815e+004 159932 205441,205519,205493
 3.4000e+001 205720 -1.7627e+004 -1.0655e+005  4.6686e+004 159542 205593,205645,205619
 3.4000e+001 205697 -2.7015e+004 -1.3056e+005  5.3595e+004 159542 205593,205671,205645
 3.4000e+001 205872  1.7448e+004 -2.3117e+004 -1.0259e+004 159252 205745,205797,205771
 3.4000e+001 205849  4.7168e+002 -8.2405e+004  2.8809e+003 159252 205745,205823,205797
 3.4000e+001 206024 -3.7090e+006 -2.2369e+006 -1.4112e+006 159004 205923,205975,205949
 3.4000e+001 206001 -1.1371e+006 -1.6534e+006  2.6457e+005 159004 205897,205975,205923
 3.4000e+001 206127 -2.7487e+005 -2.2231e+005 -9.4429e+003 158364 206049,206101,206075
 3.4000e+001 206328  1.1003e+004 -4.8216e+004  2.2096e+004 157960 206178,206256,206204
 3.4000e+001 206305  2.2738e+004 -6.9492e+004 -8.6534e+003 157960 206152,206256,206178
 3.4000e+001 206282 -1.5252e+004 -2.4330e+004  1.2464e+004 157960 206204,206256,206230
 3.4000e+001 206529 -2.0041e+005 -1.0991e+007  1.3611e+005 157648 206405,206457,206431
 3.4000e+001 206506 -4.1355e+006 -7.3923e+006 -1.4712e+006 157648 206379,206457,206405
 3.4000e+001 206483 -1.2069e+006 -5.5867e+006  1.8462e+005 157648 206353,206457,206379
 3.4000e+001 206730  1.3114e+006 -1.5165e+007 -8.2193e+004 157208 206554,206606,206580
 3.4000e+001 206707  1.1791e+006 -1.6919e+007  1.9691e+006 157208 206554,206632,206606
 3.4000e+001 206684 -6.4070e+006 -2.5830e+006 -2.8030e+006 157208 206554,206658,206632
 3.4000e+001 206882 -4.5165e+003 -2.1134e+004 -4.1824e+003 157010 206755,206807,206781
 3.4000e+001 206859  1.8757e+003 -5.4247e+004  9.5721e+003 157010 206755,206833,206807
 3.4000e+001 207034 -2.0581e+005 -6.1306e+006 -1.3172e+005 156620 206907,206959,206933
 3.4000e+001 207011  1.8248e+005 -1.0606e+007  8.9168e+004 156620 206907,206985,206959
 3.4000e+001 207186 -2.5874e+003 -2.2864e+006  8.1257e+004 156330 207085,207137,207111
 3.4000e+001 207163 -4.0377e+005 -2.4609e+006 -7.6019e+005 156330 207059,207137,207085
 3.4000e+001 207387 -8.5396e+005 -5.7674e+006  1.8904e+006 155890 207211,207289,207237
 3.4000e+001 207364 -8.7621e+005 -5.9470e+006 -1.1911e+006 155890 207211,207315,207289
 3.4000e+001 207341 -1.3799e+006 -5.2955e+006  2.1476e+006 155890 207237,207289,207263
 3.4000e+001 207588  1.0099e+006 -2.5443e+007  6.9301e+006 155436 207438,207490,207464
 3.4000e+001 207565 -1.4541e+005 -2.0159e+007 -8.3889e+005 155436 207412,207490,207438
 3.4000e+001 207542 -1.7601e+006 -1.1868e+007 -1.0525e+006 155436 207412,207516,207490
 3.4000e+001 207789  2.1713e+006 -3.8569e+007 -2.8048e+006 155260 207639,207691,207665
 3.4000e+001 207766 -4.3132e+006 -1.3565e+007  5.0319e+006 155260 207613,207691,207639
 3.4000e+001 207743 -7.4639e+005 -1.0670e+007 -2.4395e+005 155260 207613,207717,207691
 3.4000e+001 207990  1.3951e+003 -5.7447e+003  1.0983e+003 154920 207840,207918,207892
 3.4000e+001 207967  3.1923e+003 -5.8781e+003 -8.7927e+002 154920 207814,207918,207840
 3.4000e+001 207944  3.4589e+001 -1.6768e+003 -1.1224e+003 154920 207840,207892,207866
 3.4000e+001 208191 -2.4914e+005 -1.4855e+007 -1.5606e+006 154630 208015,208093,208041
 3.4000e+001 208168  3.0179e+005 -9.3662e+006 -1.6632e+006 154630 208015,208119,208093
 3.4000e+001 208145 -3.0673e+006 -8.6669e+006 -5.1566e+006 154630 208041,208093,208067
 3.4000e+001 208343  7.3552e-002  2.2787e-004  4.0939e-003 154240 208216,208268,208242
 3.4000e+001 208320 -1.4063e-001 -4.3568e-004 -7.8275e-003 154240 208216,208294,208268
 3.4000e+001 208495  2.5430e+006 -3.2744e+007 -6.5362e+006 153950 208394,208446,208420
 3.4000e+001 208472 -2.9482e+006 -1.5622e+007  5.3206e+006 153950 208368,208446,208394
 3.4000e+001 208647 -1.6753e+006 -1.7367e+007  9.4835e+006 153603 208520,208572,208546
 3.4000e+001 208624 -5.1778e+006 -6.3896e+006 -4.4326e+006 153603 208520,208598,208572
 3.4000e+001 208848 -6.0442e+005 -5.4324e+006  2.1116e+006 153149 208698,208776,208724
 3.4000e+001 208825  8.2312e+005 -1.2130e+007 -1.2637e+006 153149 208672,208776,208698
 3.4000e+001 208802 -2.2351e+006 -3.1616e+006  1.4463e+006 153149 208724,208776,208750
 3.4000e+001 209000 -1.2017e+006 -1.0567e+007 -3.8656e+005 152859 208873,208925,208899
 3.4000e+001 208977 -6.9852e+004 -1.6681e+007  5.2844e+005 152859 208873,208951,208925
 3.4000e+001 209152  8.3617e+005 -1.4523e+007 -4.1161e+005 152569 209051,209103,209077
 3.4000e+001 209129  6.4049e+005 -1.4924e+007 -6.6103e+005 152569 209025,209103,209051
 3.4000e+001 209304 -3.1909e-001 -4.4371e-001 -3.7627e-001 152065 209177,209229,209203
 3.4000e+001 209281  7.2938e-001  1.0142e+000  8.6009e-001 152065 209177,209255,209229
 3.4000e+001 209456  6.6327e+005 -1.1919e+007 -1.3103e+005 151775 209355,209407,209381
 3.4000e+001 209433  1.3104e+006 -1.7020e+007 -2.1138e+005 151775 209329,209407,209355
 3.4000e+001 209608 -7.6753e+005 -1.5681e+007 -5.0864e+005 151371 209481,209533,209507
 3.4000e+001 209585  7.9860e+005 -2.0419e+007  8.4135e+005 151371 209481,209559,209533
 3.4000e+001 209760 -5.3121e+005 -8.6591e+006  4.4718e+005 150981 209659,209711,209685
 3.4000e+001 209737 -4.0303e+005 -1.2607e+007 -5.8356e+006 150981 209633,209711,209659
 3.4000e+001 209912  2.7038e+006 -3.9329e+007 -3.2769e+006 150619 209811,209863,209837
 3.4000e+001 209889 -2.9250e+006 -1.8348e+007  3.9963e+006 150619 209785,209863,209811
 3.4000e+001 210064 -1.6969e+006 -2.8461e+006 -1.3160e+006 150279 209937,209989,209963
 3.4000e+001 210041  1.7761e+006 -2.2441e+007 -3.0808e+006 150279 209937,210015,209989
 3.4000e+001 210265 -6.3733e+005 -1.6931e+007  5.5340e+005 149989 210115,210167,210141
 3.4000e+001 210242 -2.1355e+005 -1.8288e+007 -9.7706e+005 149989 210115,210193,210167
 3.4000e+001 210219  6.7665e+005 -1.9630e+007 -4.2168e+005 149989 210089,210193,210115
 3.4000e+001 210417 -3.8904e+006 -5.7936e+006  1.0955e+005 149599 210316,210368,210342
 3.4000e+001 210394 -1.5907e+006 -1.9275e+007 -2.7599e+006 149599 210290,210368,210316
 3.4000e+001 210618 -4.3451e+006 -1.3085e+007  4.7971e+006 149095 210468,210520,210494
 3.4000e+001 210595 -3.6900e+006 -1.2472e+007  1.8891e+005 149095 210442,210520,210468
 3.4000e+001 210572 -2.5517e+006 -2.6231e+007  2.1795e+006 149095 210442,210546,210520
 3.4000e+001 210819 -3.9273e+002 -1.5199e+005 -2.1716e+004 148748 210695,210747,210721
 3.4000e+001 210796 -1.9656e+003 -1.2728e+005 -2.8216e+004 148748 210669,210747,210695
 3.4000e+001 210773 -1.1805e+004 -6.5566e+004  2.7785e+004 148748 210643,210747,210669
 3.4000e+001 210971  4.0395e+001  2.4915e+002  9.5021e+001 148408 210870,210922,210896
 3.4000e+001 210948  2.0514e+002  1.2146e+002  2.9615e+002 148408 210844,210922,210870
 3.4000e+001 211123 -8.7545e+005 -1.3637e+007  1.3572e+006 148118 210996,211048,211022
 3.4000e+001 211100  8.8852e+005 -1.7636e+007  6.5098e+006 148118 210996,211074,211048
 3.4000e+001 211275 -4.3581e+006 -1.2535e+007 -3.9172e+005 147778 211148,211200,211174
 3.4000e+001 211252 -2.8907e+005 -2.9855e+007  1.0470e+007 147778 211148,211226,211200
 3.4000e+001 211427 -3.8014e+006 -6.9604e+006  2.7747e+006 147324 211326,211378,211352
 3.4000e+001 211404  8.2193e+005 -1.8767e+007 -1.4308e+006 147324 211300,211378,211326
 3.4000e+001 211628 -1.0417e+003 -1.2119e+003  1.1635e+002 147012 211452,211504,211478
 3.4000e+001 211605 -7.7079e+002 -1.4139e+003 -2.6709e+002 147012 211452,211556,211504
 3.4000e+001 211582 -5.6177e+002 -2.6165e+003  4.3096e+002 147012 211504,211556,211530
 3.4000e+001 211829 -3.6812e+006 -8.1441e+006  3.3489e+006 146636 211679,211757,211731
 3.4000e+001 211806  5.3899e+006 -2.8275e+007 -3.0641e+006 146636 211653,211757,211679
 3.4000e+001 211783  2.0277e+006 -7.7653e+006  3.7963e+006 146636 211679,211731,211705
 3.4000e+001 211981  1.9073e+002  2.7038e+002  1.5163e+002 146246 211880,211932,211906
 3.4000e+001 211958  1.0586e+002  3.7947e+001  9.0084e+001 146246 211854,211932,211880
 3.4000e+001 212133  2.7735e+002  3.9509e+001  1.0336e+002 145956 212006,212058,212032
 3.4000e+001 212110  3.4418e+002  1.8307e+002  1.3620e+001 145956 212006,212084,212058
 3.4000e+001 212285 -4.2296e+001 -5.3956e+000  5.6057e+000 145544 212184,212236,212210
 3.4000e+001 212262 -1.8219e+001 -4.3359e+001  3.0430e+001 145544 212158,212236,212184
 3.4000e+001 212486  1.9951e+006 -1.5390e+007  1.4557e+006 144990 212362,212414,212388
 3.4000e+001 212463  4.0118e+004 -9.8142e+006  4.1210e+006 144990 212310,212414,212362
 3.4000e+001 212440 -2.9634e+006 -2.5102e+006  1.8763e+006 144990 212310,212362,212336
 3.4000e+001 212638 -5.4302e+003 -2.1342e+005  3.2954e+004 144600 212537,212589,212563
 3.4000e+001 212615  4.6973e+003 -1.7013e+005  3.8533e+004 144600 212511,212589,212537
 3.4000e+001 212839 -5.6270e+004 -8.1020e+005 -1.4693e+005 144210 212689,212741,212715
 3.4000e+001 212816 -1.6263e+003 -9.7905e+005 -3.9055e+003 144210 212663,212741,212689
 3.4000e+001 212793  5.0312e+004 -6.4864e+005 -4.2379e+004 144210 212663,212767,212741
 3.4000e+001 212991 -1.5760e+005 -2.2480e+005 -1.8086e+005 143920 212890,212942,212916
 3.4000e+001 212968 -3.0945e+005 -5.7711e+005 -3.1124e+005 143920 212864,212942,212890
 3.4000e+001 213143 -5.7953e+001 -6.2685e+002  3.9856e+002 143480 213016,213068,213042
 3.4000e+001 213120  2.3995e+002 -1.2884e+002 -4.9424e+001 143480 213016,213094,213068
 3.4000e+001 213295 -1.4227e+006 -7.0921e+006  3.9873e+006 142990 213194,213246,213220
 3.4000e+001 213272 -1.4905e+006 -2.8494e+006  2.2394e+006 142990 213168,213246,213194
 3.4000e+001 213447 -1.0088e+006 -3.5168e+006  6.3265e+005 142600 213320,213372,213346
 3.4000e+001 213424 -1.8239e+006 -2.3882e+006 -2.2112e+005 142600 213320,213398,213372
 3.4000e+001 213599 -7.0672e+004 -3.9229e+005 -2.0296e+005 142260 213472,213524,213498
 3.4000e+001 213576 -2.0734e+004 -4.6841e+005  8.7219e+004 142260 213472,213550,213524
 3.4000e+001 213751 -7.4870e+005 -1.1901e+006 -5.1729e+005 141870 213624,213676,213650
 3.4000e+001 213728 -2.0069e+006 -5.6438e+005 -1.6911e+006 141870 213624,213702,213676
 3.4000e+001 213903 -1.5121e+006 -3.2745e+006 -1.8439e+006 141530 213776,213828,213802
 3.4000e+001 213880 -6.6709e+005 -3.4289e+006 -1.4085e+006 141530 213776,213854,213828
 3.4000e+001 214055 -1.2140e+002 -4.1826e+002  2.0841e+001 141218 213928,213980,213954
 3.4000e+001 214032 -8.1980e+002 -4.7717e+002  2.4650e+002 141218 213928,214006,213980
 3.4000e+001 214207  3.3615e+002  4.6481e+002 -2.5529e+002 140928 214080,214132,214106
 3.4000e+001 214184  2.5452e+002  4.7108e+002 -5.4751e+002 140928 214080,214158,214132
 3.4000e+001 214359 -4.3022e+005 -2.1226e+005 -4.2193e+005 140538 214232,214284,214258
 3.4000e+001 214336  2.2789e+005 -1.1320e+006  2.5374e+005 140538 214232,214310,214284
 3.4000e+001 214560 -3.0211e+004 -2.4949e+006 -2.2389e+004 140248 214384,214462,214410
 3.4000e+001 214537  1.6390e+005 -1.0948e+006 -8.7596e+004 140248 214384,214488,214462
 3.4000e+001 214514 -2.8509e+005 -1.4658e+006 -3.7796e+005 140248 214410,214462,214436
 3.4000e+001 214712 -1.2114e+006 -6.1883e+006  1.1731e+006 140000 214611,214663,214637
 3.4000e+001 214689 -8.3677e+005 -4.3250e+006  1.3823e+006 140000 214585,214663,214611
 3.4000e+001 214913 -5.4392e+005 -3.1868e+006 -1.1611e+006 139596 214737,214815,214763
 3.4000e+001 214890 -4.3995e+005 -1.3797e+006 -1.8004e+005 139596 214737,214841,214815
 3.4000e+001 214867  4.4350e+005 -5.3534e+006 -7.3410e+005 139596 214763,214815,214789
 3.4000e+001 215016  4.3665e+001  3.6597e+001  3.6460e+001 139420 214938,214990,214964
 3.4000e+001 215168 -1.2797e+006 -9.9923e+006  3.2371e+006 139130 215067,215119,215093
 3.4000e+001 215145 -6.9604e+005 -1.0026e+007  2.1499e+006 139130 215041,215119,215067
 3.4000e+001 215320 -1.0149e+006 -3.8972e+006  1.7569e+006 138790 215219,215271,215245
 3.4000e+001 215297  7.2851e+004 -1.1291e+007  3.1494e+006 138790 215193,215271,215219
 3.4000e+001 215472 -3.0262e+004 -3.7387e+005  1.6119e+005 138514 215345,215397,215371
 3.4000e+001 215449  2.5325e+004 -2.1129e+005  3.5344e+004 138514 215345,215423,215397
 3.4000e+001 215624 -1.7845e+005 -8.8904e+006  2.5244e+005 138174 215497,215549,215523
 3.4000e+001 215601  2.9611e+004 -8.0447e+006  3.5645e+004 138174 215497,215575,215549
 3.4000e+001 215776 -2.4010e+005 -1.6730e+006  9.2339e+005 137734 215649,215701,215675
 3.4000e+001 215753 -7.4349e+004 -1.0867e+006 -1.9322e+005 137734 215649,215727,215701
 3.4000e+001 215977 -4.5667e+005 -1.8210e+007  4.7941e+006 137344 215801,215879,215827
 3.4000e+001 215954 -1.0711e+006 -8.2153e+006 -2.8488e+006 137344 215801,215905,215879
 3.4000e+001 215931  3.3253e+005 -2.6069e+007 -1.2419e+006 137344 215827,215879,215853
 3.4000e+001 216129 -1.3337e+005 -6.0637e+006  5.7421e+005 136940 216028,216080,216054
 3.4000e+001 216106 -2.3079e+005 -5.1422e+006  1.0534e+005 136940 216002,216080,216028
 3.4000e+001 216330 -3.3453e+005 -8.0833e+006  1.1187e+006 136600 216180,216232,216206
 3.4000e+001 216307 -8.5190e+005 -8.4090e+006  1.9568e+006 136600 216154,216232,216180
 3.4000e+001 216284 -2.8937e+006 -6.1357e+006  1.1068e+006 136600 216154,216258,216232
 3.4000e+001 216482  7.5818e+005 -6.3025e+006  2.7863e+005 136260 216381,216433,216407
 3.4000e+001 216459  1.4767e+005 -7.9231e+006 -2.8978e+005 136260 216355,216433,216381
 3.4000e+001 216634 -1.0443e+006 -5.6912e+006  2.0323e+006 135970 216533,216585,216559
 3.4000e+001 216611 -4.2146e+005 -8.4549e+006  2.4995e+006 135970 216507,216585,216533
 3.4000e+001 216835 -9.1602e+005 -4.3387e+006 -6.4378e+005 135608 216685,216763,216711
 3.4000e+001 216812 -2.2328e+004 -4.0392e+006 -4.4286e+005 135608 216659,216763,216685
 3.4000e+001 216789 -8.8274e+005 -9.4558e+006  2.8920e+005 135608 216711,216763,216737
 3.4000e+001 217036 -8.8999e+005 -4.6698e+006  9.4788e+005 135312 216912,216964,216938
 3.4000e+001 217013 -6.4582e+005 -6.7642e+006  2.0899e+006 135312 216886,216964,216912
 3.4000e+001 216990 -1.8060e+005 -7.8622e+006  1.8162e+006 135312 216860,216964,216886
 3.4000e+001 217237 -9.2830e+004 -8.2454e+005  2.5812e+005 134908 217061,217139,217113
 3.4000e+001 217214 -1.3825e+005 -8.6303e+005  3.6906e+005 134908 217061,217165,217139
 3.4000e+001 217191 -1.3955e+005 -1.0463e+006  3.5859e+005 134908 217061,217113,217087
 3.4000e+001 217438 -1.8384e+006 -2.3749e+007  1.0411e+006 134568 217288,217366,217314
 3.4000e+001 217415  1.7986e+006 -3.2055e+007  1.0790e+006 134568 217262,217366,217288
 3.4000e+001 217392 -1.8779e+005 -2.2988e+007 -5.9459e+005 134568 217314,217366,217340
 3.4000e+001 217590 -1.1615e+005 -4.5030e+005  2.4124e+005 134106 217463,217515,217489
 3.4000e+001 217567 -4.8223e+004 -3.2250e+005  6.6142e+004 134106 217463,217541,217515
 3.4000e+001 217791 -1.8498e+006 -3.0746e+007 -8.3917e+006 133816 217641,217693,217667
 3.4000e+001 217768  3.5543e+006 -3.4895e+007  3.8418e+006 133816 217641,217719,217693
 3.4000e+001 217745 -7.1003e+006 -3.5796e+006  4.9675e+006 133816 217615,217719,217641
 3.4000e+001 217992 -2.9336e+006 -5.1344e+006  3.7075e+006 133355 217842,217920,217894
 3.4000e+001 217969  2.2867e+005 -1.5306e+007 -1.4389e+006 133355 217816,217920,217842
 3.4000e+001 217946 -5.9368e+005 -2.9287e+006  5.0044e+005 133355 217842,217894,217868
 3.4000e+001 218193 -4.4110e+005 -6.8944e+006 -4.0847e+006 132851 218017,218095,218069
 3.4000e+001 218170 -2.2179e+006 -1.0589e+007  6.6836e+006 132851 218017,218121,218095
 3.4000e+001 218147 -4.0255e+006 -5.5745e+006 -2.9389e+006 132851 218017,218069,218043
 3.4000e+001 218345 -1.9884e+005 -2.8575e+006  7.5216e+005 132511 218244,218296,218270
 3.4000e+001 218322 -2.0252e+005 -2.8648e+006  7.4922e+005 132511 218218,218296,218244
 3.4000e+001 218497  8.8154e+005 -3.3554e+007 -2.7265e+006 132235 218396,218448,218422
 3.4000e+001 218474 -1.6271e+006 -1.0452e+007  6.8153e+004 132235 218370,218448,218396
 3.4000e+001 218698 -3.6978e+005 -1.5418e+007  9.0286e+004 131945 218574,218626,218600
 3.4000e+001 218675 -1.9135e+006 -2.1874e+007  5.9698e+004 131945 218522,218626,218574
 3.4000e+001 218652 -1.5586e+006 -1.6142e+007 -1.7879e+006 131945 218522,218574,218548
 3.4000e+001 218850 -5.7972e+005 -2.1603e+007 -1.4072e+006 131655 218723,218775,218749
 3.4000e+001 218827  4.9624e+004 -1.3543e+007 -1.0296e+006 131655 218723,218801,218775
 3.4000e+001 218953 -2.6115e+005 -3.9279e+006  5.4125e+005 131215 218875,218927,218901
 3.4000e+001 219105 -2.9657e+005 -7.3410e+006 -1.7711e+006 130875 218978,219030,219004
 3.4000e+001 219082 -5.7950e+005 -2.4161e+006 -4.7888e+005 130875 218978,219056,219030
 3.4000e+001 219306 -3.6848e+005 -5.4880e+006 -4.8782e+005 130429 219156,219234,219208
 3.4000e+001 219283 -5.8909e+005 -2.7593e+006  1.2697e+005 130429 219130,219234,219156
 3.4000e+001 219260 -2.9677e+006 -6.3462e+006  2.0065e+006 130429 219156,219208,219182
 3.4000e+001 219507 -1.3488e+005 -1.9118e+006  3.2157e+005 130025 219383,219435,219409
 3.4000e+001 219484 -1.1884e+005 -2.2532e+006  4.4302e+005 130025 219331,219435,219383
 3.4000e+001 219461 -3.5035e+005 -1.0728e+006 -4.2260e+004 130025 219331,219383,219357
 3.4000e+001 219659 -8.6714e+005 -7.1312e+006  8.9598e+005 129685 219558,219610,219584
 3.4000e+001 219636  4.3954e+005 -1.2177e+007 -5.5077e+006 129685 219532,219610,219558
 3.4000e+001 219860 -3.2043e+004 -3.7991e+006  1.2049e+006 129395 219710,219788,219762
 3.4000e+001 219837 -1.0566e+006 -3.0804e+006  6.5444e+005 129395 219684,219788,219710
 3.4000e+001 219814  6.8057e+005 -6.2229e+006 -6.0841e+005 129395 219710,219762,219736
 3.4000e+001 220061  2.2699e+005 -4.2552e+006  3.3406e+005 128991 219937,219989,219963
 3.4000e+001 220038 -6.4507e+004 -3.9666e+006  2.8047e+005 128991 219885,219989,219937
 3.4000e+001 220015 -1.0224e+005 -4.3021e+006  4.4012e+005 128991 219885,219937,219911
 3.4000e+001 220262 -3.5909e+005 -3.0752e+006  1.5511e+005 128701 220086,220164,220112
 3.4000e+001 220239 -5.2460e+005 -3.4915e+006  3.6481e+005 128701 220086,220190,220164
 3.4000e+001 220216 -2.0868e+005 -3.0057e+006  2.2388e+005 128701 220112,220164,220138
 3.4000e+001 220463 -3.0209e+006 -9.0813e+006  3.2321e+006 128297 220339,220391,220365
 3.4000e+001 220440  2.3210e+006 -1.9935e+007  6.3225e+005 128297 220313,220391,220339
 3.4000e+001 220417 -3.9411e+005 -2.4084e+007 -5.6327e+006 128297 220287,220391,220313
 3.4000e+001 220615 -1.4968e+006 -3.2196e+006 -1.1798e+006 128007 220488,220540,220514
 3.4000e+001 220592  1.3511e+006 -1.2891e+007  2.2287e+005 128007 220488,220566,220540
 3.4000e+001 220767 -2.9298e+005 -2.9403e+006 -1.4381e+005 127567 220640,220692,220666
 3.4000e+001 220744 -1.0080e+005 -2.1887e+006 -3.1820e+005 127567 220640,220718,220692
 3.4000e+001 220919 -7.6119e+005 -1.7957e+007 -2.3876e+006 127163 220792,220844,220818
 3.4000e+001 220896  1.4477e+006 -2.1387e+007  1.4631e+006 127163 220792,220870,220844
 3.4000e+001 221071 -1.1523e+006 -3.3308e+006  1.2621e+006 126915 220970,221022,220996
 3.4000e+001 221048 -1.1410e+006 -4.1541e+006  9.4813e+005 126915 220944,221022,220970
 3.4000e+001 221272 -1.7969e+006 -3.3703e+006  2.7647e+006 126461 221122,221174,221148
 3.4000e+001 221249 -4.6330e+006 -4.5974e+006  1.0033e+006 126461 221122,221200,221174
 3.4000e+001 221226  1.2520e+006 -1.4250e+007 -3.2897e+006 126461 221096,221200,221122
 3.4000e+001 221375  6.9717e-001 -7.5668e+004  3.8015e+001 126213 221297,221349,221323
 3.4000e+001 221478 -5.3356e+002 -6.1389e+004 -2.3862e+002 125766 221400,221452,221426
 3.4000e+001 221679 -7.0147e+004 -2.8190e+006  2.7686e+005 125212 221503,221555,221529
 3.4000e+001 221656 -1.5131e+005 -3.5277e+006  1.1810e+005 125212 221503,221581,221555
 3.4000e+001 221633  3.7576e+005 -6.2686e+006  1.4005e+006 125212 221503,221607,221581
 3.4000e+001 221929 -6.6495e+003 -7.8106e+003 -1.0916e+003 124872 221782,221834,221808
 3.4000e+001 221906 -1.5518e+004 -7.7404e+003  9.9317e+003 124872 221756,221834,221782
 3.4000e+001 221883 -4.4458e+004 -3.3191e+003 -2.5105e+004 124872 221704,221834,221756
 3.4000e+001 221860 -5.1356e+004 -1.4030e+004 -1.6306e+004 124872 221704,221756,221730
 3.4000e+001 222130 -6.1902e+005 -9.9869e+006 -1.0658e+006 124582 221980,222058,222006
 3.4000e+001 222107 -2.7369e+006 -1.0322e+007 -1.1910e+006 124582 221954,222058,221980
 3.4000e+001 222084 -1.9147e+006 -1.0823e+007 -1.7350e+006 124582 222006,222058,222032
 3.4000e+001 222282 -2.6090e+006 -1.2471e+007 -3.2784e+006 124192 222181,222233,222207
 3.4000e+001 222259 -1.1147e+006 -1.2335e+007 -3.3783e+006 124192 222155,222233,222181
 3.4000e+001 222483 -1.8554e+005 -2.8413e+006 -1.0664e+006 123702 222333,222385,222359
 3.4000e+001 222460 -2.2375e+005 -2.1131e+006 -2.5584e+004 123702 222333,222411,222385
 3.4000e+001 222437 -2.2772e+005 -8.3501e+005 -2.6451e+005 123702 222307,222411,222333
 3.4000e+001 222635 -4.2275e+005 -8.2679e+005 -4.3475e+005 123312 222508,222560,222534
 3.4000e+001 222612  2.7969e+005 -3.9656e+006 -3.7349e+005 123312 222508,222586,222560
 3.4000e+001 222787  2.5052e+004 -2.2397e+006 -5.3554e+004 122858 222686,222738,222712
 3.4000e+001 222764 -1.1011e+005 -2.5103e+006 -3.1343e+005 122858 222660,222738,222686
 3.4000e+001 222939 -1.1906e+005 -6.0092e+005 -1.4010e+004 122568 222812,222864,222838
 3.4000e+001 222916 -1.5308e+005 -4.9732e+005  1.8289e+005 122568 222812,222890,222864
 3.4000e+001 223091 -1.4667e+005 -2.1262e+006 -4.9485e+005 122392 222964,223016,222990
 3.4000e+001 223068  2.4837e+005 -2.4585e+006 -1.6260e+005 122392 222964,223042,223016
 3.4000e+001 223292 -4.2715e+005 -1.0209e+007 -1.9153e+006 121852 223142,223220,223194
 3.4000e+001 223269 -1.5674e+006 -9.1823e+006 -1.3374e+006 121852 223116,223220,223142
 3.4000e+001 223246 -2.5967e+005 -1.0283e+007 -1.6343e+006 121852 223142,223194,223168
 3.4000e+001 223493 -8.6756e+005 -9.8148e+006  4.5264e+005 121406 223343,223395,223369
 3.4000e+001 223470 -2.9167e+006 -7.6839e+006 -1.4855e+006 121406 223343,223421,223395
 3.4000e+001 223447 -1.0583e+006 -5.4788e+006  1.7197e+006 121406 223317,223421,223343
 3.4000e+001 223645  3.7281e+005 -1.0712e+007  8.1060e+005 121002 223544,223596,223570
 3.4000e+001 223622 -1.2656e+006 -5.3503e+006  1.1337e+006 121002 223518,223596,223544
 3.4000e+001 223846 -3.1377e+005 -8.8209e+006 -1.5475e+005 120662 223670,223748,223696
 3.4000e+001 223823  5.4389e+005 -5.2586e+006 -1.3323e+005 120662 223670,223774,223748
 3.4000e+001 223800 -1.2759e+006 -3.9987e+006 -1.5222e+006 120662 223696,223748,223722
 3.4000e+001 224047 -4.8799e+005 -5.0420e+006  1.3208e+006 120222 223897,223949,223923
 3.4000e+001 224024  7.5037e+005 -6.8381e+006 -9.2284e+005 120222 223871,223949,223897
 3.4000e+001 224001 -1.0381e+006 -4.3642e+006 -1.3351e+006 120222 223871,223975,223949
 3.4000e+001 224248  6.6935e+005 -4.9268e+006 -9.7927e+005 119875 224124,224176,224150
 3.4000e+001 224225 -1.2188e+006 -1.0867e+007 -2.4058e+006 119875 224098,224176,224124
 3.4000e+001 224202 -5.1290e+005 -1.9251e+006  6.7217e+004 119875 224072,224176,224098
 3.4000e+001 224449 -2.4039e+005 -5.9114e+006 -6.7886e+005 119677 224325,224377,224351
 3.4000e+001 224426 -5.2287e+005 -7.0461e+006 -4.5805e+005 119677 224299,224377,224325
 3.4000e+001 224403  1.9199e+004 -1.8627e+006 -1.3613e+005 119677 224273,224377,224299
 3.4000e+001 224552 -6.5133e+005 -2.0987e+006 -5.4316e+005 119273 224474,224526,224500
 3.4000e+001 224704 -1.8487e+006 -1.2388e+007 -2.4476e+006 118983 224603,224655,224629
 3.4000e+001 224681 -9.3021e+005 -1.1424e+007 -1.7881e+006 118983 224577,224655,224603
 3.4000e+001 224856 -5.0214e+005 -9.0132e+006 -1.8136e+005 118529 224755,224807,224781
 3.4000e+001 224833  2.5725e+005 -1.3155e+007 -1.1671e+006 118529 224729,224807,224755
 3.4000e+001 225008 -7.2388e+005 -9.2783e+006  7.4945e+004 118353 224881,224933,224907
 3.4000e+001 224985 -2.7889e+005 -1.0395e+006 -7.1699e+004 118353 224881,224959,224933
 3.4000e+001 225209  1.4066e+004 -7.0684e+006 -3.6468e+005 117949 225059,225137,225111
 3.4000e+001 225186 -3.3336e+005 -7.1948e+006 -4.7817e+005 117949 225033,225137,225059
 3.4000e+001 225163 -5.1406e+004 -6.8164e+006 -4.6775e+005 117949 225059,225111,225085
 3.4000e+001 225410  1.5944e+004 -7.1694e+006  7.1772e+005 117559 225260,225338,225312
 3.4000e+001 225387 -8.3387e+005 -7.4958e+006  3.2666e+005 117559 225234,225338,225260
 3.4000e+001 225364 -6.0271e+005 -5.0626e+006 -1.7467e+006 117559 225260,225312,225286
 3.4000e+001 225611 -1.6024e+006 -1.1105e+007 -5.2837e+006 117361 225461,225513,225487
 3.4000e+001 225588  9.2578e+005 -1.1607e+007  1.2803e+006 117361 225461,225539,225513
 3.4000e+001 225565 -2.1298e+006 -7.5673e+006  3.8184e+006 117361 225435,225539,225461
 3.4000e+001 225812 -8.8888e+004 -5.6466e+006 -3.6175e+005 116900 225636,225714,225662
 3.4000e+001 225789  5.8952e+005 -7.0057e+006 -3.4863e+005 116900 225636,225740,225714
 3.4000e+001 225766 -2.8252e+004 -5.6250e+006 -3.9938e+005 116900 225662,225714,225688
 3.4000e+001 225964 -3.9492e+005 -4.3069e+006 -1.9858e+005 116560 225837,225889,225863
 3.4000e+001 225941  8.4628e+004 -7.2875e+006  2.8652e+005 116560 225837,225915,225889
 3.4000e+001 226165  2.1632e+004 -7.5989e+006 -6.3806e+005 116106 226015,226093,226041
 3.4000e+001 226142 -2.3557e+005 -9.0541e+006 -3.4558e+006 116106 225989,226093,226015
 3.4000e+001 226119 -2.6570e+006 -3.8209e+006  2.4239e+005 116106 226041,226093,226067
 3.4000e+001 226268 -1.2423e+006 -9.0856e+006  4.6462e+004 115716 226190,226242,226216
 3.4000e+001 226420 -3.8923e+004 -8.3856e+006  1.8105e+006 115376 226293,226345,226319
 3.4000e+001 226397 -2.4362e+005 -8.3517e+006  1.6774e+006 115376 226293,226371,226345
 3.4000e+001 226621 -6.5173e+005 -2.0318e+006  4.0391e+005 114972 226497,226549,226523
 3.4000e+001 226598 -5.4353e+005 -1.0064e+007 -5.6782e+005 114972 226445,226549,226497
 3.4000e+001 226575  1.3241e+005 -5.2127e+006  5.9332e+005 114972 226445,226497,226471
 3.4000e+001 226773 -9.8209e+005 -2.7882e+006 -1.1129e+006 114670 226646,226698,226672
 3.4000e+001 226750  6.5467e+005 -7.3554e+006  6.2446e+005 114670 226646,226724,226698
 3.4000e+001 226974  4.7922e+004 -2.4858e+006 -4.2184e+005 114082 226798,226850,226824
 3.4000e+001 226951  1.4518e+005 -3.3640e+006 -1.1251e+005 114082 226798,226902,226850
 3.4000e+001 226928  3.4296e+004 -4.6464e+006 -4.3535e+005 114082 226850,226902,226876
 3.4000e+001 227175 -7.6187e+005 -3.7706e+006 -6.5342e+005 113678 226999,227051,227025
 3.4000e+001 227152 -1.6751e+006 -5.1458e+006 -2.1456e+006 113678 226999,227077,227051
 3.4000e+001 227129 -2.1961e+005 -1.3166e+007 -3.5456e+006 113678 226999,227103,227077
 3.4000e+001 227425  6.9904e+003 -8.2462e+006  1.3504e+005 113274 227226,227278,227252
 3.4000e+001 227402  5.4723e+005 -8.3121e+006 -3.7826e+006 113274 227226,227330,227278
 3.4000e+001 227379  2.9496e+005 -9.4524e+006 -4.1482e+006 113274 227200,227330,227226
 3.4000e+001 227356 -6.2115e+006 -1.1733e+006 -1.0493e+006 113274 227278,227330,227304
 3.4000e+001 227626  3.6368e+005 -4.4397e+006 -8.6192e+005 112934 227502,227554,227528
 3.4000e+001 227603 -3.1110e+004 -3.1131e+006  1.0485e+005 112934 227450,227554,227502
 3.4000e+001 227580 -1.2324e+006 -2.6835e+006 -5.4739e+005 112934 227450,227502,227476
 3.4000e+001 227876 -1.5490e+005 -1.6717e+006 -1.9766e+005 112437 227677,227755,227703
 3.4000e+001 227853 -9.3384e+005 -2.0117e+006  1.0157e+006 112437 227677,227781,227755
 3.4000e+001 227830 -2.9043e+005 -9.0842e+005  2.4311e+005 112437 227703,227755,227729
 3.4000e+001 227807 -1.5180e+005 -6.3869e+006 -4.9650e+005 112437 227651,227781,227677
 3.4000e+001 228126 -9.0087e+005 -4.2390e+006  4.1480e+005 112041 227927,228005,227953
 3.4000e+001 228103 -4.1453e+005 -6.9332e+006 -1.1706e+006 112041 227927,228031,228005
 3.4000e+001 228080 -1.1116e+006 -5.1273e+006  2.4175e+005 112041 227953,228005,227979
 3.4000e+001 228057 -5.0857e+005 -5.5958e+006 -1.1922e+006 112041 227901,228031,227927
 3.4000e+001 228327 -1.1953e+006 -5.2397e+006 -9.6621e+005 111693 228151,228203,228177
 3.4000e+001 228304 -7.7612e+005 -2.7301e+006 -1.4041e+006 111693 228151,228229,228203
 3.4000e+001 228281  5.0066e+005 -5.6311e+006  7.1843e+005 111693 228151,228255,228229
 3.4000e+001 228479 -4.1574e+006 -1.2837e+007 -6.4802e+006 111253 228352,228404,228378
 3.4000e+001 228456 -3.3552e+006 -8.2449e+006 -1.4396e+006 111253 228352,228430,228404
 3.4000e+001 228582 -1.7586e+006 -7.3287e+006 -1.7153e+006 110906 228504,228556,228530
 3.4000e+001 228783 -3.1510e+004 -1.5268e+006  2.7286e+005 110416 228633,228711,228659
 3.4000e+001 228760 -2.8111e+004 -1.2289e+006  1.6917e+005 110416 228607,228711,228633
 3.4000e+001 228737 -1.7584e+005 -2.4282e+006  3.3346e+005 110416 228659,228711,228685
 3.4000e+001 228935 -9.1104e+004 -3.4476e+006 -1.0009e+005 110012 228808,228860,228834
 3.4000e+001 228912 -5.6497e+005 -6.8766e+006 -6.5682e+005 110012 228808,228886,228860
 3.4000e+001 229087 -1.0110e+006 -2.8107e+006 -1.2748e+006 109672 228960,229012,228986
 3.4000e+001 229064 -7.7649e+005 -6.2634e+006 -3.4937e+004 109672 228960,229038,229012
 3.4000e+001 229190  2.9171e+004 -7.6918e+005 -5.0288e+004 109332 229112,229164,229138
 3.4000e+001 229391 -1.4895e+004 -4.3447e+005 -1.4955e+005 109156 229267,229319,229293
 3.4000e+001 229368 -1.0704e+005 -7.5589e+005 -2.0722e+005 109156 229215,229319,229267
 3.4000e+001 229345 -1.2078e+004 -2.8647e+005 -1.2551e+005 109156 229215,229267,229241
 3.4000e+001 229543 -1.4742e+004 -9.0697e+006  8.9025e+005 108752 229416,229468,229442
 3.4000e+001 229520  7.1401e+004 -9.9878e+006  1.2283e+006 108752 229416,229494,229468
 3.4000e+001 229744 -2.7065e+005 -7.3590e+006  1.6739e+005 108198 229594,229646,229620
 3.4000e+001 229721 -9.5891e+005 -7.6180e+006  1.1614e+006 108198 229594,229672,229646
 3.4000e+001 229698  7.9892e+004 -1.0146e+007 -2.3079e+005 108198 229568,229672,229594
 3.4000e+001 229847 -1.4110e+005 -5.7651e+005 -2.8009e+005 107758 229769,229821,229795
 3.4000e+001 230048 -9.1973e+005 -3.2859e+006 -7.8563e+005 107468 229898,229950,229924
 3.4000e+001 230025 -2.9646e+005 -2.7600e+006  1.7814e+004 107468 229872,229950,229898
 3.4000e+001 230002 -1.0353e+006 -2.6511e+006 -1.2415e+005 107468 229872,229976,229950
 3.4000e+001 230298  1.2805e+005 -2.3224e+006  7.1044e+005 107121 230099,230203,230177
 3.4000e+001 230275 -6.4182e+005 -8.3346e+005  3.6514e+005 107121 230073,230203,230099
 3.4000e+001 230252  1.2751e+005 -2.9989e+006 -1.4308e+006 107121 230099,230177,230151
 3.4000e+001 230229 -4.6793e+005 -3.4156e+006 -1.1058e+006 107121 230099,230151,230125
 3.4000e+001 230450  1.7557e+005 -1.9210e+006 -2.2176e+005 106823 230349,230401,230375
 3.4000e+001 230427 -1.3255e+005 -3.2206e+005  1.2763e+005 106823 230323,230401,230349
 3.4000e+001 230602 -9.7838e+005 -8.3942e+006 -2.0461e+006 106533 230501,230553,230527
 3.4000e+001 230579 -1.1272e+006 -9.2387e+006 -4.2524e+006 106533 230475,230553,230501
 3.4000e+001 230803 -1.6342e+005 -6.9466e+005 -8.3635e+004 106029 230679,230731,230705
 3.4000e+001 230780 -2.1410e+005 -1.0004e+006  2.5144e+005 106029 230653,230731,230679
 3.4000e+001 230757  3.7916e+005 -2.9730e+006  1.5724e+005 106029 230627,230731,230653
 3.4000e+001 231004 -2.0804e+005 -3.5659e+006  2.3793e+005 105689 230854,230906,230880
 3.4000e+001 230981  2.9067e+005 -4.2182e+006 -5.1785e+005 105689 230828,230906,230854
 3.4000e+001 230958 -7.0058e+005 -3.0387e+006 -1.4594e+006 105689 230828,230932,230906
 3.4000e+001 231156 -1.3872e+006 -3.9280e+006  1.4971e+006 105377 231055,231107,231081
 3.4000e+001 231133  4.8238e+005 -1.1979e+007 -7.4206e+005 105377 231029,231107,231055
 3.4000e+001 231406 -6.6821e+005 -8.4125e+006 -2.1895e+005 104858 231207,231259,231233
 3.4000e+001 231383 -1.6257e+006 -8.1773e+006 -8.0487e+005 104858 231207,231311,231259
 3.4000e+001 231360 -1.0400e+006 -1.2835e+007 -1.5008e+006 104858 231259,231311,231285
 3.4000e+001 231337 -4.6378e+005 -1.0979e+007 -1.4124e+006 104858 231181,231311,231207
 3.4000e+001 231558 -4.3024e+005 -4.7463e+006  1.8861e+006 104418 231457,231509,231483
 3.4000e+001 231535 -3.3172e+005 -4.8010e+006  1.1423e+006 104418 231431,231509,231457
 3.4000e+001 231710 -7.0112e+005 -1.5469e+006 -3.7707e+005 103978 231583,231635,231609
 3.4000e+001 231687 -9.5008e+005 -6.8714e+005 -3.1491e+005 103978 231583,231661,231635
 3.4000e+001 231862 -1.4938e+004 -7.9258e+005 -7.9513e+004 103588 231761,231813,231787
 3.4000e+001 231839 -2.0464e+003 -7.3735e+005 -7.8486e+004 103588 231735,231813,231761
 3.4000e+001 232014 -2.7637e+006 -6.0855e+006 -2.4330e+006 103248 231887,231939,231913
 3.4000e+001 231991  1.7593e+004 -1.7884e+007 -6.1598e+006 103248 231887,231965,231939
 3.4000e+001 232215 -1.8959e+005 -2.8519e+006  5.1825e+005 102844 232039,232117,232065
 3.4000e+001 232192  6.6600e+004 -3.3182e+006 -1.6504e+005 102844 232039,232143,232117
 3.4000e+001 232169 -2.5695e+005 -1.7062e+006 -2.7431e+005 102844 232065,232117,232091
 3.4000e+001 232416 -4.0257e+006 -1.0167e+007 -2.8479e+006 102554 232240,232318,232292
 3.4000e+001 232393  1.0937e+006 -1.4609e+007 -1.9916e+005 102554 232240,232344,232318
 3.4000e+001 232370 -4.4828e+006 -4.7920e+006 -9.3727e+005 102554 232240,232292,232266
 3.4000e+001 232568  2.4504e+005 -4.9133e+006  7.4859e+005 102100 232441,232493,232467
 3.4000e+001 232545 -2.6653e+005 -4.3990e+006 -5.5504e+005 102100 232441,232519,232493
 3.4000e+001 232769 -2.0418e+005 -1.9367e+006 -2.9904e+005 101596 232645,232697,232671
 3.4000e+001 232746 -1.5732e+005 -1.7145e+006 -4.1384e+005 101596 232593,232697,232645
 3.4000e+001 232723  2.2676e+005 -4.4788e+006 -5.2137e+005 101596 232593,232645,232619
 3.4000e+001 232921 -1.8997e+002  1.2599e+002 -3.3338e+001 101420 232794,232846,232820
 3.4000e+001 232898 -8.0351e+001 -1.4965e+002 -2.1373e+002 101420 232794,232872,232846
 3.4000e+001 233073 -1.0333e+006 -3.6585e+006 -6.3274e+005 101023 232946,232998,232972
 3.4000e+001 233050  3.3204e+005 -6.2463e+006  1.3310e+006 101023 232946,233024,232998
 3.4000e+001 233225 -3.1344e+005 -2.7254e+006  3.1285e+003 100661 233098,233150,233124
 3.4000e+001 233202  2.7343e+005 -5.7160e+006  2.0099e+005 100661 233098,233176,233150
 3.4000e+001 233426 -1.3994e+006 -7.2400e+006 -2.0496e+006 100265 233276,233328,233302
 3.4000e+001 233403 -1.4533e+006 -6.4277e+006  9.6161e+004 100265 233276,233354,233328
 3.4000e+001 233380 -1.5179e+006 -1.0760e+007 -8.0465e+005 100265 233250,233354,233276
 3.4000e+001 233578 -6.0148e+004 -1.5378e+005 -5.8521e+004 100032 233451,233503,233477
 3.4000e+001 233555 -6.9802e+004 -1.5966e+005  5.2073e+004 100032 233451,233529,233503
 3.4000e+001 233681 -1.6481e+005 -6.9747e+004  6.5176e+004 99742 233603,233655,233629
 3.4000e+001 233784 -4.0520e+005 -2.5336e+006  4.8508e+005 99402 233706,233758,233732
 3.4000e+001 233936 -7.2716e+005 -2.6391e+006  4.2033e+005 99062 233835,233887,233861
 3.4000e+001 233913 -4.6094e+005 -1.4526e+006 -4.9324e+004 99062 233809,233887,233835
 3.4000e+001 234088 -2.3522e+005 -3.7345e+006 -4.7982e+005 98772 233987,234039,234013
 3.4000e+001 234065 -1.5546e+006 -3.7460e+006  3.3802e+006 98772 233961,234039,233987
 3.4000e+001 234240 -3.3177e+004 -7.4251e+005  1.6206e+005 98160 234139,234191,234165
 3.4000e+001 234217  1.0643e+004 -5.6793e+005  1.6841e+005 98160 234113,234191,234139
 3.4000e+001 234441 -1.8992e+004 -5.2732e+005 -6.7066e+004 97820 234317,234369,234343
 3.4000e+001 234418 -6.4444e+003 -4.7737e+005 -6.5237e+004 97820 234291,234369,234317
 3.4000e+001 234395 -2.0962e+004 -4.2020e+005 -6.0755e+004 97820 234265,234369,234291
 3.4000e+001 234593 -1.4008e+005 -1.6125e+006 -1.4307e+005 97366 234466,234518,234492
 3.4000e+001 234570 -7.9822e+004 -2.7669e+006 -6.7702e+004 97366 234466,234544,234518
 3.4000e+001 234794 -5.3026e+005 -8.5358e+005 -5.0684e+005 96976 234618,234670,234644
 3.4000e+001 234771 -3.6274e+004 -1.9726e+006 -3.5891e+005 96976 234618,234722,234670
 3.4000e+001 234748 -6.4924e+004 -1.6355e+006 -5.1085e+005 96976 234670,234722,234696
 3.4000e+001 234946 -9.7722e+005 -2.9722e+006  1.2512e+006 96568 234845,234897,234871
 3.4000e+001 234923 -7.1945e+005 -1.9502e+006  1.3026e+006 96568 234819,234897,234845
 3.4000e+001 235196 -1.7327e+004 -1.4123e+006  3.1426e+005 96216 234997,235075,235049
 3.4000e+001 235173 -5.3427e+005 -4.2209e+006  1.5210e+006 96216 234997,235101,235075
 3.4000e+001 235150 -8.5328e+005 -3.9720e+006  9.1550e+005 96216 234997,235049,235023
 3.4000e+001 235127 -1.3106e+005 -5.4378e+006 -1.7637e+006 96216 234971,235101,234997
 3.4000e+001 235348 -9.5470e+005 -2.8036e+006 -6.5567e+005 95863 235247,235299,235273
 3.4000e+001 235325 -9.4131e+005 -1.6107e+006 -9.9455e+005 95863 235221,235299,235247
 3.4000e+001 235500 -1.5267e+006 -2.7365e+006 -2.4615e+006 95339 235373,235425,235399
 3.4000e+001 235477 -5.4082e+005 -6.4597e+006  3.5648e+006 95339 235373,235451,235425
 3.4000e+001 235701 -2.2324e+005 -3.9917e+006  1.5320e+006 95023 235525,235577,235551
 3.4000e+001 235678 -2.4983e+004 -1.7607e+006 -2.2003e+005 95023 235525,235629,235577
 3.4000e+001 235655 -5.0952e+005 -1.5017e+006 -7.4491e+004 95023 235577,235629,235603
 3.4000e+001 235853  8.3679e+005 -9.3244e+006  1.0299e+006 94671 235726,235778,235752
 3.4000e+001 235830 -2.8368e+005 -7.1958e+006 -5.6794e+005 94671 235726,235804,235778
 3.4000e+001 236005 -1.0497e+006 -6.8991e+006 -8.5947e+005 94261 235904,235956,235930
 3.4000e+001 235982 -1.4100e+006 -8.0707e+006 -1.9357e+006 94261 235878,235956,235904
 3.4000e+001 236206 -5.6630e+005 -7.7184e+005  1.2660e+006 93853 236056,236134,236082
 3.4000e+001 236183 -8.5456e+005 -8.8705e+005  3.4311e+005 93853 236030,236134,236056
 3.4000e+001 236160 -8.9345e+005 -1.3069e+006  1.0169e+006 93853 236082,236134,236108
 3.4000e+001 236407 -6.3269e+005 -5.9727e+006  8.7299e+004 93557 236257,236309,236283
 3.4000e+001 236384 -1.8649e+006 -6.6621e+006 -1.6929e+006 93557 236231,236309,236257
 3.4000e+001 236361 -6.1618e+005 -1.0958e+007 -2.9002e+005 93557 236231,236335,236309
 3.4000e+001 236559 -2.7615e+005 -1.0400e+006 -2.4002e+003 93149 236432,236484,236458
 3.4000e+001 236536 -1.4171e+005 -4.7103e+005  4.5836e+004 93149 236432,236510,236484
 3.4000e+001 236711 -7.2826e+004 -2.4475e+005  1.3262e+005 92853 236584,236636,236610
 3.4000e+001 236688 -1.3934e+004 -1.8025e+005  9.5522e+004 92853 236584,236662,236636
 3.4000e+001 236912 -2.7400e+005 -4.0775e+006  1.4125e+006 92501 236736,236788,236762
 3.4000e+001 236889 -5.9410e+005 -2.7148e+006  6.5685e+005 92501 236736,236840,236788
 3.4000e+001 236866 -7.4202e+005 -3.3155e+006  6.8429e+005 92501 236788,236840,236814
 3.4000e+001 237113 -3.3968e+005 -4.2266e+006  3.6441e+005 92291 236963,237041,237015
 3.4000e+001 237090 -1.0438e+005 -2.8931e+006  3.7559e+005 92291 236937,237041,236963
 3.4000e+001 237067 -2.0562e+005 -3.8920e+006  8.9367e+005 92291 236963,237015,236989
 3.4000e+001 237265  7.8022e+004 -5.1589e+005 -3.2935e+005 91871 237138,237190,237164
 3.4000e+001 237242 -2.7469e+005 -1.5571e+006 -5.6848e+005 91871 237138,237216,237190
 3.4000e+001 237368 -4.3619e+002 -1.8229e+006  3.0689e+002 91581 237290,237342,237316
 3.4000e+001 237520 -2.2295e+004 -8.6245e+004  2.1141e+004 91184 237419,237471,237445
 3.4000e+001 237497 -7.5147e+004 -9.2430e+004  1.8890e+004 91184 237393,237471,237419
 3.4000e+001 237672 -2.9680e+005 -2.5460e+006  6.7162e+005 90894 237545,237597,237571
 3.4000e+001 237649 -1.8079e+005 -2.4956e+006  6.2922e+005 90894 237545,237623,237597
 3.4000e+001 237873 -1.1645e+006 -4.8344e+006  7.2371e+005 90490 237749,237801,237775
 3.4000e+001 237850 -5.9061e+005 -4.4127e+006  1.2152e+006 90490 237723,237801,237749
 3.4000e+001 237827 -9.5795e+005 -4.5091e+006 -8.7832e+005 90490 237697,237801,237723
 3.4000e+001 238074 -8.0057e+005 -6.3864e+006  1.6033e+005 90100 237898,237976,237950
 3.4000e+001 238051 -1.8537e+006 -6.6225e+006  2.1865e+005 90100 237898,238002,237976
 3.4000e+001 238028 -6.0727e+005 -5.9936e+006  1.5054e+004 90100 237898,237950,237924
 3.4000e+001 238275 -3.9430e+005 -3.4016e+006  5.6640e+005 89696 238125,238177,238151
 3.4000e+001 238252 -3.4717e+005 -2.8152e+006 -5.5514e+005 89696 238099,238177,238125
 3.4000e+001 238229 -3.3078e+005 -3.3982e+006 -5.1833e+005 89696 238099,238203,238177
 3.4000e+001 238427  2.3534e+004 -7.0634e+004 -1.8075e+004 89206 238326,238378,238352
 3.4000e+001 238404 -1.6299e+004 -1.3192e+005 -4.7107e+004 89206 238300,238378,238326
 3.4000e+001 238579 -1.6315e+006 -5.3859e+006  1.7876e+006 88908 238452,238504,238478
 3.4000e+001 238556 -3.9282e+005 -4.5819e+006  6.1386e+005 88908 238452,238530,238504
 3.4000e+001 238682 -1.2519e+002 -4.5735e+005 -3.1752e+002 88568 238604,238656,238630
 3.4000e+001 238883 -6.8015e+003 -5.7408e+006  1.5475e+006 88278 238733,238811,238785
 3.4000e+001 238860 -5.7060e+005 -4.1243e+006  1.4261e+006 88278 238707,238811,238733
 3.4000e+001 238837 -2.0726e+005 -5.9879e+006  1.1134e+006 88278 238733,238785,238759
 3.4000e+001 239035 -1.2444e+006 -4.7074e+006 -3.6428e+005 87988 238908,238960,238934
 3.4000e+001 239012 -1.4165e+006 -2.7347e+006  3.0851e+005 87988 238908,238986,238960
 3.4000e+001 239138 -2.3843e+004 -9.3875e+005  6.3444e+004 87648 239060,239112,239086
 3.4000e+001 239339 -1.0459e+006 -3.1936e+006 -1.8597e+006 87358 239163,239215,239189
 3.4000e+001 239316 -1.0567e+006 -2.2036e+006 -5.2834e+005 87358 239163,239241,239215
 3.4000e+001 239293 -8.3653e+005 -1.1520e+006 -9.8166e+005 87358 239163,239267,239241
 3.4000e+001 239589 -1.0423e+002 -9.1794e+001 -9.2815e+001 86961 239390,239468,239416
 3.4000e+001 239566  3.4926e+002  9.5540e+001  7.2271e+001 86961 239390,239494,239468
 3.4000e+001 239543 -3.7610e+001  3.1446e+001 -3.9437e+001 86961 239416,239468,239442
 3.4000e+001 239520  2.0396e+001  4.5722e+001 -4.1670e+001 86961 239364,239494,239390
 3.4000e+001 239741 -1.1833e+006 -4.2685e+006 -5.1883e+005 86621 239640,239692,239666
 3.4000e+001 239718 -5.2554e+005 -5.4532e+006 -1.3340e+006 86621 239614,239692,239640
 3.4000e+001 239893 -4.5764e+005 -5.4975e+006  1.2847e+006 86217 239792,239844,239818
 3.4000e+001 239870 -5.7553e+005 -4.9594e+006  9.2658e+005 86217 239766,239844,239792
 3.4000e+001 240045 -7.6472e+005 -4.6235e+006  4.6978e+005 85827 239918,239970,239944
 3.4000e+001 240022 -1.8687e+005 -4.4700e+006  2.1088e+005 85827 239918,239996,239970
 3.4000e+001 240197 -7.9978e+005 -7.9283e+006  8.8416e+005 85437 240096,240148,240122
 3.4000e+001 240174 -1.6864e+006 -3.0265e+006 -4.6480e+005 85437 240070,240148,240096
 3.4000e+001 240349 -1.2725e+005 -1.4108e+006  4.5531e+005 85147 240222,240274,240248
 3.4000e+001 240326 -3.4122e+005 -1.0896e+006  1.3893e+005 85147 240222,240300,240274
 3.4000e+001 240501 -4.3120e+005 -1.9283e+006  8.9662e+005 84807 240374,240426,240400
 3.4000e+001 240478 -9.8121e+005 -1.8177e+006  7.1880e+005 84807 240374,240452,240426
 3.4000e+001 240653  2.9763e+002  6.6372e+002 -2.0974e+002 84303 240552,240604,240578
 3.4000e+001 240630  4.3564e+002  1.4226e+001  2.8037e+002 84303 240526,240604,240552
 3.4000e+001 240854 -1.6699e+005 -1.1882e+007 -5.2168e+006 83929 240704,240756,240730
 3.4000e+001 240831  1.6474e+006 -9.7430e+006  2.2987e+006 83929 240704,240782,240756
 3.4000e+001 240808 -3.2929e+006  1.6392e+006  2.7318e+006 83929 240678,240782,240704
 3.4000e+001 241055 -2.1779e+004 -1.7128e+004 -9.5582e+003 83539 240879,240957,240931
 3.4000e+001 241032 -9.5154e+004 -1.5593e+004 -3.5269e+004 83539 240879,240983,240957
 3.4000e+001 241009 -1.6936e+004 -1.0074e+004 -1.2963e+004 83539 240879,240931,240905
 3.4000e+001 241207 -2.0601e+004 -1.5408e+006  3.9418e+005 83079 241106,241158,241132
 3.4000e+001 241184 -7.4342e+004 -9.1225e+005  4.7084e+005 83079 241080,241158,241106
 3.4000e+001 241408  1.1090e+006 -4.3192e+006  4.7049e+005 82665 241232,241284,241258
 3.4000e+001 241385 -1.6036e+006 -1.2901e+007 -3.7981e+006 82665 241232,241336,241284
 3.4000e+001 241362 -4.0207e+006  4.6736e+006  6.7149e+006 82665 241284,241336,241310
 3.4000e+001 241658 -2.0067e+005 -3.8756e+006  3.3939e+005 82375 241485,241563,241511
 3.4000e+001 241635  5.0909e+004 -2.7393e+006  3.4624e+005 82375 241433,241563,241485
 3.4000e+001 241612 -6.3167e+004 -3.1416e+006  4.1151e+005 82375 241433,241485,241459
 3.4000e+001 241589 -4.9457e+005 -4.5185e+006  6.0546e+005 82375 241511,241563,241537
 3.4000e+001 241810 -5.9944e+005 -3.3744e+006 -9.3289e+003 82035 241683,241735,241709
 3.4000e+001 241787 -7.4882e+005 -3.8159e+006  5.6071e+005 82035 241683,241761,241735
 3.4000e+001 241962 -7.5883e+005 -3.5869e+006  2.8783e+005 81695 241861,241913,241887
 3.4000e+001 241939 -4.8973e+005 -4.1228e+006 -6.9520e+005 81695 241835,241913,241861
 3.4000e+001 242114 -9.6974e+005 -6.2065e+006  2.0003e+006 81355 242013,242065,242039
 3.4000e+001 242091 -5.1723e+005 -4.6452e+006  1.5675e+006 81355 241987,242065,242013
 3.4000e+001 242266 -7.1148e+004 -3.2419e+005 -6.1053e+004 80951 242139,242191,242165
 3.4000e+001 242243 -1.2052e+005 -5.4605e+005  2.7209e+003 80951 242139,242217,242191
 3.4000e+001 242467 -2.6740e+005 -4.5223e+006  5.3977e+005 80311 242291,242369,242343
 3.4000e+001 242444  7.3969e+004 -3.2134e+006  4.0877e+005 80311 242291,242395,242369
 3.4000e+001 242421 -3.1590e+005 -3.0327e+006  2.1666e+005 80311 242291,242343,242317
 3.4000e+001 242619 -1.6112e+006 -3.4406e+006  4.4098e+005 80021 242492,242544,242518
 3.4000e+001 242596 -1.4924e+006 -3.0956e+006  1.4331e+006 80021 242492,242570,242544
 3.4000e+001 242869 -2.6489e+005 -1.2325e+006  3.8883e+005 79631 242644,242722,242696
 3.4000e+001 242846 -2.0238e+005 -1.1349e+006  3.4176e+005 79631 242644,242774,242722
 3.4000e+001 242823 -2.7978e+005 -1.5341e+006  2.5456e+005 79631 242722,242774,242748
 3.4000e+001 242800 -3.2542e+005 -1.4995e+006  4.0117e+005 79631 242644,242696,242670
 3.4000e+001 243070 -4.4167e+004 -1.5371e+007  3.0781e+006 79341 242920,242972,242946
 3.4000e+001 243047 -8.7206e+005 -9.2336e+006  6.0767e+004 79341 242920,242998,242972
 3.4000e+001 243024 -1.1343e+006 -6.3516e+006  2.6844e+006 79341 242894,242998,242920
 3.4000e+001 243222 -3.3279e+005 -3.5660e+006  1.2563e+006 78801 243121,243173,243147
 3.4000e+001 243199 -9.5538e+005 -5.4999e+006  2.1127e+006 78801 243095,243173,243121
 3.4000e+001 243423 -7.4893e+005 -4.4397e+006 -5.6256e+005 78511 243273,243325,243299
 3.4000e+001 243400  5.5155e+005 -8.7833e+006  1.7151e+006 78511 243273,243351,243325
 3.4000e+001 243377 -5.3422e+003 -9.0143e+006  2.2203e+005 78511 243247,243351,243273
 3.4000e+001 243624 -3.5462e+005 -3.1885e+006 -5.7975e+005 78107 243474,243552,243526
 3.4000e+001 243601 -4.4980e+005 -2.7097e+006 -8.2728e+005 78107 243448,243552,243474
 3.4000e+001 243578 -8.6436e+005 -4.7449e+006 -2.0399e+006 78107 243474,243526,243500
 3.4000e+001 243776 -6.9397e+005 -3.8027e+006 -8.8764e+005 77653 243649,243701,243675
 3.4000e+001 243753 -1.6608e+006 -7.0437e+006 -3.3413e+005 77653 243649,243727,243701
 3.4000e+001 243977 -6.1056e+005 -5.7695e+006 -8.8190e+004 77093 243801,243853,243827
 3.4000e+001 243954 -1.8266e+005 -4.4046e+006  5.5450e+005 77093 243801,243879,243853
 3.4000e+001 243931  7.0741e+004 -3.6084e+006  2.2716e+005 77093 243801,243905,243879
 3.4000e+001 244080 -1.5111e+006 -5.0207e+006  1.6882e+005 76791 244002,244054,244028
 3.4000e+001 244232 -2.7801e+005 -4.3411e+006  4.8607e+003 76311 244131,244183,244157
 3.4000e+001 244209 -1.0727e+005 -8.6754e+006  5.7117e+005 76311 244105,244183,244131
 3.4000e+001 244433 -1.5614e+006 -1.7559e+007  3.2268e+006 75903 244283,244335,244309
 3.4000e+001 244410 -7.8425e+005 -1.3826e+007  5.1299e+005 75903 244283,244361,244335
 3.4000e+001 244387 -2.5969e+006 -1.0403e+007  3.0617e+006 75903 244257,244361,244283
 3.4000e+001 244585  7.9690e+004 -1.6909e+007  1.8685e+006 75419 244458,244510,244484
 3.4000e+001 244562 -6.7608e+005 -1.1766e+007  7.7431e+005 75419 244458,244536,244510
 3.4000e+001 244737 -3.5984e+005 -1.9059e+006 -1.4473e+005 75215 244636,244688,244662
 3.4000e+001 244714 -2.4234e+005 -4.9493e+006 -1.5513e+005 75215 244610,244688,244636
 3.4000e+001 244889 -9.9183e+005 -5.0019e+006 -5.3922e+005 74857 244788,244840,244814
 3.4000e+001 244866 -3.8472e+005 -2.7597e+006 -2.1009e+005 74857 244762,244840,244788
 3.4000e+001 245041  4.1632e+004 -1.9265e+005 -1.3815e+005 74653 244940,244992,244966
 3.4000e+001 245018 -2.1373e+004 -4.0707e+004  7.0197e+004 74653 244914,244992,244940
 3.4000e+001 245144 -2.4885e+005 -9.3199e+006 -1.5755e+006 74359 245066,245118,245092
 3.4000e+001 245296 -3.4913e+004 -1.7970e+006 -5.8558e+005 74007 245169,245221,245195
 3.4000e+001 245273 -4.1993e+005 -3.0896e+006 -8.2286e+005 74007 245169,245247,245221
 3.4000e+001 245448 -8.4185e+005 -8.7079e+006  2.1979e+006 73711 245321,245373,245347
 3.4000e+001 245425 -1.6333e+005 -8.4814e+006 -3.7613e+006 73711 245321,245399,245373
 3.4000e+001 245600  5.4197e+005 -1.2565e+007 -8.6523e+005 73301 245499,245551,245525
 3.4000e+001 245577 -1.7386e+006 -9.2674e+006  1.7940e+006 73301 245473,245551,245499
 3.4000e+001 245752 -2.0599e+006 -2.9769e+006 -1.7820e+006 72995 245625,245677,245651
 3.4000e+001 245729  8.3210e+005 -1.2765e+007 -1.6676e+006 72995 245625,245703,245677
 3.4000e+001 245953 -2.5917e+006 -1.3820e+007  1.8447e+006 72585 245777,245829,245803
 3.4000e+001 245930 -1.2754e+006 -1.5922e+007  3.8175e+006 72585 245777,245855,245829
 3.4000e+001 245907 -7.4988e+005 -1.2155e+007  2.5213e+006 72585 245777,245881,245855
 3.4000e+001 246154 -3.0199e+005 -6.5485e+006  1.2199e+006 72127 246030,246082,246056
 3.4000e+001 246131 -1.0520e+006 -8.8635e+006  7.0210e+005 72127 245978,246082,246030
 3.4000e+001 246108 -8.7299e+004 -8.2040e+006  1.0325e+005 72127 245978,246030,246004
 3.4000e+001 246257 -1.1170e+006 -2.6381e+006 -1.5783e+005 71737 246179,246231,246205
 3.4000e+001 246360 -8.4413e+004 -2.8183e+006  3.3704e+005 71447 246282,246334,246308
 3.4000e+001 246512 -1.8946e+005 -2.7130e+006  8.0600e+005 71157 246385,246437,246411
 3.4000e+001 246489 -4.4311e+004 -2.4035e+006  2.7749e+005 71157 246385,246463,246437
 3.4000e+001 246664 -1.7342e+005 -2.8840e+006 -3.2689e+005 70753 246537,246589,246563
 3.4000e+001 246641 -6.2749e+005 -1.7186e+006 -1.2800e+005 70753 246537,246615,246589
 3.4000e+001 246865 -2.1479e+006 -1.1515e+007  7.0879e+006 70249 246715,246767,246741
 3.4000e+001 246842 -2.9259e+006 -1.0310e+007  7.6036e+004 70249 246715,246793,246767
 3.4000e+001 246819 -6.3723e+005 -1.4650e+007 -2.6774e+006 70249 246689,246793,246715
 3.4000e+001 247066 -1.2428e+005 -2.1119e+006  4.0427e+005 70023 246916,246994,246942
 3.4000e+001 247043  6.8507e+004 -2.5304e+006  2.3500e+005 70023 246890,246994,246916
 3.4000e+001 247020 -1.0560e+005 -1.8592e+006  2.4534e+005 70023 246942,246994,246968
 3.4000e+001 247267 -2.6769e+005 -4.5666e+006 -4.3013e+005 69633 247091,247143,247117
 3.4000e+001 247244 -8.0516e+004 -3.3699e+006 -3.4133e+005 69633 247091,247169,247143
 3.4000e+001 247221 -3.7372e+004 -2.8973e+006 -3.0563e+005 69633 247091,247195,247169
 3.4000e+001 247419 -8.6858e+005 -5.4469e+006  6.7244e+005 69457 247318,247370,247344
 3.4000e+001 247396 -1.0418e+006 -3.5672e+006  8.2463e+005 69457 247292,247370,247318
 3.4000e+001 247522 -9.1259e+002 -1.3710e+003  1.1264e+003 69209 247444,247496,247470
 3.4000e+001 247625 -1.7160e+006 -1.5206e+006 -5.0551e+005 68919 247547,247599,247573
 3.4000e+001 247777  3.0683e+005 -6.6524e+006 -3.9036e+005 68579 247650,247702,247676
 3.4000e+001 247754 -2.3060e+005 -2.5535e+006 -1.0581e+005 68579 247650,247728,247702
 3.4000e+001 247929  1.4155e+005 -4.1278e+006  1.9103e+006 68289 247802,247854,247828
 3.4000e+001 247906 -2.0001e+005 -1.6897e+006 -2.7290e+005 68289 247802,247880,247854
 3.4000e+001 248081 -3.3970e+005 -5.3275e+006  1.2731e+006 67949 247980,248032,248006
 3.4000e+001 248058 -4.6599e+005 -1.1827e+006  6.9017e+004 67949 247954,248032,247980
 3.4000e+001 248233 -1.5997e+006 -5.6590e+006 -6.7758e+005 67616 248132,248184,248158
 3.4000e+001 248210 -5.7091e+005 -5.9780e+006 -3.8825e+005 67616 248106,248184,248132
 3.4000e+001 248434 -8.4985e+004 -4.2654e+006 -1.6401e+005 67212 248284,248336,248310
 3.4000e+001 248411 -6.5048e+004 -4.3545e+006 -4.9136e+005 67212 248258,248336,248284
 3.4000e+001 248388 -1.4899e+006 -2.9547e+006 -5.8041e+005 67212 248258,248362,248336
 3.4000e+001 248586 -2.4309e+004 -5.3360e+006  5.4770e+005 66872 248485,248537,248511
 3.4000e+001 248563 -7.8185e+005 -1.6335e+006 -1.7003e+005 66872 248459,248537,248485
 3.4000e+001 248738 -2.4391e+005 -5.0954e+006  1.0581e+005 66510 248637,248689,248663
 3.4000e+001 248715 -3.5262e+005 -8.0276e+006  1.7427e+005 66510 248611,248689,248637
 3.4000e+001 248890 -2.5796e+004 -6.2144e+005  1.2607e+005 66220 248789,248841,248815
 3.4000e+001 248867 -7.6663e+004 -7.9187e+005 -1.8585e+005 66220 248763,248841,248789
 3.4000e+001 249091 -1.0250e+006 -1.0380e+007  3.1848e+006 65759 248915,248967,248941
 3.4000e+001 249068 -7.9793e+005 -9.4534e+006  3.2010e+006 65759 248915,248993,248967
 3.4000e+001 249045 -4.2758e+005 -6.6837e+006  1.3097e+006 65759 248915,249019,248993
 3.4000e+001 249243 -1.1433e+005 -8.0114e+006  1.6956e+006 65419 249142,249194,249168
 3.4000e+001 249220 -1.8305e+005 -3.9124e+006  3.9646e+005 65419 249116,249194,249142
 3.4000e+001 249395 -4.7252e+005 -2.7609e+006 -4.0420e+005 65079 249268,249320,249294
 3.4000e+001 249372 -4.7689e+005 -3.6566e+006 -6.6970e+005 65079 249268,249346,249320
 3.4000e+001 249547 -4.2470e+004 -7.5046e+005 -9.0390e+004 64739 249420,249472,249446
 3.4000e+001 249524 -1.6012e+005 -8.1629e+005  5.8441e+003 64739 249420,249498,249472
 3.4000e+001 249650 -1.3165e+006 -5.7631e+006 -2.3996e+006 64342 249572,249624,249598
 3.4000e+001 249851 -3.8531e+005 -5.3823e+006 -5.0790e+005 63938 249701,249779,249753
 3.4000e+001 249828 -1.6214e+005 -5.5914e+006  1.0667e+006 63938 249675,249779,249701
 3.4000e+001 249805 -5.4686e+005 -6.6973e+006 -3.2171e+005 63938 249701,249753,249727
 3.4000e+001 250052 -6.0314e+005 -4.7240e+006 -7.2385e+005 63341 249876,249954,249902
 3.4000e+001 250029 -1.1146e+006 -5.8805e+006 -3.2508e+005 63341 249876,249980,249954
 3.4000e+001 250006  7.5635e+005 -6.5682e+006  7.8393e+005 63341 249902,249954,249928
 3.4000e+001 250253 -1.4934e+005 -3.4788e+006 -4.3144e+005 63058 250077,250129,250103
 3.4000e+001 250230 -5.1725e+005 -3.7919e+006 -1.1955e+005 63058 250077,250155,250129
 3.4000e+001 250207 -3.2510e+005 -3.4728e+006 -5.9492e+005 63058 250077,250181,250155
 3.4000e+001 250454 -9.1896e+005 -7.4090e+006  1.3447e+006 62832 250304,250382,250330
 3.4000e+001 250431  2.2554e+005 -9.2858e+006 -2.4487e+006 62832 250278,250382,250304
 3.4000e+001 250408 -2.3343e+006 -4.5456e+006  2.8620e+005 62832 250330,250382,250356
 3.4000e+001 250606  8.7738e+004 -1.8558e+007  7.4372e+005 62428 250479,250531,250505
 3.4000e+001 250583 -6.2260e+005 -1.2754e+007 -5.0369e+005 62428 250479,250557,250531
 3.4000e+001 250758 -6.4215e+004 -7.3288e+006  6.7150e+005 62202 250631,250683,250657
 3.4000e+001 250735 -1.1164e+005 -8.0185e+006  1.6735e+006 62202 250631,250709,250683
 3.4000e+001 250861 -1.3360e+006 -2.5199e+006 -6.7884e+004 61954 250783,250835,250809
 3.4000e+001 251062 -2.3200e+006 -1.2462e+007 -1.6313e+005 61557 250912,250990,250938
 3.4000e+001 251039 -8.8756e+004 -1.3715e+007  1.5959e+005 61557 250886,250990,250912
 3.4000e+001 251016 -9.7341e+005 -1.1343e+007 -1.7623e+006 61557 250938,250990,250964
 3.4000e+001 251263 -1.0540e+006 -7.3899e+006 -9.6268e+004 61167 251113,251165,251139
 3.4000e+001 251240 -4.2862e+005 -7.2748e+006 -4.1287e+005 61167 251113,251191,251165
 3.4000e+001 251217 -1.2632e+006 -7.0798e+006  1.8997e+006 61167 251087,251191,251113
 3.4000e+001 251415 -1.1867e+006 -3.3691e+006  9.2774e+005 60827 251288,251340,251314
 3.4000e+001 251392 -5.6477e+005 -1.6540e+006 -2.3466e+004 60827 251288,251366,251340
 3.4000e+001 251567  1.2248e+005 -4.9911e+006  3.9770e+005 60487 251466,251518,251492
 3.4000e+001 251544  4.0938e+004 -3.3899e+006 -3.0061e+005 60487 251440,251518,251466
 3.4000e+001 251719  6.5911e+004 -9.9270e+006 -3.0750e+005 59983 251592,251644,251618
 3.4000e+001 251696 -9.1219e+005 -8.1874e+006 -2.4161e+004 59983 251592,251670,251644
 3.4000e+001 251920  1.9517e+004 -1.9749e+006 -1.8789e+004 59807 251770,251848,251796
 3.4000e+001 251897  2.8222e+004 -1.8464e+006 -3.9723e+004 59807 251744,251848,251770
 3.4000e+001 251874 -3.1025e+004 -2.2518e+006 -5.3955e+004 59807 251796,251848,251822
 3.4000e+001 252023 -1.7726e+005 -4.5712e+006  1.9101e+004 59517 251945,251997,251971
 3.4000e+001 252175  1.5343e+006 -1.3309e+007 -2.8286e+005 59269 252074,252126,252100
 3.4000e+001 252152 -1.9299e+005 -8.1853e+006  1.6284e+005 59269 252048,252126,252074
 3.4000e+001 252278 -4.3819e+005 -2.4331e+006  1.1052e+006 58979 252200,252252,252226
 3.4000e+001 252381 -2.2806e+006 -2.6152e+006  1.0628e+006 58689 252303,252355,252329
 3.4000e+001 252533 -9.5434e+005 -4.5322e+006 -4.4229e+005 58249 252432,252484,252458
 3.4000e+001 252510 -9.9843e+005 -5.4635e+006 -1.0198e+006 58249 252406,252484,252432
 3.4000e+001 252734 -2.3490e+005 -4.4107e+006 -5.0747e+004 57902 252584,252662,252610
 3.4000e+001 252711  5.6692e+005 -4.7032e+006 -1.0008e+005 57902 252558,252662,252584
 3.4000e+001 252688 -1.2567e+005 -3.4877e+006 -3.3850e+005 57902 252610,252662,252636
 3.4000e+001 252886 -4.0208e+004 -4.6777e+006 -2.3791e+005 57540 252785,252837,252811
 3.4000e+001 252863  2.1815e+005 -4.4349e+006 -8.7507e+004 57540 252759,252837,252785
 3.4000e+001 253038 -5.4449e+005 -5.7631e+006  1.3860e+006 57086 252937,252989,252963
 3.4000e+001 253015 -2.6980e+005 -2.4873e+006  1.7982e+005 57086 252911,252989,252937
 3.4000e+001 253239 -1.4925e+006 -5.8047e+006 -1.7200e+006 56796 253063,253141,253115
 3.4000e+001 253216  1.5780e+005 -6.7564e+006 -4.0121e+005 56796 253063,253167,253141
 3.4000e+001 253193 -7.3920e+005 -7.1083e+006 -2.1679e+006 56796 253063,253115,253089
 3.4000e+001 253342 -5.6344e+005 -1.6894e+007  1.4690e+004 56349 253264,253316,253290
 3.4000e+001 253543 -9.2541e+005 -8.4757e+006 -8.6384e+005 56009 253367,253419,253393
 3.4000e+001 253520 -6.3878e+005 -4.9482e+006 -5.3283e+005 56009 253367,253445,253419
 3.4000e+001 253497 -2.5433e+005 -6.3997e+006  1.3072e+005 56009 253367,253471,253445
 3.4000e+001 253695 -3.2931e+005 -2.1299e+006  3.0482e+005 55733 253594,253646,253620
 3.4000e+001 253672 -1.2597e+006 -7.4529e+005 -3.6349e+004 55733 253568,253646,253594
 3.4000e+001 253798 -5.1499e+005 -2.2592e+006 -1.8385e+005 55557 253720,253772,253746
 3.4000e+001 253950 -5.7909e+005 -4.0451e+006  2.3854e+005 55153 253849,253901,253875
 3.4000e+001 253927  1.6066e+004 -4.7128e+006 -5.5835e+005 55153 253823,253901,253849
 3.4000e+001 254151 -1.1944e+006 -4.6415e+006  7.1800e+005 54863 253975,254053,254001
 3.4000e+001 254128 -5.7495e+005 -4.7897e+006 -5.8311e+004 54863 253975,254079,254053
 3.4000e+001 254105 -5.0604e+005 -3.6462e+006  1.4884e+005 54863 254001,254053,254027
 3.4000e+001 254303  1.3708e+005 -2.4402e+006  2.3961e+005 54373 254176,254228,254202
 3.4000e+001 254280  3.7401e+004 -1.5945e+006  7.4209e+004 54373 254176,254254,254228
 3.4000e+001 254455 -1.1344e+005 -5.1872e+006 -3.6291e+005 53975 254354,254406,254380
 3.4000e+001 254432 -6.2403e+005 -1.2329e+006  1.9316e+005 53975 254328,254406,254354
 3.4000e+001 254607 -3.3784e+005 -4.9348e+006 -4.9031e+005 53585 254480,254532,254506
 3.4000e+001 254584 -3.5882e+005 -4.7680e+006 -5.1397e+005 53585 254480,254558,254532
 3.4000e+001 254808 -9.4434e+005 -3.5036e+006 -1.3192e+003 53245 254658,254736,254684
 3.4000e+001 254785 -1.0617e+006 -1.6221e+006 -3.6333e+005 53245 254632,254736,254658
 3.4000e+001 254762 -5.1027e+005 -2.5407e+006 -4.1310e+005 53245 254684,254736,254710
 3.4000e+001 254911 -2.6736e+005 -4.3578e+006  2.6390e+005 52955 254833,254885,254859
 3.4000e+001 255063 -7.0072e+005 -6.0286e+006 -1.1634e+005 52551 254962,255014,254988
 3.4000e+001 255040 -7.0382e+005 -6.5397e+006 -3.3804e+005 52551 254936,255014,254962
 3.4000e+001 255264 -5.1167e+005 -1.0011e+006  6.2026e+005 52261 255114,255166,255140
 3.4000e+001 255241 -9.4942e+005 -2.5775e+006  1.2103e+006 52261 255114,255192,255166
 3.4000e+001 255218  9.1494e+004 -3.9830e+006 -1.0241e+005 52261 255088,255192,255114
 3.4000e+001 255416 -4.8920e+005 -4.9542e+006  1.4786e+006 51971 255289,255341,255315
 3.4000e+001 255393 -2.1040e+005 -4.5202e+006 -2.1586e+005 51971 255289,255367,255341
 3.4000e+001 255568 -1.4919e+006 -1.0931e+006 -2.1425e+005 51681 255441,255493,255467
 3.4000e+001 255545 -2.3606e+005 -7.1524e+006  7.3420e+005 51681 255441,255519,255493
 3.4000e+001 255769 -1.9994e+005 -3.1262e+006 -9.9603e+004 51291 255619,255697,255671
 3.4000e+001 255746 -1.7998e+005 -2.8428e+006 -3.2256e+005 51291 255593,255697,255619
 3.4000e+001 255723 -2.0843e+005 -4.7953e+006 -5.1339e+005 51291 255619,255671,255645
 3.4000e+001 255921 -4.0266e+005 -2.9072e+006  7.6238e+005 50951 255820,255872,255846
 3.4000e+001 255898 -1.1263e+005 -1.9676e+006  9.8656e+004 50951 255794,255872,255820
 3.4000e+001 256171 -1.2245e+006 -4.1967e+006 -4.6866e+003 50547 256024,256076,256050
 3.4000e+001 256148 -9.2540e+005 -4.2901e+006  4.5109e+005 50547 255972,256076,256024
 3.4000e+001 256125 -2.8777e+005 -5.0666e+006 -1.2484e+005 50547 255946,256076,255972
 3.4000e+001 256102 -8.6139e+005 -3.6997e+006  2.4473e+005 50547 255972,256024,255998
 3.4000e+001 256323  3.2291e+005 -5.2289e+006  9.1219e+005 50093 256196,256248,256222
 3.4000e+001 256300 -9.8916e+005 -2.6251e+006 -1.1386e+006 50093 256196,256274,256248
 3.4000e+001 256426  2.3962e+001 -6.7876e+001 -4.2030e+001 49845 256348,256400,256374
 3.4000e+001 256627 -9.8912e+004 -4.8776e+006  1.1247e+005 49555 256477,256555,256503
 3.4000e+001 256604 -2.5939e+005 -3.5116e+006  1.2650e+005 49555 256451,256555,256477
 3.4000e+001 256581 -4.1042e+005 -4.2305e+006  2.9911e+005 49555 256503,256555,256529
 3.4000e+001 256828 -7.3422e+005 -2.9018e+006 -2.0654e+005 49056 256652,256730,256678
 3.4000e+001 256805 -3.3749e+005 -3.1273e+006 -4.9295e+005 49056 256652,256756,256730
 3.4000e+001 256782 -6.4654e+005 -2.3164e+006 -6.0298e+005 49056 256678,256730,256704
 3.4000e+001 256931 -7.3455e+004 -1.7783e+005  5.9709e+004 48766 256853,256905,256879
 3.4000e+001 257083 -9.4436e+005 -4.3839e+006 -7.1489e+005 48568 256982,257034,257008
 3.4000e+001 257060 -7.5474e+005 -3.6404e+006 -6.0554e+005 48568 256956,257034,256982
 3.4000e+001 257186 -3.7236e+003 -2.5060e+006  2.1005e+003 48228 257108,257160,257134
 3.4000e+001 257338 -4.3301e+005 -1.7477e+006  6.1721e+005 47888 257237,257289,257263
 3.4000e+001 257315 -4.2693e+005 -1.7406e+006  6.2528e+005 47888 257211,257289,257237
 3.4000e+001 257539 -2.8709e+005 -4.2906e+006  1.2897e+005 47548 257363,257441,257415
 3.4000e+001 257516 -5.6840e+005 -4.0281e+006 -3.5504e+005 47548 257363,257467,257441
 3.4000e+001 257493 -5.7125e+005 -3.0972e+006 -1.6895e+005 47548 257363,257415,257389
 3.4000e+001 257740 -2.5727e+005 -4.2954e+006  4.3404e+005 46994 257564,257642,257616
 3.4000e+001 257717 -4.3508e+005 -3.5451e+006  1.5599e+005 46994 257564,257668,257642
 3.4000e+001 257694 -7.2523e+005 -4.5961e+006  6.4681e+004 46994 257564,257616,257590
 3.4000e+001 257843 -9.9426e+005 -2.4679e+006 -6.9394e+004 46654 257765,257817,257791
 3.4000e+001 257995 -7.3569e+005 -3.3355e+006  2.7773e+005 46364 257894,257946,257920
 3.4000e+001 257972 -7.1255e+005 -4.0904e+006 -1.4893e+005 46364 257868,257946,257894
 3.4000e+001 258147 -1.7353e+005 -3.3849e+006  2.4893e+005 46024 258046,258098,258072
 3.4000e+001 258124 -3.3477e+005 -3.0654e+006  3.4400e+005 46024 258020,258098,258046
 3.4000e+001 258250 -7.2261e+005 -2.5656e+006  9.4138e+005 45741 258172,258224,258198
 3.4000e+001 258402 -2.1195e+005 -3.0040e+006  2.8922e+005 45401 258301,258353,258327
 3.4000e+001 258379 -6.1293e+005 -1.8376e+006  2.4777e+005 45401 258275,258353,258301
 3.4000e+001 258603 -7.1258e+005 -2.1804e+006 -1.7186e+003 45071 258427,258505,258479
 3.4000e+001 258580 -1.8590e+005 -5.1475e+006  2.8719e+005 45071 258427,258531,258505
 3.4000e+001 258557 -2.1861e+005 -2.8610e+006  2.4558e+005 45071 258427,258479,258453
 3.4000e+001 258755 -1.8345e+005 -3.8919e+006 -3.3886e+005 44681 258654,258706,258680
 3.4000e+001 258732 -1.9334e+005 -3.9641e+006 -3.5113e+005 44681 258628,258706,258654
 3.4000e+001 258907 -7.2841e+005 -1.0817e+006 -9.5493e+004 44157 258806,258858,258832
 3.4000e+001 258884 -2.9290e+005 -1.3720e+006 -7.3180e+004 44157 258780,258858,258806
 3.4000e+001 259010 -7.1717e+005 -6.4564e+005  1.7150e+004 43705 258932,258984,258958
 3.4000e+001 259113 -3.9612e+005 -3.5537e+006  2.4529e+005 43284 259035,259087,259061
 3.4000e+001 259216 -6.2981e+005 -2.9538e+006 -1.3964e+005 42954 259138,259190,259164
 3.4000e+001 259319 -9.1064e+005 -1.9717e+006  2.2383e+004 42116 259241,259293,259267
 3.4000e+001 259422 -2.0463e+005 -3.6150e+006 -2.0595e+005 41804 259344,259396,259370
 3.4000e+001 259525 -5.9016e+005 -5.4015e+006  7.6721e+005 41219 259447,259499,259473
 3.4000e+001 259628 -8.4363e+005 -2.8402e+006 -3.8757e+005 385 259550,259602,259576
 3.6000e+001 190120 -3.7569e+005 -2.7357e+006 -3.8851e+005 189630 189993,190045,190019
 3.6000e+001 190097 -7.4608e+005 -1.9125e+006 -1.1692e+005 189630 189993,190071,190045
 3.6000e+001 190319 -8.4145e+005 -2.3561e+006  3.4586e+005 189312 190169,190221,190195
 3.6000e+001 190296 -5.4846e+005 -1.3688e+006 -5.5097e+005 189312 190169,190247,190221
 3.6000e+001 190273 -5.7633e+005 -1.0351e+006  9.5046e+004 189312 190143,190247,190169
 3.6000e+001 190518 -3.3028e+005 -8.1160e+005 -5.4673e+004 189124 190368,190446,190420
 3.6000e+001 190495 -6.3176e+005 -4.8330e+005  1.9681e+005 189124 190342,190446,190368
 3.6000e+001 190472 -6.0685e+005 -8.4190e+005 -1.7256e+005 189124 190368,190420,190394
 3.6000e+001 190619 -4.6215e+005 -4.9793e+005 -1.8016e+004 188926 190541,190593,190567
 3.6000e+001 190771 -5.5006e+005 -8.9399e+005 -2.6553e+004 188614 190670,190722,190696
 3.6000e+001 190748 -4.0709e+005 -6.3712e+005  8.9987e+004 188614 190644,190722,190670
 3.6000e+001 190972 -2.9788e+005 -1.2613e+006 -3.0151e+005 188324 190848,190900,190874
 3.6000e+001 190949 -5.6365e+005 -1.4330e+006 -4.2444e+005 188324 190796,190900,190848
 3.6000e+001 190926 -6.1592e+004 -2.0557e+006 -2.0538e+005 188324 190796,190848,190822
 3.6000e+001 191124 -5.6167e+005 -2.1358e+006 -2.1647e+005 188034 191023,191075,191049
 3.6000e+001 191101 -2.7575e+005 -2.1771e+006 -2.1093e+005 188034 190997,191075,191023
 3.6000e+001 191276 -6.8518e+005 -1.8466e+005  6.1824e+004 187836 191149,191201,191175
 3.6000e+001 191253 -1.1519e+005 -2.2813e+005  9.0787e+004 187836 191149,191227,191201
 3.6000e+001 191379 -4.5796e+005 -2.6128e+005 -8.2092e+004 187546 191301,191353,191327
 3.6000e+001 191531 -9.6537e+005 -2.5975e+006 -5.2098e+005 187256 191430,191482,191456
 3.6000e+001 191508 -3.1816e+005 -1.9926e+006  1.6274e+005 187256 191404,191482,191430
 3.6000e+001 191634 -5.5892e+005 -3.7530e+005 -7.3164e+004 187058 191556,191608,191582
 3.6000e+001 191835 -2.8376e+005 -3.6051e+005 -1.4778e+004 186860 191659,191711,191685
 3.6000e+001 191812 -4.5665e+005 -2.4427e+005 -3.9491e+004 186860 191659,191737,191711
 3.6000e+001 191789 -4.1131e+005 -4.6571e+004 -3.6844e+004 186860 191659,191763,191737
 3.6000e+001 191987 -5.8796e+005 -1.6747e+006  4.8416e+005 186662 191886,191938,191912
 3.6000e+001 191964 -5.2118e+005 -8.2029e+005 -1.1821e+005 186662 191860,191938,191886
 3.6000e+001 192090 -7.0370e+005 -1.1761e+006  3.0978e+005 186486 192012,192064,192038
 3.6000e+001 192242 -4.7498e+005 -1.9795e+006 -2.2453e+004 186288 192115,192167,192141
 3.6000e+001 192219 -4.8022e+005 -1.7005e+006  4.3526e+004 186288 192115,192193,192167
 3.6000e+001 192394 -3.8243e+005 -1.5192e+006 -3.3478e+005 185935 192293,192345,192319
 3.6000e+001 192371 -2.9267e+005 -1.6307e+006 -3.2472e+005 185935 192267,192345,192293
 3.6000e+001 192546 -2.1132e+005 -2.7580e+006 -2.4104e+005 185675 192419,192471,192445
 3.6000e+001 192523 -6.0125e+005 -1.1869e+006 -2.4945e+005 185675 192419,192497,192471
 3.6000e+001 192649 -2.0944e+005 -2.1977e+006 -9.9538e+004 185499 192571,192623,192597
 3.6000e+001 192801 -1.0231e+006 -8.0741e+005 -6.9293e+004 185301 192674,192726,192700
 3.6000e+001 192778 -5.1862e+005 -9.0744e+005  5.8635e+005 185301 192674,192752,192726
 3.6000e+001 193002 -1.3200e+005 -1.0768e+006 -3.9297e+005 185046 192852,192930,192878
 3.6000e+001 192979 -3.0283e+005 -1.6951e+006 -3.0984e+005 185046 192826,192930,192852
 3.6000e+001 192956  1.5784e+005 -1.8175e+006 -1.8957e+005 185046 192878,192930,192904
 3.6000e+001 193203 -1.1075e+006 -6.7525e+005 -2.1287e+005 184798 193079,193131,193105
 3.6000e+001 193180 -4.3300e+005 -2.4187e+006 -4.8749e+005 184798 193027,193131,193079
 3.6000e+001 193157 -1.7812e+006 -2.8789e+006  1.0762e+006 184798 193027,193079,193053
 3.6000e+001 193404 -3.6365e+005 -3.0598e+006 -6.0520e+004 184600 193254,193306,193280
 3.6000e+001 193381 -2.3324e+005 -1.6941e+006  8.0462e+004 184600 193254,193332,193306
 3.6000e+001 193358 -7.8253e+005 -4.3824e+005 -9.9196e+004 184600 193228,193332,193254
 3.6000e+001 193556 -1.9812e+005 -1.8709e+006 -5.2887e+005 184402 193429,193481,193455
 3.6000e+001 193533 -1.0462e+006 -1.1241e+006 -1.0899e+006 184402 193429,193507,193481
 3.6000e+001 193708 -2.4173e+005 -2.6468e+006 -3.8826e+005 184204 193607,193659,193633
 3.6000e+001 193685 -3.5966e+005 -2.3904e+006 -3.6588e+005 184204 193581,193659,193607
 3.6000e+001 193860 -6.6027e+005 -1.3447e+006  3.9285e+005 183908 193759,193811,193785
 3.6000e+001 193837 -8.3555e+004 -1.8004e+006  5.3771e+005 183908 193733,193811,193759
 3.6000e+001 194061 -4.3337e+005 -2.2906e+006  7.8063e+003 183710 193911,193989,193937
 3.6000e+001 194038 -3.9801e+005 -1.6014e+006  1.2560e+005 183710 193885,193989,193911
 3.6000e+001 194015 -7.6169e+005 -8.3894e+005 -1.3366e+005 183710 193937,193989,193963
 3.6000e+001 194262 -1.5343e+006 -3.8740e+006 -1.2432e+006 183420 194086,194164,194112
 3.6000e+001 194239 -1.3203e+006 -1.9685e+006  1.0615e+006 183420 194086,194190,194164
 3.6000e+001 194216 -2.1484e+006 -1.0646e+007  2.1534e+006 183420 194112,194164,194138
 3.6000e+001 194414 -7.5552e+005 -3.8125e+006 -2.3047e+005 183222 194287,194339,194313
 3.6000e+001 194391 -4.3497e+005 -2.8972e+005 -2.2062e+005 183222 194287,194365,194339
 3.6000e+001 194517 -7.5276e+005 -3.8682e+005  1.1038e+005 183024 194439,194491,194465
 3.6000e+001 194718  2.3544e+006 -1.5786e+007  2.9260e+006 182734 194568,194620,194594
 3.6000e+001 194695 -7.6473e+005 -2.9408e+006 -2.3865e+006 182734 194542,194620,194568
 3.6000e+001 194672 -2.6247e+006 -1.7523e+006 -9.0051e+005 182734 194542,194646,194620
 3.6000e+001 194870 -6.5793e+005 -1.6913e+006  5.3591e+005 182444 194769,194821,194795
 3.6000e+001 194847 -8.7707e+005 -1.2851e+006 -7.7873e+005 182444 194743,194821,194769
 3.6000e+001 195071 -4.5143e+005 -3.5321e+006  1.0933e+006 182154 194895,194947,194921
 3.6000e+001 195048 -4.4031e+005 -2.0585e+006  2.3970e+005 182154 194895,194999,194947
 3.6000e+001 195025 -4.5547e+005 -1.0644e+006  3.1458e+005 182154 194947,194999,194973
 3.6000e+001 195223 -4.4717e+005 -2.0323e+006  1.3396e+005 181814 195096,195148,195122
 3.6000e+001 195200 -2.8508e+005 -1.6076e+006 -3.2887e+005 181814 195096,195174,195148
 3.6000e+001 195375 -5.6223e+004 -7.1874e+005 -2.0875e+004 181524 195248,195300,195274
 3.6000e+001 195352  4.3915e+004 -2.0285e+006  2.3371e+005 181524 195248,195326,195300
 3.6000e+001 195527 -5.9597e+004 -1.0372e+006  4.5990e+005 181326 195426,195478,195452
 3.6000e+001 195504 -5.5073e+005 -2.4623e+006  8.6482e+005 181326 195400,195478,195426
 3.6000e+001 195679  1.4680e+005 -1.2846e+007 -2.2739e+005 180936 195578,195630,195604
 3.6000e+001 195656 -1.1724e+006 -3.5575e+006  7.0374e+004 180936 195552,195630,195578
 3.6000e+001 195831 -6.4252e+005 -6.1618e+005 -3.4142e+005 180646 195704,195756,195730
 3.6000e+001 195808 -6.2502e+005 -2.0878e+005 -9.2268e+004 180646 195704,195782,195756
 3.6000e+001 196032 -4.6844e+005 -2.5914e+006  9.4353e+005 180306 195882,195960,195934
 3.6000e+001 196009 -8.9756e+005 -8.9712e+005 -5.5219e+005 180306 195856,195960,195882
 3.6000e+001 195986  1.6384e+005 -3.8394e+006 -4.5724e+005 180306 195882,195934,195908
 3.6000e+001 196233 -1.3400e+005 -2.4506e+005 -5.4781e+005 179944 196057,196109,196083
 3.6000e+001 196210 -7.9637e+005 -3.2944e+006  4.2441e+005 179944 196057,196135,196109
 3.6000e+001 196187 -1.7527e+006  3.2873e+006 -1.1341e+006 179944 196057,196161,196135
 3.6000e+001 196385 -7.8294e+005 -5.9092e+005 -2.7391e+005 179604 196258,196310,196284
 3.6000e+001 196362 -1.4334e+006 -1.6587e+006 -1.6339e+006 179604 196258,196336,196310
 3.6000e+001 196586 -3.5325e+005 -9.0121e+005 -2.0099e+005 179114 196410,196488,196436
 3.6000e+001 196563  1.3386e+005 -2.5759e+006 -3.0392e+005 179114 196410,196514,196488
 3.6000e+001 196540 -8.6462e+003 -8.4777e+005 -8.7039e+004 179114 196436,196488,196462
 3.6000e+001 196738 -2.2581e+005 -2.4261e+006 -2.4904e+005 178674 196611,196663,196637
 3.6000e+001 196715 -4.4179e+005 -2.7358e+006 -8.7207e+004 178674 196611,196689,196663
 3.6000e+001 196939  1.4880e+006 -8.6993e+006 -1.0947e+006 178334 196789,196867,196841
 3.6000e+001 196916 -1.3788e+006 -8.6756e+006  1.8101e+006 178334 196763,196867,196789
 3.6000e+001 196893 -2.1201e+006 -5.8407e+006 -4.1875e+006 178334 196789,196841,196815
 3.6000e+001 197091 -3.4595e+005 -5.3690e+006 -2.6846e+005 177930 196990,197042,197016
 3.6000e+001 197068  8.1820e+004 -3.5200e+006 -1.7235e+005 177930 196964,197042,196990
 3.6000e+001 197194 -1.6583e+002 -2.5614e+005 -2.4804e+002 177732 197116,197168,197142
 3.6000e+001 197346 -2.7146e+005 -7.7464e+006  5.6365e+004 177534 197219,197271,197245
 3.6000e+001 197323 -6.9125e+004 -8.3130e+006  3.5639e+005 177534 197219,197297,197271
 3.6000e+001 197547 -1.9370e+005 -3.9060e+006 -5.9717e+005 177130 197397,197449,197423
 3.6000e+001 197524 -4.7162e+005 -3.9518e+006 -7.5529e+005 177130 197397,197475,197449
 3.6000e+001 197501 -3.7475e+005 -9.1694e+006 -1.1840e+006 177130 197371,197475,197397
 3.6000e+001 197748 -7.1245e+005 -8.0484e+006  3.7196e+005 176790 197598,197676,197624
 3.6000e+001 197725 -6.2535e+005 -5.1750e+006  6.1930e+005 176790 197572,197676,197598
 3.6000e+001 197702 -8.0605e+005 -6.0052e+006  8.2251e+005 176790 197624,197676,197650
 3.6000e+001 197900 -1.6985e+005 -5.1588e+006 -1.0560e+006 176300 197773,197825,197799
 3.6000e+001 197877 -1.8037e+005 -5.2150e+006 -1.0421e+006 176300 197773,197851,197825
 3.6000e+001 198052 -1.1544e+006 -8.1991e+006 -1.4053e+006 176010 197925,197977,197951
 3.6000e+001 198029 -1.1455e+006 -6.2810e+006 -1.3313e+006 176010 197925,198003,197977
 3.6000e+001 198204 -1.3678e+006 -4.5933e+006 -1.9388e+006 175670 198103,198155,198129
 3.6000e+001 198181 -2.0468e+006 -5.9781e+006 -1.1270e+006 175670 198077,198155,198103
 3.6000e+001 198405 -5.9289e+005 -6.5508e+006 -3.6830e+005 175266 198255,198307,198281
 3.6000e+001 198382  1.5702e+004 -7.0634e+006 -8.1557e+005 175266 198229,198307,198255
 3.6000e+001 198359 -1.1990e+006 -5.7247e+006 -1.8139e+006 175266 198229,198333,198307
 3.6000e+001 198606 -4.4077e+004 -7.5213e+005  5.5474e+004 174876 198430,198508,198482
 3.6000e+001 198583 -2.6235e+005 -8.0599e+005  5.2413e+004 174876 198430,198534,198508
 3.6000e+001 198560 -1.2874e+005 -4.6005e+005 -3.3768e+004 174876 198430,198482,198456
 3.6000e+001 198758 -3.2937e+004 -1.1336e+005 -6.2877e+004 174536 198657,198709,198683
 3.6000e+001 198735 -3.2875e+004 -1.0206e+005 -5.6612e+004 174536 198631,198709,198657
 3.6000e+001 199008 -1.1248e+005 -9.5842e+006  1.7872e+005 174132 198835,198913,198887
 3.6000e+001 198985  5.3167e+004 -4.2547e+006  4.7294e+005 174132 198809,198913,198835
 3.6000e+001 198962 -2.3606e+005 -4.6845e+006 -1.8483e+006 174132 198783,198913,198809
 3.6000e+001 198939  6.4761e+005 -1.0105e+007  2.1362e+005 174132 198835,198887,198861
 3.6000e+001 199160 -1.7153e+006 -3.5304e+006 -1.1952e+006 173842 199059,199111,199085
 3.6000e+001 199137 -1.1779e+006 -2.0044e+006 -8.2263e+005 173842 199033,199111,199059
 3.6000e+001 199361 -3.9201e+005 -1.1731e+007  1.6063e+006 173438 199237,199289,199263
 3.6000e+001 199338 -1.3722e+006 -8.3636e+006  2.0024e+006 173438 199211,199289,199237
 3.6000e+001 199315 -1.0417e+006 -1.0039e+007  5.4911e+005 173438 199185,199289,199211
 3.6000e+001 199513  1.9862e+005 -1.3325e+007  2.5603e+006 173190 199386,199438,199412
 3.6000e+001 199490  3.3082e+005 -9.7578e+006  1.6650e+005 173190 199386,199464,199438
 3.6000e+001 199665 -3.8839e+005 -2.4401e+006  2.0905e+005 172750 199564,199616,199590
 3.6000e+001 199642 -7.6158e+005 -1.0460e+006 -7.1904e+003 172750 199538,199616,199564
 3.6000e+001 199817 -9.8352e+005 -1.2961e+007 -4.6557e+006 172524 199690,199742,199716
 3.6000e+001 199794 -5.5946e+006 -5.6536e+006 -2.8854e+006 172524 199690,199768,199742
 3.6000e+001 199969 -2.3938e+004 -8.8906e+006 -4.7014e+005 172348 199842,199894,199868
 3.6000e+001 199946  8.5211e+005 -8.7750e+006  2.9415e+005 172348 199842,199920,199894
 3.6000e+001 200121  3.4386e+005 -8.0638e+006 -1.0562e+006 172008 199994,200046,200020
 3.6000e+001 200098 -6.3869e+005 -3.3788e+006 -3.8815e+005 172008 199994,200072,200046
 3.6000e+001 200273 -5.4709e+005 -5.2439e+006  4.0334e+005 171668 200172,200224,200198
 3.6000e+001 200250 -4.9617e+005 -4.9837e+006  4.0112e+005 171668 200146,200224,200172
 3.6000e+001 200474  7.4281e+004 -1.0271e+007 -1.3707e+006 171264 200350,200402,200376
 3.6000e+001 200451 -1.7506e+004 -8.5984e+006 -8.5311e+005 171264 200324,200402,200350
 3.6000e+001 200428 -8.8137e+005 -6.6586e+006  1.6488e+006 171264 200298,200402,200324
 3.6000e+001 200626  1.4236e+005 -9.4305e+006 -1.1331e+005 170832 200525,200577,200551
 3.6000e+001 200603 -2.6814e+005 -5.9933e+006 -1.1398e+005 170832 200499,200577,200525
 3.6000e+001 200827  4.3056e+005 -8.9857e+006  7.8917e+005 170492 200677,200729,200703
 3.6000e+001 200804 -1.1942e+006 -4.4793e+006 -2.6600e+006 170492 200651,200729,200677
 3.6000e+001 200781 -2.5908e+006 -3.0590e+006 -1.5893e+006 170492 200651,200755,200729
 3.6000e+001 201077  1.1375e+006 -5.8006e+006  2.6374e+005 170088 200878,200956,200904
 3.6000e+001 201054 -5.1036e+005 -5.1784e+006 -1.7811e+006 170088 200852,200956,200878
 3.6000e+001 201031  6.3832e+005 -3.9853e+006  4.9265e+006 170088 200904,200956,200930
 3.6000e+001 201008  5.2647e+006 -1.1622e+007  2.7018e+006 170088 200852,200982,200956
 3.6000e+001 201278  4.7801e+005 -1.3521e+006 -1.5672e+005 169798 201102,201154,201128
 3.6000e+001 201255 -1.5200e+006 -8.6949e+006 -1.0691e+006 169798 201102,201206,201154
 3.6000e+001 201232 -9.9138e+005 -2.6689e+006  9.0184e+005 169798 201154,201206,201180
 3.6000e+001 201430 -8.4496e+005 -1.3678e+007 -2.0232e+006 169337 201303,201355,201329
 3.6000e+001 201407 -5.0182e+005 -4.8948e+006 -4.5517e+005 169337 201303,201381,201355
 3.6000e+001 201631 -1.0311e+006 -1.1725e+007 -9.4395e+005 168883 201481,201559,201507
 3.6000e+001 201608  1.5417e+005 -8.6979e+006  1.0299e+006 168883 201455,201559,201481
 3.6000e+001 201585 -7.1964e+005 -1.0635e+007 -6.9045e+005 168883 201507,201559,201533
 3.6000e+001 201832 -3.9442e+005 -1.3009e+007  3.8967e+005 168479 201682,201734,201708
 3.6000e+001 201809 -2.4614e+006 -1.0409e+007 -1.8584e+006 168479 201656,201734,201682
 3.6000e+001 201786 -2.0841e+006 -8.9073e+006 -9.2717e+005 168479 201656,201760,201734
 3.6000e+001 202033 -1.6118e+005 -5.6481e+006  9.5490e+005 167825 201883,201935,201909
 3.6000e+001 202010 -1.2279e+006 -6.7348e+006 -1.0391e+006 167825 201857,201935,201883
 3.6000e+001 201987  3.6613e+005 -1.4816e+007  2.6575e+005 167825 201857,201961,201935
 3.6000e+001 202234 -6.4790e+005 -6.4947e+006 -1.9784e+006 167435 202058,202136,202084
 3.6000e+001 202211 -1.0450e+006 -8.7705e+006  7.0782e+005 167435 202058,202162,202136
 3.6000e+001 202188 -7.3736e+005 -3.0161e+006  4.7110e+005 167435 202084,202136,202110
 3.6000e+001 202386  1.3674e+005 -6.0410e+006 -1.4906e+005 167002 202285,202337,202311
 3.6000e+001 202363 -4.1232e+004 -4.1505e+006  5.9950e+004 167002 202259,202337,202285
 3.6000e+001 202538 -6.4472e+004 -5.4783e+006 -2.8855e+005 166662 202411,202463,202437
 3.6000e+001 202515 -4.6060e+005 -5.1849e+006 -9.1495e+003 166662 202411,202489,202463
 3.6000e+001 202690  2.1821e+005 -7.4601e+006 -1.5495e+006 166322 202589,202641,202615
 3.6000e+001 202667  3.2693e+005 -6.4023e+006 -7.2692e+005 166322 202563,202641,202589
 3.6000e+001 202891 -1.1723e+006 -2.4829e+006  1.2045e+006 165918 202715,202767,202741
 3.6000e+001 202868 -1.2157e+006 -3.4145e+006 -6.1591e+005 165918 202715,202793,202767
 3.6000e+001 202845  3.4156e+005 -5.5694e+006  1.9221e+005 165918 202715,202819,202793
 3.6000e+001 203092 -6.2165e+005 -7.7195e+006 -1.1793e+006 165628 202916,202968,202942
 3.6000e+001 203069  3.6908e+004 -1.1587e+007 -7.6943e+005 165628 202916,202994,202968
 3.6000e+001 203046 -1.3872e+006 -9.7450e+006 -2.5533e+006 165628 202916,203020,202994
 3.6000e+001 203293 -6.3736e+006 -8.1133e+006 -6.3346e+005 165266 203143,203195,203169
 3.6000e+001 203270 -3.3240e+006 -9.4582e+006  1.1271e+005 165266 203143,203221,203195
 3.6000e+001 203247 -8.9884e+005 -1.3167e+007 -3.9369e+006 165266 203117,203221,203143
 3.6000e+001 203445 -3.2982e+005 -4.1691e+006 -5.3243e+005 164826 203318,203370,203344
 3.6000e+001 203422  2.8993e+005 -5.7653e+006  6.0957e+005 164826 203318,203396,203370
 3.6000e+001 203597 -6.8672e+005 -6.2748e+006 -4.4211e+005 164386 203470,203522,203496
 3.6000e+001 203574 -7.6162e+004 -4.1730e+006 -9.0091e+004 164386 203470,203548,203522
 3.6000e+001 203798 -9.8044e+003 -6.2124e+006  8.9583e+005 163996 203622,203674,203648
 3.6000e+001 203775 -1.1956e+006 -1.0130e+006 -2.2949e+005 163996 203622,203726,203674
 3.6000e+001 203752 -2.3555e+006 -3.5885e+006  3.0549e+006 163996 203674,203726,203700
 3.6000e+001 203901  2.6636e+005 -3.6172e+006 -9.5489e+005 163770 203823,203875,203849
 3.6000e+001 204053 -1.7556e+006 -4.3267e+006  1.6463e+006 163474 203952,204004,203978
 3.6000e+001 204030 -5.6029e+005 -5.9777e+006 -1.7575e+006 163474 203926,204004,203952
 3.6000e+001 204205 -3.0026e+005 -3.9756e+006 -5.0513e+005 163034 204104,204156,204130
 3.6000e+001 204182 -6.5709e+005 -8.5578e+006 -4.6362e+006 163034 204078,204156,204104
 3.6000e+001 204357 -2.5204e+005 -5.9581e+006  7.9931e+005 162624 204256,204308,204282
 3.6000e+001 204334  1.1016e+005 -1.3049e+006 -1.3087e+004 162624 204230,204308,204256
 3.6000e+001 204509 -1.4019e+004 -1.1944e+005  4.3994e+004 162200 204382,204434,204408
 3.6000e+001 204486 -1.5869e+004 -8.1662e+004  3.1349e+004 162200 204382,204460,204434
 3.6000e+001 204710 -8.6071e+004 -1.4855e+006 -1.1549e+005 161810 204560,204638,204586
 3.6000e+001 204687  1.9664e+004 -1.9211e+006 -5.5556e+005 161810 204534,204638,204560
 3.6000e+001 204664 -2.9044e+005 -1.7032e+006 -3.8460e+005 161810 204586,204638,204612
 3.6000e+001 204862 -1.4695e+006 -4.8679e+006 -1.8961e+006 161406 204735,204787,204761
 3.6000e+001 204839 -2.9114e+006 -5.2886e+006 -1.5037e+006 161406 204735,204813,204787
 3.6000e+001 205014  1.5065e+003 -6.5448e+004  1.0751e+004 161180 204887,204939,204913
 3.6000e+001 204991 -5.2126e+003 -3.3500e+004 -4.4245e+003 161180 204887,204965,204939
 3.6000e+001 205215  5.4288e+005 -1.6731e+006 -1.4782e+005 160726 205039,205091,205065
 3.6000e+001 205192 -7.2640e+005 -6.5922e+006 -6.0309e+005 160726 205039,205143,205091
 3.6000e+001 205169 -1.0570e+005 -8.5418e+005 -1.6624e+004 160726 205091,205143,205117
 3.6000e+001 205416  9.5692e+004 -4.0331e+006  1.4899e+006 160272 205292,205344,205318
 3.6000e+001 205393 -7.5422e+005 -8.4605e+005  9.2064e+005 160272 205240,205344,205292
 3.6000e+001 205370 -5.0426e+005 -4.1071e+005  1.5433e+005 160272 205240,205292,205266
 3.6000e+001 205568 -4.1468e+003 -9.4967e+004  7.7190e+003 159932 205441,205493,205467
 3.6000e+001 205545 -9.5507e+003 -7.9271e+004  1.3804e+004 159932 205441,205519,205493
 3.6000e+001 205720 -1.5993e+004 -1.0040e+005  4.4223e+004 159542 205593,205645,205619
 3.6000e+001 205697 -2.8398e+004 -1.3006e+005  5.3841e+004 159542 205593,205671,205645
 3.6000e+001 205872  1.5276e+004 -2.9635e+004 -6.3104e+003 159252 205745,205797,205771
 3.6000e+001 205849 -3.3400e+003 -9.5167e+004  6.8449e+003 159252 205745,205823,205797
 3.6000e+001 206024 -3.6995e+006 -2.8462e+006 -1.5119e+006 159004 205923,205975,205949
 3.6000e+001 206001 -1.0773e+006 -2.1718e+006  2.0378e+005 159004 205897,205975,205923
 3.6000e+001 206127 -9.3499e+005 -7.7265e+005 -4.7255e+003 158364 206049,206101,206075
 3.6000e+001 206328  1.2289e+004 -5.2177e+004  2.7934e+004 157960 206178,206256,206204
 3.6000e+001 206305  2.3289e+004 -7.8651e+004 -1.2954e+004 157960 206152,206256,206178
 3.6000e+001 206282 -1.9454e+004 -3.0833e+004  1.6497e+004 157960 206204,206256,206230
 3.6000e+001 206529 -4.2619e+005 -1.1105e+007  2.8911e+005 157648 206405,206457,206431
 3.6000e+001 206506 -4.3327e+006 -7.2791e+006 -1.2751e+006 157648 206379,206457,206405
 3.6000e+001 206483 -1.5422e+006 -5.5030e+006  3.7031e+005 157648 206353,206457,206379
 3.6000e+001 206730  1.1956e+006 -1.3161e+007 -5.2957e+004 157208 206554,206606,206580
 3.6000e+001 206707  1.0222e+006 -1.4649e+007  1.7843e+006 157208 206554,206632,206606
 3.6000e+001 206684 -6.3284e+006 -2.0654e+006 -2.6273e+006 157208 206554,206658,206632
 3.6000e+001 206882 -5.3477e+003 -2.5170e+004 -5.0124e+003 157010 206755,206807,206781
 3.6000e+001 206859  2.1556e+003 -6.5342e+004  1.1684e+004 157010 206755,206833,206807
 3.6000e+001 207034 -1.7547e+005 -5.2823e+006 -1.1208e+005 156620 206907,206959,206933
 3.6000e+001 207011  1.5486e+005 -9.0952e+006  7.6366e+004 156620 206907,206985,206959
 3.6000e+001 207186 -2.9591e+003 -2.3262e+006  8.4968e+004 156330 207085,207137,207111
 3.6000e+001 207163 -2.9633e+005 -2.4736e+006 -7.3048e+005 156330 207059,207137,207085
 3.6000e+001 207387 -8.8503e+005 -5.5908e+006  1.9427e+006 155890 207211,207289,207237
 3.6000e+001 207364 -7.3000e+005 -5.7362e+006 -1.2114e+006 155890 207211,207315,207289
 3.6000e+001 207341 -1.3667e+006 -5.2363e+006  2.1294e+006 155890 207237,207289,207263
 3.6000e+001 207588  9.3864e+005 -2.5859e+007  7.2637e+006 155436 207438,207490,207464
 3.6000e+001 207565 -1.3857e+005 -2.0318e+007 -8.8036e+005 155436 207412,207490,207438
 3.6000e+001 207542 -1.8866e+006 -1.1784e+007 -1.0644e+006 155436 207412,207516,207490
 3.6000e+001 207789  2.1975e+006 -3.9080e+007 -2.7465e+006 155260 207639,207691,207665
 3.6000e+001 207766 -4.4254e+006 -1.3624e+007  5.2058e+006 155260 207613,207691,207639
 3.6000e+001 207743 -7.8296e+005 -1.0674e+007 -1.8651e+005 155260 207613,207717,207691
 3.6000e+001 207990  6.7650e+002 -4.6229e+003  8.6266e+002 154920 207840,207918,207892
 3.6000e+001 207967  1.0991e+003 -4.9483e+003 -6.7818e+002 154920 207814,207918,207840
 3.6000e+001 207944 -3.9748e+002 -1.3214e+003 -9.2531e+002 154920 207840,207892,207866
 3.6000e+001 208191 -3.3979e+005 -1.3093e+007 -1.8299e+006 154630 208015,208093,208041
 3.6000e+001 208168  1.7457e+005 -8.0507e+006 -1.7536e+006 154630 208015,208119,208093
 3.6000e+001 208145 -3.0774e+006 -7.2887e+006 -4.7361e+006 154630 208041,208093,208067
 3.6000e+001 208343  7.3552e-002  2.2787e-004  4.0939e-003 154240 208216,208268,208242
 3.6000e+001 208320 -1.4063e-001 -4.3568e-004 -7.8275e-003 154240 208216,208294,208268
 3.6000e+001 208495  2.7986e+006 -3.1179e+007 -6.8900e+006 153950 208394,208446,208420
 3.6000e+001 208472 -2.6567e+006 -1.4354e+007  4.7957e+006 153950 208368,208446,208394
 3.6000e+001 208647 -1.5765e+006 -1.5714e+007  9.2497e+006 153603 208520,208572,208546
 3.6000e+001 208624 -5.2614e+006 -5.8743e+006 -4.5062e+006 153603 208520,208598,208572
 3.6000e+001 208848 -5.1823e+005 -4.6766e+006  1.8078e+006 153149 208698,208776,208724
 3.6000e+001 208825  7.0459e+005 -1.0407e+007 -1.0802e+006 153149 208672,208776,208698
 3.6000e+001 208802 -1.9129e+006 -2.7442e+006  1.2380e+006 153149 208724,208776,208750
 3.6000e+001 209000 -1.1936e+006 -1.0312e+007 -3.7152e+005 152859 208873,208925,208899
 3.6000e+001 208977 -8.3922e+004 -1.6390e+007  5.3917e+005 152859 208873,208951,208925
 3.6000e+001 209152  8.2672e+005 -1.4228e+007 -3.8681e+005 152569 209051,209103,209077
 3.6000e+001 209129  6.0217e+005 -1.4623e+007 -6.3593e+005 152569 209025,209103,209051
 3.6000e+001 209304 -3.1909e-001 -4.4371e-001 -3.7627e-001 152065 209177,209229,209203
 3.6000e+001 209281  7.2938e-001  1.0142e+000  8.6009e-001 152065 209177,209255,209229
 3.6000e+001 209456  6.7285e+005 -1.1602e+007 -1.1215e+005 151775 209355,209407,209381
 3.6000e+001 209433  1.3254e+006 -1.6771e+007 -1.9932e+005 151775 209329,209407,209355
 3.6000e+001 209608 -7.9521e+005 -1.5248e+007 -5.0680e+005 151371 209481,209533,209507
 3.6000e+001 209585  8.3219e+005 -2.0281e+007  9.3144e+005 151371 209481,209559,209533
 3.6000e+001 209760 -5.4366e+005 -7.7025e+006  1.5344e+005 150981 209659,209711,209685
 3.6000e+001 209737 -7.6518e+005 -1.0686e+007 -5.4509e+006 150981 209633,209711,209659
 3.6000e+001 209912  2.7573e+006 -3.9772e+007 -3.3418e+006 150619 209811,209863,209837
 3.6000e+001 209889 -3.1323e+006 -1.8182e+007  4.1225e+006 150619 209785,209863,209811
 3.6000e+001 210064 -1.4428e+006 -2.3774e+006 -1.2263e+006 150279 209937,209989,209963
 3.6000e+001 210041  1.3206e+006 -1.9503e+007 -3.4867e+006 150279 209937,210015,209989
 3.6000e+001 210265 -7.1498e+005 -1.6508e+007  8.7659e+005 149989 210115,210167,210141
 3.6000e+001 210242 -1.2479e+005 -1.8294e+007 -1.1362e+006 149989 210115,210193,210167
 3.6000e+001 210219  8.9385e+005 -1.9584e+007 -4.8882e+005 149989 210089,210193,210115
 3.6000e+001 210417 -4.7888e+006 -5.1716e+006 -2.0046e+004 149599 210316,210368,210342
 3.6000e+001 210394 -2.3407e+006 -1.6897e+007 -2.2458e+006 149599 210290,210368,210316
 3.6000e+001 210618 -4.2551e+006 -1.3317e+007  5.2120e+006 149095 210468,210520,210494
 3.6000e+001 210595 -3.6902e+006 -1.2704e+007  2.1384e+005 149095 210442,210520,210468
 3.6000e+001 210572 -2.5953e+006 -2.6283e+007  2.2071e+006 149095 210442,210546,210520
 3.6000e+001 210819  2.4528e+001 -1.5119e+005 -2.0502e+004 148748 210695,210747,210721
 3.6000e+001 210796 -1.6725e+003 -1.2846e+005 -2.7213e+004 148748 210669,210747,210695
 3.6000e+001 210773 -1.2529e+004 -6.5036e+004  2.8596e+004 148748 210643,210747,210669
 3.6000e+001 210971  1.6960e+002 -5.7666e+002  2.7907e+002 148408 210870,210922,210896
 3.6000e+001 210948  1.9498e+002 -1.2312e+003  4.0076e+002 148408 210844,210922,210870
 3.6000e+001 211123 -8.1620e+005 -1.2757e+007  1.2595e+006 148118 210996,211048,211022
 3.6000e+001 211100  5.1561e+005 -1.6186e+007  6.0550e+006 148118 210996,211074,211048
 3.6000e+001 211275 -3.9606e+006 -1.1653e+007  3.2161e+004 147778 211148,211200,211174
 3.6000e+001 211252 -3.4812e+005 -2.7205e+007  9.8894e+006 147778 211148,211226,211200
 3.6000e+001 211427 -2.9913e+006 -7.3266e+006  2.6616e+006 147324 211326,211378,211352
 3.6000e+001 211404  9.3734e+005 -1.7008e+007 -6.3606e+005 147324 211300,211378,211326
 3.6000e+001 211628 -3.7020e+002 -7.0112e+002  5.6826e+001 147012 211452,211504,211478
 3.6000e+001 211605 -6.1175e+001 -8.8968e+002 -3.7214e+002 147012 211452,211556,211504
 3.6000e+001 211582  1.3844e+002 -7.0449e+001 -3.0370e+002 147012 211504,211556,211530
 3.6000e+001 211829 -3.7727e+006 -7.5660e+006  2.9169e+006 146636 211679,211757,211731
 3.6000e+001 211806  5.0294e+006 -2.5624e+007 -2.5813e+006 146636 211653,211757,211679
 3.6000e+001 211783  1.9225e+006 -7.8892e+006  4.1924e+006 146636 211679,211731,211705
 3.6000e+001 211981  1.0629e+002 -7.3898e+002  8.0992e+002 146246 211880,211932,211906
 3.6000e+001 211958 -3.5336e+002 -1.0713e+002  4.5907e+002 146246 211854,211932,211880
 3.6000e+001 212133  3.2609e+002  5.5991e+002  2.4858e+002 145956 212006,212058,212032
 3.6000e+001 212110  2.1792e+002 -6.3981e+002  9.5930e+002 145956 212006,212084,212058
 3.6000e+001 212285 -1.2865e+003  1.2577e+003  4.0661e+002 145544 212184,212236,212210
 3.6000e+001 212262 -1.5026e+003  2.4910e+002  2.8287e+002 145544 212158,212236,212184
 3.6000e+001 212486  1.9497e+006 -1.5882e+007  1.6362e+006 144990 212362,212414,212388
 3.6000e+001 212463  3.3966e+004 -1.0222e+007  4.3428e+006 144990 212310,212414,212362
 3.6000e+001 212440 -3.1062e+006 -2.5093e+006  1.9857e+006 144990 212310,212362,212336
 3.6000e+001 212638  2.1622e+003 -1.6810e+005  2.1775e+004 144600 212537,212589,212563
 3.6000e+001 212615  4.6800e+003 -1.5112e+005  3.6747e+004 144600 212511,212589,212537
 3.6000e+001 212839 -5.4799e+004 -8.3738e+005 -1.4451e+005 144210 212689,212741,212715
 3.6000e+001 212816 -2.7074e+003 -1.0053e+006  2.0886e+003 144210 212663,212741,212689
 3.6000e+001 212793  5.3522e+004 -6.6009e+005 -3.8634e+004 144210 212663,212767,212741
 3.6000e+001 212991 -1.2787e+005 -2.1048e+005 -1.5608e+005 143920 212890,212942,212916
 3.6000e+001 212968 -2.3080e+005 -5.4007e+005 -2.6030e+005 143920 212864,212942,212890
 3.6000e+001 213143 -9.1084e+002  1.1917e+003 -8.5675e+002 143480 213016,213068,213042
 3.6000e+001 213120 -7.3810e+002  1.0928e+001  2.8622e+002 143480 213016,213094,213068
 3.6000e+001 213295 -1.8957e+006 -7.8052e+006  4.8118e+006 142990 213194,213246,213220
 3.6000e+001 213272 -2.2744e+006 -2.9247e+006  2.2401e+006 142990 213168,213246,213194
 3.6000e+001 213447 -6.5394e+005 -3.4936e+006  5.8897e+005 142600 213320,213372,213346
 3.6000e+001 213424 -1.3484e+006 -1.9086e+006 -6.2613e+005 142600 213320,213398,213372
 3.6000e+001 213599 -6.3601e+004 -3.4678e+005 -1.9178e+005 142260 213472,213524,213498
 3.6000e+001 213576 -2.0730e+004 -4.1745e+005  7.7365e+004 142260 213472,213550,213524
 3.6000e+001 213751 -7.4664e+005 -1.3984e+006 -5.6559e+005 141870 213624,213676,213650
 3.6000e+001 213728 -1.5653e+006 -7.3312e+005 -1.7046e+006 141870 213624,213702,213676
 3.6000e+001 213903 -1.3846e+006 -2.8001e+006 -1.8380e+006 141530 213776,213828,213802
 3.6000e+001 213880 -6.0965e+005 -3.0557e+006 -1.2732e+006 141530 213776,213854,213828
 3.6000e+001 214055  7.9170e+001 -1.2122e+003 -9.0080e+001 141218 213928,213980,213954
 3.6000e+001 214032 -6.1858e+001 -3.0356e+003  5.0196e+002 141218 213928,214006,213980
 3.6000e+001 214207  2.4188e+001 -7.0620e+002 -1.2947e+002 140928 214080,214132,214106
 3.6000e+001 214184  1.3590e+002 -6.8269e+002 -4.6569e+001 140928 214080,214158,214132
 3.6000e+001 214359 -3.9272e+005 -1.9634e+005 -3.9223e+005 140538 214232,214284,214258
 3.6000e+001 214336  2.1067e+005 -1.0256e+006  2.3089e+005 140538 214232,214310,214284
 3.6000e+001 214560 -3.2817e+004 -2.7861e+006 -1.8219e+004 140248 214384,214462,214410
 3.6000e+001 214537  1.8110e+005 -1.2767e+006 -9.6167e+004 140248 214384,214488,214462
 3.6000e+001 214514 -3.1001e+005 -1.6717e+006 -4.1719e+005 140248 214410,214462,214436
 3.6000e+001 214712 -1.0883e+006 -6.8590e+006  1.3413e+006 140000 214611,214663,214637
 3.6000e+001 214689 -8.3936e+005 -4.5256e+006  1.4011e+006 140000 214585,214663,214611
 3.6000e+001 214913 -5.7797e+005 -2.4611e+006 -1.2533e+006 139596 214737,214815,214763
 3.6000e+001 214890 -5.3609e+005 -7.6789e+005 -1.6467e+005 139596 214737,214841,214815
 3.6000e+001 214867  4.8303e+005 -4.9211e+006 -7.5139e+005 139596 214763,214815,214789
 3.6000e+001 215016 -1.6490e+003  3.3709e+002 -8.1768e+002 139420 214938,214990,214964
 3.6000e+001 215168 -1.3707e+006 -1.0341e+007  3.5175e+006 139130 215067,215119,215093
 3.6000e+001 215145 -7.7835e+005 -1.0432e+007  2.2530e+006 139130 215041,215119,215067
 3.6000e+001 215320 -1.1305e+006 -4.0881e+006  1.8334e+006 138790 215219,215271,215245
 3.6000e+001 215297  1.1337e+003 -1.1669e+007  3.3827e+006 138790 215193,215271,215219
 3.6000e+001 215472 -2.3446e+004 -2.4503e+005  1.0657e+005 138514 215345,215397,215371
 3.6000e+001 215449  1.8833e+004 -1.5336e+005  3.5644e+004 138514 215345,215423,215397
 3.6000e+001 215624 -1.4590e+005 -9.1650e+006  3.6378e+005 138174 215497,215549,215523
 3.6000e+001 215601  9.1887e+004 -8.3616e+006  1.3596e+005 138174 215497,215575,215549
 3.6000e+001 215776 -2.7071e+005 -1.7463e+006  9.7849e+005 137734 215649,215701,215675
 3.6000e+001 215753 -7.9019e+004 -1.1376e+006 -1.9360e+005 137734 215649,215727,215701
 3.6000e+001 215977 -4.1840e+005 -1.8787e+007  5.0112e+006 137344 215801,215879,215827
 3.6000e+001 215954 -1.1704e+006 -8.2806e+006 -2.9951e+006 137344 215801,215905,215879
 3.6000e+001 215931  1.8851e+005 -2.6516e+007 -9.4468e+005 137344 215827,215879,215853
 3.6000e+001 216129 -2.1984e+005 -6.1331e+006  1.7505e+005 136940 216028,216080,216054
 3.6000e+001 216106 -3.9739e+005 -5.5925e+006 -3.1331e+005 136940 216002,216080,216028
 3.6000e+001 216330 -3.0481e+005 -8.2050e+006  1.1623e+006 136600 216180,216232,216206
 3.6000e+001 216307 -7.6034e+005 -8.5059e+006  1.9886e+006 136600 216154,216232,216180
 3.6000e+001 216284 -2.4934e+006 -6.2778e+006  1.1023e+006 136600 216154,216258,216232
 3.6000e+001 216482  7.9960e+005 -6.4526e+006  4.2275e+005 136260 216381,216433,216407
 3.6000e+001 216459  1.4960e+005 -8.0659e+006 -1.5876e+005 136260 216355,216433,216381
 3.6000e+001 216634 -1.0419e+006 -6.4517e+006  2.2074e+006 135970 216533,216585,216559
 3.6000e+001 216611 -4.5048e+005 -9.2382e+006  2.6548e+006 135970 216507,216585,216533
 3.6000e+001 216835 -9.2706e+005 -4.1283e+006 -1.1794e+006 135608 216685,216763,216711
 3.6000e+001 216812 -1.1325e+005 -3.1559e+006  9.8521e+003 135608 216659,216763,216685
 3.6000e+001 216789 -7.0628e+005 -1.0703e+007  2.3111e+005 135608 216711,216763,216737
 3.6000e+001 217036 -1.1200e+006 -3.8422e+006  9.2287e+005 135312 216912,216964,216938
 3.6000e+001 217013 -7.9243e+005 -6.3667e+006  2.3796e+006 135312 216886,216964,216912
 3.6000e+001 216990  1.4185e+005 -8.3931e+006  1.9012e+006 135312 216860,216964,216886
 3.6000e+001 217237 -5.8181e+004 -5.8962e+005  1.8204e+005 134908 217061,217139,217113
 3.6000e+001 217214 -6.3221e+004 -6.0315e+005  2.3205e+005 134908 217061,217165,217139
 3.6000e+001 217191 -5.6471e+004 -7.4058e+005  2.4381e+005 134908 217061,217113,217087
 3.6000e+001 217438 -1.9791e+006 -2.4098e+007  1.1906e+006 134568 217288,217366,217314
 3.6000e+001 217415  1.9779e+006 -3.3404e+007  1.2060e+006 134568 217262,217366,217288
 3.6000e+001 217392 -2.0002e+005 -2.2933e+007 -5.2134e+005 134568 217314,217366,217340
 3.6000e+001 217590 -8.3391e+004 -2.9889e+005  1.6085e+005 134106 217463,217515,217489
 3.6000e+001 217567 -3.6378e+004 -2.1801e+005  5.0870e+004 134106 217463,217541,217515
 3.6000e+001 217791 -1.9133e+006 -3.1459e+007 -8.3125e+006 133816 217641,217693,217667
 3.6000e+001 217768  3.5794e+006 -3.5569e+007  3.8043e+006 133816 217641,217719,217693
 3.6000e+001 217745 -7.1659e+006 -3.5212e+006  5.0232e+006 133816 217615,217719,217641
 3.6000e+001 217992 -2.9593e+006 -5.1670e+006  3.8007e+006 133355 217842,217920,217894
 3.6000e+001 217969  3.6674e+005 -1.5538e+007 -1.3717e+006 133355 217816,217920,217842
 3.6000e+001 217946 -3.9385e+005 -2.9418e+006  5.9516e+005 133355 217842,217894,217868
 3.6000e+001 218193 -5.6258e+005 -7.1838e+006 -4.0746e+006 132851 218017,218095,218069
 3.6000e+001 218170 -2.4731e+006 -1.0697e+007  6.8239e+006 132851 218017,218121,218095
 3.6000e+001 218147 -4.0820e+006 -5.7506e+006 -3.0278e+006 132851 218017,218069,218043
 3.6000e+001 218345 -2.1661e+005 -2.9594e+006  7.8721e+005 132511 218244,218296,218270
 3.6000e+001 218322 -2.1429e+005 -3.0576e+006  8.0194e+005 132511 218218,218296,218244
 3.6000e+001 218497  6.8301e+005 -3.4243e+007 -2.6850e+006 132235 218396,218448,218422
 3.6000e+001 218474 -1.8017e+006 -1.0599e+007  9.0947e+004 132235 218370,218448,218396
 3.6000e+001 218698 -4.4952e+005 -1.4982e+007  1.5821e+004 131945 218574,218626,218600
 3.6000e+001 218675 -2.0483e+006 -2.1777e+007  7.9109e+004 131945 218522,218626,218574
 3.6000e+001 218652 -1.4839e+006 -1.6440e+007 -1.7137e+006 131945 218522,218574,218548
 3.6000e+001 218850 -5.5229e+005 -2.2119e+007 -1.4764e+006 131655 218723,218775,218749
 3.6000e+001 218827  2.1562e+004 -1.3742e+007 -1.0295e+006 131655 218723,218801,218775
 3.6000e+001 218953 -2.7267e+005 -4.1753e+006  5.8429e+005 131215 218875,218927,218901
 3.6000e+001 219105 -2.9772e+005 -7.5213e+006 -1.9502e+006 130875 218978,219030,219004
 3.6000e+001 219082 -6.4289e+005 -2.3415e+006 -5.3776e+005 130875 218978,219056,219030
 3.6000e+001 219306 -2.5746e+005 -5.6109e+006 -5.8983e+005 130429 219156,219234,219208
 3.6000e+001 219283 -5.5840e+005 -2.6534e+006  5.3282e+004 130429 219130,219234,219156
 3.6000e+001 219260 -2.9243e+006 -6.4712e+006  1.7660e+006 130429 219156,219208,219182
 3.6000e+001 219507 -4.8460e+004 -1.6257e+006  1.5225e+005 130025 219383,219435,219409
 3.6000e+001 219484 -2.7667e+004 -1.9621e+006  2.7999e+005 130025 219331,219435,219383
 3.6000e+001 219461 -2.4162e+005 -8.1295e+005 -1.9541e+005 130025 219331,219383,219357
 3.6000e+001 219659 -1.0778e+006 -7.1049e+006  8.1953e+005 129685 219558,219610,219584
 3.6000e+001 219636  3.3468e+005 -1.2222e+007 -5.6771e+006 129685 219532,219610,219558
 3.6000e+001 219860  6.5127e+003 -3.7719e+006  1.1519e+006 129395 219710,219788,219762
 3.6000e+001 219837 -1.1082e+006 -2.9494e+006  5.5521e+005 129395 219684,219788,219710
 3.6000e+001 219814  8.0115e+005 -6.3837e+006 -7.9925e+005 129395 219710,219762,219736
 3.6000e+001 220061  2.3918e+005 -4.5413e+006  3.4729e+005 128991 219937,219989,219963
 3.6000e+001 220038 -7.1783e+004 -4.1905e+006  2.9895e+005 128991 219885,219989,219937
 3.6000e+001 220015 -1.0972e+005 -4.5394e+006  4.7074e+005 128991 219885,219937,219911
 3.6000e+001 220262 -4.0798e+005 -3.2168e+006  1.7627e+005 128701 220086,220164,220112
 3.6000e+001 220239 -5.4669e+005 -3.7024e+006  4.1085e+005 128701 220086,220190,220164
 3.6000e+001 220216 -2.3652e+005 -3.2077e+006  1.3212e+005 128701 220112,220164,220138
 3.6000e+001 220463 -3.1009e+006 -9.2213e+006  3.3341e+006 128297 220339,220391,220365
 3.6000e+001 220440  2.3589e+006 -2.0331e+007  6.8098e+005 128297 220313,220391,220339
 3.6000e+001 220417 -3.4447e+005 -2.4547e+007 -5.6885e+006 128297 220287,220391,220313
 3.6000e+001 220615 -1.4561e+006 -3.4039e+006 -1.1488e+006 128007 220488,220540,220514
 3.6000e+001 220592  1.3120e+006 -1.2899e+007  2.4381e+005 128007 220488,220566,220540
 3.6000e+001 220767 -1.1750e+005 -3.0212e+006 -4.6642e+004 127567 220640,220692,220666
 3.6000e+001 220744 -4.9440e+004 -2.1163e+006 -1.6184e+005 127567 220640,220718,220692
 3.6000e+001 220919 -7.5089e+005 -1.8316e+007 -2.3640e+006 127163 220792,220844,220818
 3.6000e+001 220896  1.5483e+006 -2.1762e+007  1.5907e+006 127163 220792,220870,220844
 3.6000e+001 221071 -1.1316e+006 -3.3724e+006  1.2778e+006 126915 220970,221022,220996
 3.6000e+001 221048 -1.0165e+006 -4.2088e+006  9.8563e+005 126915 220944,221022,220970
 3.6000e+001 221272 -1.7327e+006 -3.5701e+006  2.7737e+006 126461 221122,221174,221148
 3.6000e+001 221249 -4.6509e+006 -4.8028e+006  1.0603e+006 126461 221122,221200,221174
 3.6000e+001 221226  1.2473e+006 -1.4411e+007 -3.2002e+006 126461 221096,221200,221122
 3.6000e+001 221375 -2.2123e+001 -1.2123e+005  6.7536e+001 126213 221297,221349,221323
 3.6000e+001 221478 -6.0436e+002 -5.5603e+004 -2.1019e+002 125766 221400,221452,221426
 3.6000e+001 221679 -7.3385e+004 -3.0064e+006  2.9328e+005 125212 221503,221555,221529
 3.6000e+001 221656 -1.6107e+005 -3.7676e+006  1.2453e+005 125212 221503,221581,221555
 3.6000e+001 221633  3.8125e+005 -6.6392e+006  1.4713e+006 125212 221503,221607,221581
 3.6000e+001 221929 -4.1304e+003 -6.5276e+002 -1.2277e+003 124872 221782,221834,221808
 3.6000e+001 221906 -1.0347e+004 -1.5745e+003  6.2016e+003 124872 221756,221834,221782
 3.6000e+001 221883 -2.9233e+004 -7.5113e+002 -1.6650e+004 124872 221704,221834,221756
 3.6000e+001 221860 -3.3544e+004 -5.0719e+003 -1.0341e+004 124872 221704,221756,221730
 3.6000e+001 222130 -6.4166e+005 -1.0271e+007 -1.1641e+006 124582 221980,222058,222006
 3.6000e+001 222107 -2.7128e+006 -1.0525e+007 -1.2212e+006 124582 221954,222058,221980
 3.6000e+001 222084 -1.9253e+006 -1.1322e+007 -1.8832e+006 124582 222006,222058,222032
 3.6000e+001 222282 -2.6234e+006 -1.2849e+007 -3.4227e+006 124192 222181,222233,222207
 3.6000e+001 222259 -1.0994e+006 -1.2503e+007 -3.2749e+006 124192 222155,222233,222181
 3.6000e+001 222483 -1.4473e+005 -2.9642e+006 -1.1790e+006 123702 222333,222385,222359
 3.6000e+001 222460 -2.1760e+005 -2.1416e+006 -1.4114e+004 123702 222333,222411,222385
 3.6000e+001 222437 -2.1823e+005 -8.4088e+005 -2.6074e+005 123702 222307,222411,222333
 3.6000e+001 222635 -5.1492e+005 -8.3373e+005 -4.4140e+005 123312 222508,222560,222534
 3.6000e+001 222612  2.8734e+005 -4.1251e+006 -3.9178e+005 123312 222508,222586,222560
 3.6000e+001 222787 -5.0872e+004 -2.3799e+006 -9.0013e+004 122858 222686,222738,222712
 3.6000e+001 222764 -1.8914e+005 -2.5386e+006 -4.5902e+005 122858 222660,222738,222686
 3.6000e+001 222939 -1.4730e+005 -6.4195e+005 -1.7428e+004 122568 222812,222864,222838
 3.6000e+001 222916 -1.8818e+005 -5.2957e+005  2.0982e+005 122568 222812,222890,222864
 3.6000e+001 223091 -1.4761e+005 -2.2145e+006 -5.0842e+005 122392 222964,223016,222990
 3.6000e+001 223068  2.3457e+005 -2.5379e+006 -1.7987e+005 122392 222964,223042,223016
 3.6000e+001 223292 -3.8491e+005 -9.6931e+006 -1.6562e+006 121852 223142,223220,223194
 3.6000e+001 223269 -1.3817e+006 -9.0324e+006 -1.3067e+006 121852 223116,223220,223142
 3.6000e+001 223246 -2.3522e+005 -9.7155e+006 -1.5120e+006 121852 223142,223194,223168
 3.6000e+001 223493 -8.0215e+005 -9.5765e+006  3.6376e+005 121406 223343,223395,223369
 3.6000e+001 223470 -2.9249e+006 -7.4716e+006 -1.5880e+006 121406 223343,223421,223395
 3.6000e+001 223447 -1.0242e+006 -5.2175e+006  1.6304e+006 121406 223317,223421,223343
 3.6000e+001 223645  3.6526e+005 -1.0482e+007  8.8216e+005 121002 223544,223596,223570
 3.6000e+001 223622 -1.1993e+006 -5.4929e+006  1.1659e+006 121002 223518,223596,223544
 3.6000e+001 223846 -3.1467e+005 -9.2298e+006 -1.1055e+005 120662 223670,223748,223696
 3.6000e+001 223823  5.8888e+005 -5.4921e+006 -1.2093e+005 120662 223670,223774,223748
 3.6000e+001 223800 -1.3424e+006 -4.1057e+006 -1.6011e+006 120662 223696,223748,223722
 3.6000e+001 224047 -5.2789e+005 -5.2243e+006  1.4160e+006 120222 223897,223949,223923
 3.6000e+001 224024  7.8441e+005 -7.1458e+006 -9.2559e+005 120222 223871,223949,223897
 3.6000e+001 224001 -1.0783e+006 -4.5537e+006 -1.3882e+006 120222 223871,223975,223949
 3.6000e+001 224248  6.6502e+005 -4.9468e+006 -1.1486e+006 119875 224124,224176,224150
 3.6000e+001 224225 -1.1944e+006 -1.0650e+007 -2.5054e+006 119875 224098,224176,224124
 3.6000e+001 224202 -5.4722e+005 -1.9394e+006  1.1305e+005 119875 224072,224176,224098
 3.6000e+001 224449 -2.4118e+005 -6.1550e+006 -6.8458e+005 119677 224325,224377,224351
 3.6000e+001 224426 -5.4203e+005 -7.3630e+006 -4.4874e+005 119677 224299,224377,224325
 3.6000e+001 224403  8.9293e+003 -1.9205e+006 -1.2633e+005 119677 224273,224377,224299
 3.6000e+001 224552 -5.3596e+005 -2.0102e+006 -3.8908e+005 119273 224474,224526,224500
 3.6000e+001 224704 -1.4819e+006 -1.1539e+007 -1.9837e+006 118983 224603,224655,224629
 3.6000e+001 224681 -6.6606e+005 -1.1291e+007 -1.7759e+006 118983 224577,224655,224603
 3.6000e+001 224856 -5.7717e+005 -8.4753e+006 -2.4367e+005 118529 224755,224807,224781
 3.6000e+001 224833  2.3542e+005 -1.3050e+007 -1.3183e+006 118529 224729,224807,224755
 3.6000e+001 225008 -9.6047e+005 -9.8029e+006  1.1924e+005 118353 224881,224933,224907
 3.6000e+001 224985 -4.2518e+005 -1.1045e+006 -8.8385e+004 118353 224881,224959,224933
 3.6000e+001 225209 -3.1680e+004 -6.6820e+006 -3.8172e+005 117949 225059,225137,225111
 3.6000e+001 225186 -3.1542e+005 -6.8014e+006 -5.0998e+005 117949 225033,225137,225059
 3.6000e+001 225163 -5.2753e+004 -6.5494e+006 -4.3887e+005 117949 225059,225111,225085
 3.6000e+001 225410  8.3700e+003 -6.9624e+006  7.1461e+005 117559 225260,225338,225312
 3.6000e+001 225387 -8.9233e+005 -7.3054e+006  3.0997e+005 117559 225234,225338,225260
 3.6000e+001 225364 -5.8298e+005 -4.9068e+006 -1.6910e+006 117559 225260,225312,225286
 3.6000e+001 225611 -1.7285e+006 -1.1144e+007 -5.2471e+006 117361 225461,225513,225487
 3.6000e+001 225588  8.0650e+005 -1.1635e+007  1.2660e+006 117361 225461,225539,225513
 3.6000e+001 225565 -2.1427e+006 -7.5461e+006  3.8416e+006 117361 225435,225539,225461
 3.6000e+001 225812 -3.2509e+004 -5.4737e+006 -3.6096e+005 116900 225636,225714,225662
 3.6000e+001 225789  5.9489e+005 -6.5944e+006 -3.7144e+005 116900 225636,225740,225714
 3.6000e+001 225766 -2.5163e+004 -5.4703e+006 -3.7006e+005 116900 225662,225714,225688
 3.6000e+001 225964 -3.3908e+005 -4.0567e+006 -1.9422e+005 116560 225837,225889,225863
 3.6000e+001 225941  8.7001e+004 -6.6413e+006  2.3349e+005 116560 225837,225915,225889
 3.6000e+001 226165  1.1833e+005 -7.5345e+006 -5.4966e+005 116106 226015,226093,226041
 3.6000e+001 226142 -4.3059e+005 -9.0076e+006 -3.7625e+006 116106 225989,226093,226015
 3.6000e+001 226119 -3.0381e+006 -3.3936e+006  5.9017e+005 116106 226041,226093,226067
 3.6000e+001 226268 -1.2676e+006 -8.5555e+006  2.7917e+004 115716 226190,226242,226216
 3.6000e+001 226420 -2.0299e+005 -8.3099e+006  1.8643e+006 115376 226293,226345,226319
 3.6000e+001 226397 -4.7843e+005 -8.3473e+006  1.8320e+006 115376 226293,226371,226345
 3.6000e+001 226621 -5.4177e+005 -1.8218e+006  3.1079e+005 114972 226497,226549,226523
 3.6000e+001 226598 -4.8127e+005 -9.4181e+006 -6.1937e+005 114972 226445,226549,226497
 3.6000e+001 226575  1.4617e+005 -4.6859e+006  5.8062e+005 114972 226445,226497,226471
 3.6000e+001 226773 -9.8525e+005 -2.5781e+006 -1.0546e+006 114670 226646,226698,226672
 3.6000e+001 226750  5.9909e+005 -6.8060e+006  5.6742e+005 114670 226646,226724,226698
 3.6000e+001 226974  4.5214e+004 -2.3129e+006 -4.2380e+005 114082 226798,226850,226824
 3.6000e+001 226951  1.3953e+005 -3.1865e+006 -1.1551e+005 114082 226798,226902,226850
 3.6000e+001 226928  4.7660e+004 -4.3759e+006 -4.3672e+005 114082 226850,226902,226876
 3.6000e+001 227175 -7.6024e+005 -3.5277e+006 -6.8892e+005 113678 226999,227051,227025
 3.6000e+001 227152 -1.6974e+006 -5.0110e+006 -2.2107e+006 113678 226999,227077,227051
 3.6000e+001 227129  9.2550e+004 -1.3813e+007 -3.8562e+006 113678 226999,227103,227077
 3.6000e+001 227425 -9.0613e+003 -7.9552e+006 -5.2854e+005 113274 227226,227278,227252
 3.6000e+001 227402  4.1480e+005 -8.0452e+006 -3.5950e+006 113274 227226,227330,227278
 3.6000e+001 227379 -1.5517e+005 -9.8093e+006 -4.2209e+006 113274 227200,227330,227226
 3.6000e+001 227356 -5.3285e+006 -1.5185e+006 -1.3980e+006 113274 227278,227330,227304
 3.6000e+001 227626  4.2645e+005 -4.9788e+006 -1.0390e+006 112934 227502,227554,227528
 3.6000e+001 227603  3.8231e+004 -3.2596e+006  2.9493e+005 112934 227450,227554,227502
 3.6000e+001 227580 -1.4907e+006 -2.1704e+006 -4.2062e+005 112934 227450,227502,227476
 3.6000e+001 227876 -1.1579e+005 -1.6109e+006 -1.9176e+005 112437 227677,227755,227703
 3.6000e+001 227853 -9.4934e+005 -1.9344e+006  7.5692e+005 112437 227677,227781,227755
 3.6000e+001 227830 -2.3489e+005 -8.4601e+005  2.5248e+005 112437 227703,227755,227729
 3.6000e+001 227807 -9.0038e+004 -5.8759e+006 -5.7554e+005 112437 227651,227781,227677
 3.6000e+001 228126 -8.5132e+005 -4.3648e+006  3.4629e+005 112041 227927,228005,227953
 3.6000e+001 228103 -4.5004e+005 -6.6977e+006 -1.0257e+006 112041 227927,228031,228005
 3.6000e+001 228080 -9.9198e+005 -5.1929e+006  2.2334e+005 112041 227953,228005,227979
 3.6000e+001 228057 -7.0195e+005 -5.3025e+006 -1.1545e+006 112041 227901,228031,227927
 3.6000e+001 228327 -1.2741e+006 -5.1296e+006 -1.0219e+006 111693 228151,228203,228177
 3.6000e+001 228304 -8.4624e+005 -2.6934e+006 -1.4599e+006 111693 228151,228229,228203
 3.6000e+001 228281  4.4554e+005 -5.5119e+006  6.0238e+005 111693 228151,228255,228229
 3.6000e+001 228479 -4.0278e+006 -1.1022e+007 -6.0119e+006 111253 228352,228404,228378
 3.6000e+001 228456 -3.1464e+006 -6.9947e+006 -1.2603e+006 111253 228352,228430,228404
 3.6000e+001 228582 -2.3885e+006 -5.8824e+006 -7.1025e+005 110906 228504,228556,228530
 3.6000e+001 228783  1.0076e+004 -1.4315e+006  1.6612e+005 110416 228633,228711,228659
 3.6000e+001 228760  2.2233e+004 -1.3046e+006  1.4083e+005 110416 228607,228711,228633
 3.6000e+001 228737 -1.1910e+005 -2.4300e+006  2.0571e+005 110416 228659,228711,228685
 3.6000e+001 228935 -2.7948e+004 -3.8263e+006 -9.0923e+004 110012 228808,228860,228834
 3.6000e+001 228912 -6.0243e+005 -7.3612e+006 -5.9128e+005 110012 228808,228886,228860
 3.6000e+001 229087 -1.0593e+006 -2.9259e+006 -1.3186e+006 109672 228960,229012,228986
 3.6000e+001 229064 -8.0512e+005 -6.7315e+006  5.2186e+004 109672 228960,229038,229012
 3.6000e+001 229190  2.9736e+004 -7.6894e+005 -4.5939e+004 109332 229112,229164,229138
 3.6000e+001 229391 -7.9755e+003 -4.3367e+005 -1.5371e+005 109156 229267,229319,229293
 3.6000e+001 229368 -1.5083e+005 -9.1133e+005 -2.4533e+005 109156 229215,229319,229267
 3.6000e+001 229345 -2.7828e+004 -2.3782e+005 -7.2425e+004 109156 229215,229267,229241
 3.6000e+001 229543 -3.5585e+004 -8.9237e+006  9.2270e+005 108752 229416,229468,229442
 3.6000e+001 229520  7.3344e+004 -9.8316e+006  1.2518e+006 108752 229416,229494,229468
 3.6000e+001 229744 -2.5843e+005 -7.2954e+006  1.4044e+005 108198 229594,229646,229620
 3.6000e+001 229721 -9.0307e+005 -7.5463e+006  1.1687e+006 108198 229594,229672,229646
 3.6000e+001 229698  7.7207e+003 -9.8716e+006 -1.1513e+005 108198 229568,229672,229594
 3.6000e+001 229847 -1.9868e+005 -6.9732e+005 -3.6049e+005 107758 229769,229821,229795
 3.6000e+001 230048 -8.8228e+005 -3.3185e+006 -8.2321e+005 107468 229898,229950,229924
 3.6000e+001 230025 -2.8016e+005 -2.8249e+006 -7.6921e+004 107468 229872,229950,229898
 3.6000e+001 230002 -9.6761e+005 -2.6603e+006 -2.6532e+005 107468 229872,229976,229950
 3.6000e+001 230298  1.4990e+005 -2.2879e+006  7.6792e+005 107121 230099,230203,230177
 3.6000e+001 230275 -6.8269e+005 -8.5414e+005  3.7592e+005 107121 230073,230203,230099
 3.6000e+001 230252  3.0775e+005 -2.9894e+006 -1.5362e+006 107121 230099,230177,230151
 3.6000e+001 230229 -6.4661e+005 -3.1620e+006 -1.4295e+006 107121 230099,230151,230125
 3.6000e+001 230450  1.5249e+005 -1.6668e+006 -1.9334e+005 106823 230349,230401,230375
 3.6000e+001 230427 -1.1528e+005 -2.7370e+005  1.1130e+005 106823 230323,230401,230349
 3.6000e+001 230602 -8.7894e+005 -9.3612e+006 -2.4934e+006 106533 230501,230553,230527
 3.6000e+001 230579 -1.1784e+006 -9.6681e+006 -3.2233e+006 106533 230475,230553,230501
 3.6000e+001 230803 -1.5340e+005 -8.0836e+005 -1.3172e+005 106029 230679,230731,230705
 3.6000e+001 230780 -1.8044e+005 -9.9809e+005  1.7071e+005 106029 230653,230731,230679
 3.6000e+001 230757  2.9218e+005 -2.8252e+006  5.7711e+004 106029 230627,230731,230653
 3.6000e+001 231004 -2.2089e+005 -3.5743e+006  2.2413e+005 105689 230854,230906,230880
 3.6000e+001 230981  2.7702e+005 -4.3076e+006 -6.1650e+005 105689 230828,230906,230854
 3.6000e+001 230958 -7.3126e+005 -3.1741e+006 -1.5234e+006 105689 230828,230932,230906
 3.6000e+001 231156 -1.3798e+006 -3.8652e+006  1.4891e+006 105377 231055,231107,231081
 3.6000e+001 231133  4.3030e+005 -1.1622e+007 -6.6592e+005 105377 231029,231107,231055
 3.6000e+001 231406 -7.4152e+005 -8.2710e+006 -1.8187e+005 104858 231207,231259,231233
 3.6000e+001 231383 -1.7297e+006 -8.0252e+006 -7.9145e+005 104858 231207,231311,231259
 3.6000e+001 231360 -1.0710e+006 -1.2589e+007 -1.5441e+006 104858 231259,231311,231285
 3.6000e+001 231337 -4.5142e+005 -1.0834e+007 -1.3690e+006 104858 231181,231311,231207
 3.6000e+001 231558 -1.1486e+006 -6.2291e+006  2.9149e+006 104418 231457,231509,231483
 3.6000e+001 231535 -3.1594e+005 -6.4051e+006 -4.5812e+005 104418 231431,231509,231457
 3.6000e+001 231710 -8.3446e+005 -1.3768e+006 -3.7251e+005 103978 231583,231635,231609
 3.6000e+001 231687 -9.9421e+005 -6.4471e+005 -3.4951e+005 103978 231583,231661,231635
 3.6000e+001 231862 -1.6682e+004 -1.0341e+006 -6.8618e+004 103588 231761,231813,231787
 3.6000e+001 231839  1.2312e+004 -9.1314e+005 -6.4890e+004 103588 231735,231813,231761
 3.6000e+001 232014 -2.6346e+006 -6.1284e+006 -2.3261e+006 103248 231887,231939,231913
 3.6000e+001 231991 -1.9195e+005 -1.7320e+007 -6.0316e+006 103248 231887,231965,231939
 3.6000e+001 232215 -1.9019e+005 -2.7576e+006  5.1562e+005 102844 232039,232117,232065
 3.6000e+001 232192  6.2189e+004 -3.2345e+006 -1.6461e+005 102844 232039,232143,232117
 3.6000e+001 232169 -2.4897e+005 -1.6380e+006 -2.5904e+005 102844 232065,232117,232091
 3.6000e+001 232416 -3.9452e+006 -9.9365e+006 -2.7968e+006 102554 232240,232318,232292
 3.6000e+001 232393  1.0735e+006 -1.4334e+007 -1.7115e+005 102554 232240,232344,232318
 3.6000e+001 232370 -4.3800e+006 -4.5767e+006 -9.2171e+005 102554 232240,232292,232266
 3.6000e+001 232568  2.2340e+005 -4.9750e+006  6.7012e+005 102100 232441,232493,232467
 3.6000e+001 232545 -3.1517e+005 -4.4777e+006 -6.1735e+005 102100 232441,232519,232493
 3.6000e+001 232769 -1.9030e+005 -1.8362e+006 -2.7794e+005 101596 232645,232697,232671
 3.6000e+001 232746 -1.4455e+005 -1.6235e+006 -3.8497e+005 101596 232593,232697,232645
 3.6000e+001 232723  2.1585e+005 -4.2313e+006 -4.7741e+005 101596 232593,232645,232619
 3.6000e+001 232921 -2.5974e+002  7.8423e-001 -1.1783e+000 101420 232794,232846,232820
 3.6000e+001 232898 -2.4148e+002 -9.3643e+001 -3.9742e+001 101420 232794,232872,232846
 3.6000e+001 233073 -1.1188e+006 -3.5613e+006 -6.8821e+005 101023 232946,232998,232972
 3.6000e+001 233050  3.9332e+005 -6.2912e+006  1.3890e+006 101023 232946,233024,232998
 3.6000e+001 233225 -3.1170e+005 -2.6229e+006  3.6578e+003 100661 233098,233150,233124
 3.6000e+001 233202  2.7122e+005 -5.5896e+006  1.9960e+005 100661 233098,233176,233150
 3.6000e+001 233426 -1.4289e+006 -7.1505e+006 -2.0504e+006 100265 233276,233328,233302
 3.6000e+001 233403 -1.4634e+006 -6.3176e+006  1.3620e+005 100265 233276,233354,233328
 3.6000e+001 233380 -1.5511e+006 -1.0629e+007 -7.6963e+005 100265 233250,233354,233276
 3.6000e+001 233578 -1.1863e+005 -1.6864e+005 -3.6479e+004 100032 233451,233503,233477
 3.6000e+001 233555 -1.3190e+005 -1.7412e+005  6.1033e+004 100032 233451,233529,233503
 3.6000e+001 233681 -2.5869e+005 -5.6829e+004  5.9493e+004 99742 233603,233655,233629
 3.6000e+001 233784 -3.5573e+005 -2.4180e+006  4.3504e+005 99402 233706,233758,233732
 3.6000e+001 233936 -7.2559e+005 -2.4988e+006  3.7651e+005 99062 233835,233887,233861
 3.6000e+001 233913 -4.7255e+005 -1.3827e+006 -2.5656e+004 99062 233809,233887,233835
 3.6000e+001 234088 -1.8994e+005 -4.0799e+006  3.2178e+004 98772 233987,234039,234013
 3.6000e+001 234065 -8.6508e+005 -3.9639e+006  3.0012e+006 98772 233961,234039,233987
 3.6000e+001 234240 -1.3611e+004 -4.8030e+005  9.4665e+004 98160 234139,234191,234165
 3.6000e+001 234217  1.1013e+004 -3.9615e+005  1.1536e+005 98160 234113,234191,234139
 3.6000e+001 234441 -7.3487e+001 -1.0720e+003 -1.9750e+002 97820 234317,234369,234343
 3.6000e+001 234418 -2.8077e+001 -9.0516e+002 -1.0623e+002 97820 234291,234369,234317
 3.6000e+001 234395  5.0935e+001 -1.7769e+003 -2.3243e+002 97820 234265,234369,234291
 3.6000e+001 234593 -1.2177e+005 -1.4413e+006 -1.5210e+005 97366 234466,234518,234492
 3.6000e+001 234570  2.0582e+004 -2.5694e+006 -1.2579e+005 97366 234466,234544,234518
 3.6000e+001 234794 -5.8448e+005 -8.8751e+005 -5.7511e+005 96976 234618,234670,234644
 3.6000e+001 234771 -8.8917e+004 -1.7697e+006 -4.9312e+005 96976 234618,234722,234670
 3.6000e+001 234748 -1.8194e+005 -1.6406e+006 -6.8398e+005 96976 234670,234722,234696
 3.6000e+001 234946 -9.3940e+005 -2.8890e+006  1.2329e+006 96568 234845,234897,234871
 3.6000e+001 234923 -6.8134e+005 -1.8454e+006  1.2670e+006 96568 234819,234897,234845
 3.6000e+001 235196 -6.6998e+004 -1.3868e+006  2.6915e+005 96216 234997,235075,235049
 3.6000e+001 235173 -4.9360e+005 -4.3050e+006  1.5063e+006 96216 234997,235101,235075
 3.6000e+001 235150 -9.1360e+005 -3.8027e+006  9.5651e+005 96216 234997,235049,235023
 3.6000e+001 235127 -1.2210e+005 -5.4938e+006 -1.6361e+006 96216 234971,235101,234997
 3.6000e+001 235348 -9.4046e+005 -2.8022e+006 -5.3929e+005 95863 235247,235299,235273
 3.6000e+001 235325 -9.5885e+005 -1.5768e+006 -9.3853e+005 95863 235221,235299,235247
 3.6000e+001 235500 -1.5173e+006 -2.7488e+006 -2.4773e+006 95339 235373,235425,235399
 3.6000e+001 235477 -5.4117e+005 -6.4190e+006  3.5541e+006 95339 235373,235451,235425
 3.6000e+001 235701 -1.7095e+005 -4.0329e+006  1.4580e+006 95023 235525,235577,235551
 3.6000e+001 235678 -2.5590e+004 -2.0076e+006 -1.3525e+005 95023 235525,235629,235577
 3.6000e+001 235655 -3.0185e+005 -2.0093e+006 -2.2060e+004 95023 235577,235629,235603
 3.6000e+001 235853  8.3429e+005 -9.3141e+006  1.0307e+006 94671 235726,235778,235752
 3.6000e+001 235830 -2.8450e+005 -7.1827e+006 -5.6922e+005 94671 235726,235804,235778
 3.6000e+001 236005 -1.0620e+006 -6.8870e+006 -8.6783e+005 94261 235904,235956,235930
 3.6000e+001 235982 -1.3663e+006 -8.0264e+006 -1.9183e+006 94261 235878,235956,235904
 3.6000e+001 236206 -5.4377e+005 -6.8209e+005  1.2293e+006 93853 236056,236134,236082
 3.6000e+001 236183 -9.1836e+005 -8.1740e+005  3.3826e+005 93853 236030,236134,236056
 3.6000e+001 236160 -9.7499e+005 -1.0482e+006  9.8537e+005 93853 236082,236134,236108
 3.6000e+001 236407 -6.1737e+005 -5.9577e+006  1.0194e+005 93557 236257,236309,236283
 3.6000e+001 236384 -1.8297e+006 -6.6413e+006 -1.6733e+006 93557 236231,236309,236257
 3.6000e+001 236361 -6.0022e+005 -1.0919e+007 -2.7336e+005 93557 236231,236335,236309
 3.6000e+001 236559 -1.4145e+005 -5.9436e+005  1.1979e+004 93149 236432,236484,236458
 3.6000e+001 236536 -8.3467e+004 -2.7422e+005  1.2737e+004 93149 236432,236510,236484
 3.6000e+001 236711 -4.4424e+004 -9.4797e+004  6.2136e+004 92853 236584,236636,236610
 3.6000e+001 236688 -3.5550e+004 -8.1032e+004  5.5672e+004 92853 236584,236662,236636
 3.6000e+001 236912 -2.7341e+005 -3.9855e+006  1.4254e+006 92501 236736,236788,236762
 3.6000e+001 236889 -5.7408e+005 -2.5668e+006  6.3519e+005 92501 236736,236840,236788
 3.6000e+001 236866 -7.3324e+005 -3.2215e+006  6.5958e+005 92501 236788,236840,236814
 3.6000e+001 237113 -3.5701e+005 -4.2219e+006  3.8039e+005 92291 236963,237041,237015
 3.6000e+001 237090 -1.2399e+005 -2.8731e+006  3.8487e+005 92291 236937,237041,236963
 3.6000e+001 237067 -2.0570e+005 -3.8928e+006  8.9406e+005 92291 236963,237015,236989
 3.6000e+001 237265  1.2005e+005 -6.8346e+005 -3.7403e+005 91871 237138,237190,237164
 3.6000e+001 237242 -4.0360e+005 -1.9649e+006 -7.6725e+005 91871 237138,237216,237190
 3.6000e+001 237368 -6.5581e+002 -1.6888e+006  4.7127e+002 91581 237290,237342,237316
 3.6000e+001 237520 -8.4832e+003 -3.3124e+004  1.2614e+003 91184 237419,237471,237445
 3.6000e+001 237497 -3.2100e+004 -5.3936e+004 -1.5795e+004 91184 237393,237471,237419
 3.6000e+001 237672 -1.9985e+005 -2.4197e+006  5.1726e+005 90894 237545,237597,237571
 3.6000e+001 237649 -7.4441e+004 -3.0541e+006  7.8888e+005 90894 237545,237623,237597
 3.6000e+001 237873 -1.1896e+006 -4.8605e+006  7.6141e+005 90490 237749,237801,237775
 3.6000e+001 237850 -6.1493e+005 -4.4132e+006  1.2520e+006 90490 237723,237801,237749
 3.6000e+001 237827 -9.5457e+005 -4.5035e+006 -8.0594e+005 90490 237697,237801,237723
 3.6000e+001 238074 -8.0806e+005 -6.3351e+006  2.1192e+005 90100 237898,237976,237950
 3.6000e+001 238051 -1.8115e+006 -6.5458e+006  2.4532e+005 90100 237898,238002,237976
 3.6000e+001 238028 -5.9982e+005 -5.9880e+006  5.4482e+004 90100 237898,237950,237924
 3.6000e+001 238275 -3.8846e+005 -3.3281e+006  6.0881e+005 89696 238125,238177,238151
 3.6000e+001 238252 -3.7129e+005 -2.6685e+006 -6.7051e+005 89696 238099,238177,238125
 3.6000e+001 238229 -3.7047e+005 -3.4143e+006 -6.1112e+005 89696 238099,238203,238177
 3.6000e+001 238427 -1.3509e+004 -5.6540e+004 -3.1516e+004 89206 238326,238378,238352
 3.6000e+001 238404 -1.7930e+004 -1.1808e+005 -3.7129e+004 89206 238300,238378,238326
 3.6000e+001 238579 -1.4933e+006 -5.2422e+006  1.8637e+006 88908 238452,238504,238478
 3.6000e+001 238556 -3.6077e+005 -4.3839e+006  5.1619e+005 88908 238452,238530,238504
 3.6000e+001 238682 -3.5982e+001 -4.5401e+005 -8.9321e+001 88568 238604,238656,238630
 3.6000e+001 238883  1.9075e+004 -5.8677e+006  1.5911e+006 88278 238733,238811,238785
 3.6000e+001 238860 -6.0010e+005 -4.0966e+006  1.4566e+006 88278 238707,238811,238733
 3.6000e+001 238837 -2.1288e+005 -6.1293e+006  1.1413e+006 88278 238733,238785,238759
 3.6000e+001 239035 -1.3065e+006 -4.5555e+006 -3.8223e+005 87988 238908,238960,238934
 3.6000e+001 239012 -1.4377e+006 -2.5512e+006  2.4313e+005 87988 238908,238986,238960
 3.6000e+001 239138 -5.6052e+004 -9.5997e+005  4.1109e+004 87648 239060,239112,239086
 3.6000e+001 239339 -1.0541e+006 -3.2096e+006 -1.8700e+006 87358 239163,239215,239189
 3.6000e+001 239316 -1.0668e+006 -2.2181e+006 -5.2560e+005 87358 239163,239241,239215
 3.6000e+001 239293 -8.3932e+005 -1.1558e+006 -9.8456e+005 87358 239163,239267,239241
 3.6000e+001 239589  3.5923e+002  6.7606e+001 -6.6286e+002 86961 239390,239468,239416
 3.6000e+001 239566  2.2106e+003  1.0854e+003  4.1744e+002 86961 239390,239494,239468
 3.6000e+001 239543  1.2023e+003 -1.2420e+001  3.0929e+001 86961 239416,239468,239442
 3.6000e+001 239520 -1.7973e+003  2.0391e+003 -5.3013e+002 86961 239364,239494,239390
 3.6000e+001 239741 -1.1728e+006 -4.2730e+006 -5.4033e+005 86621 239640,239692,239666
 3.6000e+001 239718 -4.9371e+005 -5.3703e+006 -1.2933e+006 86621 239614,239692,239640
 3.6000e+001 239893 -4.7218e+005 -5.5670e+006  1.3426e+006 86217 239792,239844,239818
 3.6000e+001 239870 -5.8506e+005 -4.9644e+006  9.7203e+005 86217 239766,239844,239792
 3.6000e+001 240045 -7.8664e+005 -4.5836e+006  5.1019e+005 85827 239918,239970,239944
 3.6000e+001 240022 -1.9037e+005 -4.4242e+006  2.1473e+005 85827 239918,239996,239970
 3.6000e+001 240197 -7.8961e+005 -8.0685e+006  9.2892e+005 85437 240096,240148,240122
 3.6000e+001 240174 -1.7137e+006 -2.9157e+006 -4.8428e+005 85437 240070,240148,240096
 3.6000e+001 240349 -9.3031e+004 -1.4077e+006  4.6568e+005 85147 240222,240274,240248
 3.6000e+001 240326 -2.9162e+005 -9.7966e+005  5.0109e+004 85147 240222,240300,240274
 3.6000e+001 240501 -4.1584e+005 -1.7826e+006  8.2287e+005 84807 240374,240426,240400
 3.6000e+001 240478 -1.2171e+006 -1.9121e+006  8.6265e+005 84807 240374,240452,240426
 3.6000e+001 240653 -1.8425e+002  2.7483e+002  1.0965e+001 84303 240552,240604,240578
 3.6000e+001 240630 -2.2669e+002 -6.8827e+002  3.0171e+002 84303 240526,240604,240552
 3.6000e+001 240854 -1.7258e+005 -1.2043e+007 -5.2862e+006 83929 240704,240756,240730
 3.6000e+001 240831  1.6687e+006 -9.8750e+006  2.3303e+006 83929 240704,240782,240756
 3.6000e+001 240808 -3.3375e+006  1.6583e+006  2.7690e+006 83929 240678,240782,240704
 3.6000e+001 241055 -1.0178e+004 -1.1822e+004 -5.3691e+003 83539 240879,240957,240931
 3.6000e+001 241032 -4.5129e+004 -1.0759e+004 -1.8092e+004 83539 240879,240983,240957
 3.6000e+001 241009 -8.9348e+003 -5.5230e+003 -7.0810e+003 83539 240879,240931,240905
 3.6000e+001 241207  9.0719e+002 -1.5105e+006  3.4161e+005 83079 241106,241158,241132
 3.6000e+001 241184 -7.5370e+004 -7.9781e+005  4.2093e+005 83079 241080,241158,241106
 3.6000e+001 241408  1.1138e+006 -4.2822e+006  4.5755e+005 82665 241232,241284,241258
 3.6000e+001 241385 -1.5779e+006 -1.2805e+007 -3.7654e+006 82665 241232,241336,241284
 3.6000e+001 241362 -3.9855e+006  4.6180e+006  6.6562e+006 82665 241284,241336,241310
 3.6000e+001 241658 -1.8174e+005 -3.9812e+006  3.7657e+005 82375 241485,241563,241511
 3.6000e+001 241635  6.2285e+004 -2.8053e+006  3.4795e+005 82375 241433,241563,241485
 3.6000e+001 241612 -5.6731e+004 -3.2196e+006  4.2053e+005 82375 241433,241485,241459
 3.6000e+001 241589 -5.1488e+005 -4.6029e+006  6.5090e+005 82375 241511,241563,241537
 3.6000e+001 241810 -6.8787e+005 -3.3708e+006 -7.4564e+004 82035 241683,241735,241709
 3.6000e+001 241787 -9.1206e+005 -3.9067e+006  6.0742e+005 82035 241683,241761,241735
 3.6000e+001 241962 -7.5256e+005 -3.6067e+006  2.7315e+005 81695 241861,241913,241887
 3.6000e+001 241939 -4.8387e+005 -4.1231e+006 -6.7701e+005 81695 241835,241913,241861
 3.6000e+001 242114 -9.6196e+005 -6.3327e+006  2.0892e+006 81355 242013,242065,242039
 3.6000e+001 242091 -4.6157e+005 -4.6581e+006  1.5328e+006 81355 241987,242065,242013
 3.6000e+001 242266 -6.6095e+004 -3.0358e+005 -5.4880e+004 80951 242139,242191,242165
 3.6000e+001 242243 -1.2019e+005 -5.4129e+005  1.4728e+003 80951 242139,242217,242191
 3.6000e+001 242467 -2.7731e+005 -4.6575e+006  5.5119e+005 80311 242291,242369,242343
 3.6000e+001 242444  7.6530e+004 -3.2961e+006  4.1711e+005 80311 242291,242395,242369
 3.6000e+001 242421 -3.2655e+005 -3.1084e+006  2.1629e+005 80311 242291,242343,242317
 3.6000e+001 242619 -1.6521e+006 -3.5637e+006  4.7206e+005 80021 242492,242544,242518
 3.6000e+001 242596 -1.5297e+006 -3.2080e+006  1.5158e+006 80021 242492,242570,242544
 3.6000e+001 242869 -2.3170e+005 -1.1676e+006  3.4362e+005 79631 242644,242722,242696
 3.6000e+001 242846 -1.7525e+005 -1.0713e+006  2.9889e+005 79631 242644,242774,242722
 3.6000e+001 242823 -2.5967e+005 -1.4884e+006  2.2455e+005 79631 242722,242774,242748
 3.6000e+001 242800 -2.8994e+005 -1.4146e+006  3.4681e+005 79631 242644,242696,242670
 3.6000e+001 243070 -1.1409e+004 -1.5832e+007  3.1518e+006 79341 242920,242972,242946
 3.6000e+001 243047 -8.2176e+005 -9.5037e+006  2.9401e+004 79341 242920,242998,242972
 3.6000e+001 243024 -1.1661e+006 -6.5091e+006  2.7552e+006 79341 242894,242998,242920
 3.6000e+001 243222 -3.2157e+005 -3.6459e+006  1.2831e+006 78801 243121,243173,243147
 3.6000e+001 243199 -9.3743e+005 -5.5805e+006  2.0941e+006 78801 243095,243173,243121
 3.6000e+001 243423 -7.8308e+005 -4.6986e+006 -4.9411e+005 78511 243273,243325,243299
 3.6000e+001 243400  5.8376e+005 -9.0202e+006  1.7637e+006 78511 243273,243351,243325
 3.6000e+001 243377 -5.1962e+003 -9.2614e+006  2.2707e+005 78511 243247,243351,243273
 3.6000e+001 243624 -3.5375e+005 -3.4210e+006 -6.9897e+005 78107 243474,243552,243526
 3.6000e+001 243601 -4.0774e+005 -2.9916e+006 -8.7783e+005 78107 243448,243552,243474
 3.6000e+001 243578 -8.2126e+005 -4.9188e+006 -2.1047e+006 78107 243474,243526,243500
 3.6000e+001 243776 -6.9753e+005 -3.9196e+006 -9.1903e+005 77653 243649,243701,243675
 3.6000e+001 243753 -1.6674e+006 -7.1301e+006 -3.5254e+005 77653 243649,243727,243701
 3.6000e+001 243977 -5.5963e+005 -5.8965e+006 -7.6103e+004 77093 243801,243853,243827
 3.6000e+001 243954 -1.3157e+005 -4.5311e+006  5.6934e+005 77093 243801,243879,243853
 3.6000e+001 243931  8.6554e+004 -3.6975e+006  2.3960e+005 77093 243801,243905,243879
 3.6000e+001 244080 -1.4751e+006 -5.0293e+006  1.7080e+005 76791 244002,244054,244028
 3.6000e+001 244232 -2.7279e+005 -4.4648e+006  3.0082e+004 76311 244131,244183,244157
 3.6000e+001 244209 -1.2511e+005 -8.9066e+006  5.8465e+005 76311 244105,244183,244131
 3.6000e+001 244433 -1.6283e+006 -1.8017e+007  3.4155e+006 75903 244283,244335,244309
 3.6000e+001 244410 -8.6316e+005 -1.4007e+007  4.9613e+005 75903 244283,244361,244335
 3.6000e+001 244387 -2.6372e+006 -1.0761e+007  2.9072e+006 75903 244257,244361,244283
 3.6000e+001 244585  7.3567e+004 -1.7342e+007  1.9028e+006 75419 244458,244510,244484
 3.6000e+001 244562 -6.8645e+005 -1.2137e+007  7.9029e+005 75419 244458,244536,244510
 3.6000e+001 244737 -3.6272e+005 -1.9183e+006 -1.4601e+005 75215 244636,244688,244662
 3.6000e+001 244714 -2.4857e+005 -4.8989e+006 -1.5683e+005 75215 244610,244688,244636
 3.6000e+001 244889 -9.7824e+005 -5.1093e+006 -5.4707e+005 74857 244788,244840,244814
 3.6000e+001 244866 -3.4341e+005 -2.7508e+006 -2.2279e+005 74857 244762,244840,244788
 3.6000e+001 245041  4.3902e+004 -2.0053e+005 -1.4411e+005 74653 244940,244992,244966
 3.6000e+001 245018 -2.2181e+004 -4.2487e+004  7.2725e+004 74653 244914,244992,244940
 3.6000e+001 245144 -3.1061e+005 -9.2069e+006 -1.6090e+006 74359 245066,245118,245092
 3.6000e+001 245296 -5.9603e+004 -1.8240e+006 -5.8903e+005 74007 245169,245221,245195
 3.6000e+001 245273 -4.9535e+005 -3.1383e+006 -8.7981e+005 74007 245169,245247,245221
 3.6000e+001 245448 -8.4428e+005 -8.7620e+006  2.1987e+006 73711 245321,245373,245347
 3.6000e+001 245425 -1.3859e+005 -8.5278e+006 -3.7425e+006 73711 245321,245399,245373
 3.6000e+001 245600  6.0140e+005 -1.3160e+007 -1.0283e+006 73301 245499,245551,245525
 3.6000e+001 245577 -1.7984e+006 -9.6058e+006  1.8317e+006 73301 245473,245551,245499
 3.6000e+001 245752 -2.0979e+006 -3.0394e+006 -1.8237e+006 72995 245625,245677,245651
 3.6000e+001 245729  8.2506e+005 -1.2887e+007 -1.6844e+006 72995 245625,245703,245677
 3.6000e+001 245953 -2.6658e+006 -1.3768e+007  1.8190e+006 72585 245777,245829,245803
 3.6000e+001 245930 -1.2995e+006 -1.6305e+007  3.9500e+006 72585 245777,245855,245829
 3.6000e+001 245907 -7.1573e+005 -1.1999e+007  2.4662e+006 72585 245777,245881,245855
 3.6000e+001 246154 -3.3450e+005 -6.7365e+006  1.2622e+006 72127 246030,246082,246056
 3.6000e+001 246131 -1.1375e+006 -9.1798e+006  6.9223e+005 72127 245978,246082,246030
 3.6000e+001 246108 -9.1966e+004 -8.7798e+006  7.7738e+004 72127 245978,246030,246004
 3.6000e+001 246257 -1.0956e+006 -2.5979e+006 -1.9012e+005 71737 246179,246231,246205
 3.6000e+001 246360 -8.6269e+004 -2.9100e+006  3.4358e+005 71447 246282,246334,246308
 3.6000e+001 246512 -2.0605e+005 -2.7595e+006  8.4211e+005 71157 246385,246437,246411
 3.6000e+001 246489 -3.5458e+004 -2.4045e+006  2.3700e+005 71157 246385,246463,246437
 3.6000e+001 246664 -1.6582e+005 -2.9135e+006 -3.3325e+005 70753 246537,246589,246563
 3.6000e+001 246641 -6.2208e+005 -1.7313e+006 -1.3466e+005 70753 246537,246615,246589
 3.6000e+001 246865 -2.2291e+006 -1.1767e+007  7.2512e+006 70249 246715,246767,246741
 3.6000e+001 246842 -2.8912e+006 -1.0530e+007 -5.6697e+003 70249 246715,246793,246767
 3.6000e+001 246819 -6.4942e+005 -1.4759e+007 -2.6645e+006 70249 246689,246793,246715
 3.6000e+001 247066 -1.0780e+005 -2.1626e+006  3.8865e+005 70023 246916,246994,246942
 3.6000e+001 247043  5.9332e+004 -2.5406e+006  2.3480e+005 70023 246890,246994,246916
 3.6000e+001 247020 -8.8193e+004 -1.9431e+006  2.6313e+005 70023 246942,246994,246968
 3.6000e+001 247267 -3.3956e+005 -4.7055e+006 -5.2976e+005 69633 247091,247143,247117
 3.6000e+001 247244 -9.9637e+004 -3.5119e+006 -3.9336e+005 69633 247091,247169,247143
 3.6000e+001 247221 -5.8799e+004 -2.9530e+006 -3.3888e+005 69633 247091,247195,247169
 3.6000e+001 247419 -8.6567e+005 -5.4213e+006  6.3749e+005 69457 247318,247370,247344
 3.6000e+001 247396 -1.0518e+006 -3.4104e+006  7.9982e+005 69457 247292,247370,247318
 3.6000e+001 247522  4.5631e+002  1.2306e+002 -2.4995e+002 69209 247444,247496,247470
 3.6000e+001 247625 -1.6084e+006 -1.4691e+006 -5.4106e+005 68919 247547,247599,247573
 3.6000e+001 247777  2.8323e+005 -6.4202e+006 -3.3924e+005 68579 247650,247702,247676
 3.6000e+001 247754 -2.1622e+005 -2.3851e+006 -8.2904e+004 68579 247650,247728,247702
 3.6000e+001 247929  1.4006e+005 -4.1296e+006  1.9095e+006 68289 247802,247854,247828
 3.6000e+001 247906 -2.0058e+005 -1.6908e+006 -2.7423e+005 68289 247802,247880,247854
 3.6000e+001 248081 -3.2584e+005 -5.0965e+006  1.2212e+006 67949 247980,248032,248006
 3.6000e+001 248058 -4.4012e+005 -1.1367e+006  7.1324e+004 67949 247954,248032,247980
 3.6000e+001 248233 -1.5992e+006 -5.6836e+006 -6.8895e+005 67616 248132,248184,248158
 3.6000e+001 248210 -5.6364e+005 -5.9631e+006 -3.8744e+005 67616 248106,248184,248132
 3.6000e+001 248434 -1.1219e+005 -4.1343e+006 -7.6090e+004 67212 248284,248336,248310
 3.6000e+001 248411 -4.7317e+004 -4.2303e+006 -4.6232e+005 67212 248258,248336,248284
 3.6000e+001 248388 -1.4629e+006 -2.7438e+006 -5.8470e+005 67212 248258,248362,248336
 3.6000e+001 248586 -4.7186e+004 -5.1337e+006  5.0249e+005 66872 248485,248537,248511
 3.6000e+001 248563 -7.6343e+005 -1.5990e+006 -1.8262e+005 66872 248459,248537,248485
 3.6000e+001 248738 -2.5075e+005 -5.1249e+006  1.0897e+005 66510 248637,248689,248663
 3.6000e+001 248715 -3.6092e+005 -7.9965e+006  1.7277e+005 66510 248611,248689,248637
 3.6000e+001 248890 -2.6237e+004 -6.2254e+005  1.2673e+005 66220 248789,248841,248815
 3.6000e+001 248867 -7.3614e+004 -7.9713e+005 -1.9539e+005 66220 248763,248841,248789
 3.6000e+001 249091 -1.0472e+006 -1.0541e+007  3.2484e+006 65759 248915,248967,248941
 3.6000e+001 249068 -8.1945e+005 -9.6046e+006  3.2745e+006 65759 248915,248993,248967
 3.6000e+001 249045 -4.1803e+005 -6.7686e+006  1.3226e+006 65759 248915,249019,248993
 3.6000e+001 249243 -8.4146e+004 -7.9853e+006  1.6565e+006 65419 249142,249194,249168
 3.6000e+001 249220 -1.3321e+005 -3.7415e+006  3.4474e+005 65419 249116,249194,249142
 3.6000e+001 249395 -4.4146e+005 -2.9276e+006 -4.5420e+005 65079 249268,249320,249294
 3.6000e+001 249372 -4.4739e+005 -3.7308e+006 -6.8866e+005 65079 249268,249346,249320
 3.6000e+001 249547 -4.4883e+004 -9.2563e+005 -7.4198e+004 64739 249420,249472,249446
 3.6000e+001 249524 -1.3812e+005 -9.8253e+005  1.3367e+004 64739 249420,249498,249472
 3.6000e+001 249650 -1.3650e+006 -5.8151e+006 -2.4678e+006 64342 249572,249624,249598
 3.6000e+001 249851 -3.8452e+005 -5.3956e+006 -5.0677e+005 63938 249701,249779,249753
 3.6000e+001 249828 -1.6179e+005 -5.6038e+006  1.0612e+006 63938 249675,249779,249701
 3.6000e+001 249805 -5.3760e+005 -6.8625e+006 -3.1593e+005 63938 249701,249753,249727
 3.6000e+001 250052 -5.8623e+005 -4.6021e+006 -8.1196e+005 63341 249876,249954,249902
 3.6000e+001 250029 -1.1676e+006 -5.6819e+006 -3.2433e+005 63341 249876,249980,249954
 3.6000e+001 250006  7.9041e+005 -6.5878e+006  8.1366e+005 63341 249902,249954,249928
 3.6000e+001 250253 -1.9324e+005 -3.5618e+006 -4.4474e+005 63058 250077,250129,250103
 3.6000e+001 250230 -5.0830e+005 -3.6466e+006 -1.6512e+005 63058 250077,250155,250129
 3.6000e+001 250207 -2.7013e+005 -3.4862e+006 -3.5657e+005 63058 250077,250181,250155
 3.6000e+001 250454 -8.9892e+005 -7.2824e+006  1.2769e+006 62832 250304,250382,250330
 3.6000e+001 250431  2.0480e+005 -9.1133e+006 -2.4135e+006 62832 250278,250382,250304
 3.6000e+001 250408 -2.2678e+006 -4.5217e+006  2.5156e+005 62832 250330,250382,250356
 3.6000e+001 250606  4.9904e+004 -1.8194e+007  6.0016e+005 62428 250479,250531,250505
 3.6000e+001 250583 -6.4093e+005 -1.3027e+007 -4.8933e+005 62428 250479,250557,250531
 3.6000e+001 250758 -2.7494e+004 -7.3060e+006  6.8937e+005 62202 250631,250683,250657
 3.6000e+001 250735 -1.2081e+005 -7.8821e+006  1.5125e+006 62202 250631,250709,250683
 3.6000e+001 250861 -1.2915e+006 -2.5426e+006 -8.8454e+004 61954 250783,250835,250809
 3.6000e+001 251062 -2.4032e+006 -1.2166e+007 -1.1177e+005 61557 250912,250990,250938
 3.6000e+001 251039  4.2818e+003 -1.3978e+007  1.0230e+005 61557 250886,250990,250912
 3.6000e+001 251016 -1.0289e+006 -1.1437e+007 -1.8433e+006 61557 250938,250990,250964
 3.6000e+001 251263 -9.7480e+005 -7.2822e+006 -1.5031e+005 61167 251113,251165,251139
 3.6000e+001 251240 -4.2122e+005 -7.1543e+006 -4.3438e+005 61167 251113,251191,251165
 3.6000e+001 251217 -1.2606e+006 -6.9741e+006  1.7909e+006 61167 251087,251191,251113
 3.6000e+001 251415 -1.2032e+006 -3.1121e+006  8.5047e+005 60827 251288,251340,251314
 3.6000e+001 251392 -4.9939e+005 -1.6471e+006  1.3590e+004 60827 251288,251366,251340
 3.6000e+001 251567  1.3412e+005 -4.9468e+006  3.5274e+005 60487 251466,251518,251492
 3.6000e+001 251544  7.0267e+004 -3.4397e+006 -2.8511e+005 60487 251440,251518,251466
 3.6000e+001 251719  7.1239e+004 -9.8300e+006 -2.3783e+005 59983 251592,251644,251618
 3.6000e+001 251696 -8.4577e+005 -7.9259e+006 -8.8682e+003 59983 251592,251670,251644
 3.6000e+001 251920 -1.2250e+002 -2.0328e+006 -6.0890e+003 59807 251770,251848,251796
 3.6000e+001 251897  1.3409e+004 -1.8259e+006 -4.0535e+004 59807 251744,251848,251770
 3.6000e+001 251874 -3.9405e+004 -2.2469e+006 -3.2673e+004 59807 251796,251848,251822
 3.6000e+001 252023 -1.4080e+005 -4.5761e+006 -6.0578e+002 59517 251945,251997,251971
 3.6000e+001 252175  1.5468e+006 -1.3417e+007 -2.8406e+005 59269 252074,252126,252100
 3.6000e+001 252152 -1.9146e+005 -8.2767e+006  1.6115e+005 59269 252048,252126,252074
 3.6000e+001 252278 -4.4645e+005 -2.2757e+006  1.0276e+006 58979 252200,252252,252226
 3.6000e+001 252381 -2.3183e+006 -2.5617e+006  1.0660e+006 58689 252303,252355,252329
 3.6000e+001 252533 -9.6843e+005 -4.4804e+006 -5.3320e+005 58249 252432,252484,252458
 3.6000e+001 252510 -1.0623e+006 -5.5948e+006 -1.0858e+006 58249 252406,252484,252432
 3.6000e+001 252734 -2.3323e+005 -4.3987e+006 -7.5473e+004 57902 252584,252662,252610
 3.6000e+001 252711  5.3962e+005 -4.6882e+006 -1.2613e+005 57902 252558,252662,252584
 3.6000e+001 252688 -1.3034e+005 -3.5163e+006 -3.5682e+005 57902 252610,252662,252636
 3.6000e+001 252886 -2.7273e+004 -4.7549e+006 -2.5846e+005 57540 252785,252837,252811
 3.6000e+001 252863  2.2536e+005 -4.4034e+006 -7.7422e+004 57540 252759,252837,252785
 3.6000e+001 253038 -5.5189e+005 -5.8582e+006  1.3884e+006 57086 252937,252989,252963
 3.6000e+001 253015 -2.5286e+005 -2.4671e+006  1.7648e+005 57086 252911,252989,252937
 3.6000e+001 253239 -1.5001e+006 -5.6613e+006 -1.8076e+006 56796 253063,253141,253115
 3.6000e+001 253216  1.5555e+005 -6.6800e+006 -4.0708e+005 56796 253063,253167,253141
 3.6000e+001 253193 -8.1131e+005 -6.7858e+006 -2.2179e+006 56796 253063,253115,253089
 3.6000e+001 253342 -5.6890e+005 -1.7048e+007  1.2787e+004 56349 253264,253316,253290
 3.6000e+001 253543 -9.0401e+005 -8.5760e+006 -8.4716e+005 56009 253367,253419,253393
 3.6000e+001 253520 -5.8695e+005 -4.9483e+006 -5.3703e+005 56009 253367,253445,253419
 3.6000e+001 253497 -2.3354e+005 -6.4317e+006  1.4804e+005 56009 253367,253471,253445
 3.6000e+001 253695 -3.7514e+005 -2.0703e+006  3.3478e+005 55733 253594,253646,253620
 3.6000e+001 253672 -1.2242e+006 -7.4360e+005  3.0878e+004 55733 253568,253646,253594
 3.6000e+001 253798 -5.2055e+005 -2.2514e+006 -2.1289e+005 55557 253720,253772,253746
 3.6000e+001 253950 -6.0112e+005 -4.0085e+006  1.8525e+005 55153 253849,253901,253875
 3.6000e+001 253927 -3.4340e+004 -4.6765e+006 -6.0725e+005 55153 253823,253901,253849
 3.6000e+001 254151 -1.2224e+006 -4.7080e+006  6.7246e+005 54863 253975,254053,254001
 3.6000e+001 254128 -6.2706e+005 -4.8033e+006 -6.4463e+004 54863 253975,254079,254053
 3.6000e+001 254105 -5.5493e+005 -3.8807e+006  1.8316e+005 54863 254001,254053,254027
 3.6000e+001 254303  9.5594e+004 -2.3634e+006  2.0266e+005 54373 254176,254228,254202
 3.6000e+001 254280  6.0714e+004 -1.8230e+006  8.6431e+004 54373 254176,254254,254228
 3.6000e+001 254455 -1.1955e+005 -5.3788e+006 -3.7319e+005 53975 254354,254406,254380
 3.6000e+001 254432 -6.5242e+005 -1.3139e+006  1.9506e+005 53975 254328,254406,254354
 3.6000e+001 254607 -2.8672e+005 -5.0709e+006 -4.7534e+005 53585 254480,254532,254506
 3.6000e+001 254584 -3.9115e+005 -4.8087e+006 -4.8254e+005 53585 254480,254558,254532
 3.6000e+001 254808 -8.8336e+005 -3.6071e+006 -3.8077e+004 53245 254658,254736,254684
 3.6000e+001 254785 -1.0555e+006 -1.5516e+006 -4.8178e+005 53245 254632,254736,254658
 3.6000e+001 254762 -4.7316e+005 -2.4796e+006 -3.5372e+005 53245 254684,254736,254710
 3.6000e+001 254911 -2.5351e+005 -4.1816e+006  3.4280e+005 52955 254833,254885,254859
 3.6000e+001 255063 -6.8813e+005 -6.1304e+006 -1.1648e+005 52551 254962,255014,254988
 3.6000e+001 255040 -6.9282e+005 -6.6081e+006 -3.2398e+005 52551 254936,255014,254962
 3.6000e+001 255264 -4.9637e+005 -9.1526e+005  6.1473e+005 52261 255114,255166,255140
 3.6000e+001 255241 -1.0963e+006 -2.5180e+006  1.2634e+006 52261 255114,255192,255166
 3.6000e+001 255218  1.5886e+005 -4.1712e+006 -2.8012e+005 52261 255088,255192,255114
 3.6000e+001 255416 -4.5596e+005 -5.0282e+006  1.4872e+006 51971 255289,255341,255315
 3.6000e+001 255393 -1.8914e+005 -4.5909e+006 -2.3858e+005 51971 255289,255367,255341
 3.6000e+001 255568 -1.3894e+006 -9.9473e+005 -2.6132e+005 51681 255441,255493,255467
 3.6000e+001 255545 -1.8960e+005 -7.2948e+006  7.6779e+005 51681 255441,255519,255493
 3.6000e+001 255769 -2.0115e+005 -3.1353e+006 -9.9515e+004 51291 255619,255697,255671
 3.6000e+001 255746 -1.8162e+005 -2.8537e+006 -3.2430e+005 51291 255593,255697,255619
 3.6000e+001 255723 -2.2015e+005 -4.9319e+006 -5.4735e+005 51291 255619,255671,255645
 3.6000e+001 255921 -4.1302e+005 -2.9333e+006  7.4603e+005 50951 255820,255872,255846
 3.6000e+001 255898 -9.9874e+004 -1.9007e+006  9.3528e+004 50951 255794,255872,255820
 3.6000e+001 256171 -1.1801e+006 -4.3986e+006  5.3875e+004 50547 256024,256076,256050
 3.6000e+001 256148 -9.2105e+005 -4.4292e+006  4.3617e+005 50547 255972,256076,256024
 3.6000e+001 256125 -2.4868e+005 -5.1042e+006 -6.3315e+004 50547 255946,256076,255972
 3.6000e+001 256102 -8.6118e+005 -3.9550e+006  2.6788e+005 50547 255972,256024,255998
 3.6000e+001 256323  3.2379e+005 -5.4286e+006  9.6508e+005 50093 256196,256248,256222
 3.6000e+001 256300 -1.0098e+006 -2.7226e+006 -1.1665e+006 50093 256196,256274,256248
 3.6000e+001 256426 -1.1730e+002 -5.2542e+000 -4.2481e+001 49845 256348,256400,256374
 3.6000e+001 256627 -8.9868e+004 -5.0391e+006  8.6126e+004 49555 256477,256555,256503
 3.6000e+001 256604 -2.3875e+005 -3.4989e+006  1.2000e+005 49555 256451,256555,256477
 3.6000e+001 256581 -4.0246e+005 -4.3974e+006  2.7299e+005 49555 256503,256555,256529
 3.6000e+001 256828 -7.8503e+005 -2.9171e+006 -2.2284e+005 49056 256652,256730,256678
 3.6000e+001 256805 -3.2389e+005 -3.2195e+006 -5.5455e+005 49056 256652,256756,256730
 3.6000e+001 256782 -6.6509e+005 -2.2953e+006 -6.4564e+005 49056 256678,256730,256704
 3.6000e+001 256931 -7.4163e+004 -2.0372e+005  5.4592e+004 48766 256853,256905,256879
 3.6000e+001 257083 -9.8069e+005 -4.5014e+006 -7.4372e+005 48568 256982,257034,257008
 3.6000e+001 257060 -7.8093e+005 -3.7194e+006 -6.1366e+005 48568 256956,257034,256982
 3.6000e+001 257186 -1.3773e+003 -2.6766e+006  7.7288e+002 48228 257108,257160,257134
 3.6000e+001 257338 -4.3768e+005 -1.6518e+006  5.9781e+005 47888 257237,257289,257263
 3.6000e+001 257315 -4.2025e+005 -1.7687e+006  6.6915e+005 47888 257211,257289,257237
 3.6000e+001 257539 -2.8739e+005 -4.4624e+006  1.5687e+005 47548 257363,257441,257415
 3.6000e+001 257516 -5.7257e+005 -4.1919e+006 -3.4065e+005 47548 257363,257467,257441
 3.6000e+001 257493 -5.5583e+005 -3.2662e+006 -1.4657e+005 47548 257363,257415,257389
 3.6000e+001 257740 -2.2921e+005 -4.5499e+006  4.4776e+005 46994 257564,257642,257616
 3.6000e+001 257717 -4.3966e+005 -3.6983e+006  1.3325e+005 46994 257564,257668,257642
 3.6000e+001 257694 -7.3623e+005 -4.8022e+006  4.5229e+004 46994 257564,257616,257590
 3.6000e+001 257843 -1.0299e+006 -2.4557e+006 -1.4063e+005 46654 257765,257817,257791
 3.6000e+001 257995 -7.3124e+005 -3.5244e+006  2.7761e+005 46364 257894,257946,257920
 3.6000e+001 257972 -7.1609e+005 -4.2844e+006 -1.5256e+005 46364 257868,257946,257894
 3.6000e+001 258147 -1.7093e+005 -3.5690e+006  2.5198e+005 46024 258046,258098,258072
 3.6000e+001 258124 -3.4427e+005 -3.2385e+006  3.4889e+005 46024 258020,258098,258046
 3.6000e+001 258250 -7.0286e+005 -2.5744e+006  9.4621e+005 45741 258172,258224,258198
 3.6000e+001 258402 -2.5113e+005 -2.9073e+006  2.7479e+005 45401 258301,258353,258327
 3.6000e+001 258379 -5.7460e+005 -1.8961e+006  2.5053e+005 45401 258275,258353,258301
 3.6000e+001 258603 -7.1434e+005 -2.2699e+006  1.7452e+003 45071 258427,258505,258479
 3.6000e+001 258580 -1.7953e+005 -5.3425e+006  3.0661e+005 45071 258427,258531,258505
 3.6000e+001 258557 -2.1184e+005 -2.9634e+006  2.5364e+005 45071 258427,258479,258453
 3.6000e+001 258755 -1.7480e+005 -4.0922e+006 -3.2209e+005 44681 258654,258706,258680
 3.6000e+001 258732 -2.0833e+005 -4.0561e+006 -3.3811e+005 44681 258628,258706,258654
 3.6000e+001 258907 -7.5309e+005 -1.0000e+006 -7.7389e+004 44157 258806,258858,258832
 3.6000e+001 258884 -2.6772e+005 -1.3592e+006 -6.3818e+004 44157 258780,258858,258806
 3.6000e+001 259010 -7.2686e+005 -5.8200e+005  2.6179e+004 43705 258932,258984,258958
 3.6000e+001 259113 -4.2063e+005 -3.4041e+006  2.1997e+005 43284 259035,259087,259061
 3.6000e+001 259216 -6.2661e+005 -2.9867e+006 -1.3856e+005 42954 259138,259190,259164
 3.6000e+001 259319 -9.3014e+005 -2.0671e+006  3.1080e+004 42116 259241,259293,259267
 3.6000e+001 259422 -2.4041e+005 -3.4920e+006 -1.8513e+005 41804 259344,259396,259370
 3.6000e+001 259525 -6.0912e+005 -5.7109e+006  7.6995e+005 41219 259447,259499,259473
 3.6000e+001 259628 -8.1074e+005 -3.0496e+006 -4.0211e+005 385 259550,259602,259576
 3.8000e+001 190120 -2.5613e+005 -2.5850e+006 -4.6923e+005 189630 189993,190045,190019
 3.8000e+001 190097 -7.5656e+005 -1.6681e+006 -1.8507e+005 189630 189993,190071,190045
 3.8000e+001 190319 -8.2250e+005 -2.0421e+006  3.4081e+005 189312 190169,190221,190195
 3.8000e+001 190296 -5.1164e+005 -1.1505e+006 -4.6465e+005 189312 190169,190247,190221
 3.8000e+001 190273 -5.8127e+005 -8.5480e+005  1.2678e+005 189312 190143,190247,190169
 3.8000e+001 190518 -4.2092e+005 -2.2255e+005 -2.9094e+004 189124 190368,190446,190420
 3.8000e+001 190495 -5.7183e+005 -9.2762e+004  7.0529e+004 189124 190342,190446,190368
 3.8000e+001 190472 -5.7341e+005 -2.6926e+005  6.4897e+003 189124 190368,190420,190394
 3.8000e+001 190619 -4.4857e+005 -3.7499e+005 -1.0276e+004 188926 190541,190593,190567
 3.8000e+001 190771 -5.2134e+005 -3.2735e+005  8.5016e+003 188614 190670,190722,190696
 3.8000e+001 190748 -4.9770e+005  2.8628e+003  1.0503e+005 188614 190644,190722,190670
 3.8000e+001 190972 -2.6011e+005 -9.9443e+005 -4.0609e+005 188324 190848,190900,190874
 3.8000e+001 190949 -5.5882e+005 -9.7997e+005 -4.2717e+005 188324 190796,190900,190848
 3.8000e+001 190926 -1.3550e+005 -1.4016e+006 -2.3130e+005 188324 190796,190848,190822
 3.8000e+001 191124 -6.3219e+005 -1.8751e+006 -2.2069e+005 188034 191023,191075,191049
 3.8000e+001 191101 -2.1649e+005 -1.9653e+006 -1.9382e+005 188034 190997,191075,191023
 3.8000e+001 191276 -7.4029e+005 -8.6600e+004  4.2877e+004 187836 191149,191201,191175
 3.8000e+001 191253 -9.9052e+004 -1.5248e+005  6.5495e+004 187836 191149,191227,191201
 3.8000e+001 191379 -4.5752e+005 -2.6139e+005 -8.1728e+004 187546 191301,191353,191327
 3.8000e+001 191531 -9.9279e+005 -2.1135e+006 -3.6493e+005 187256 191430,191482,191456
 3.8000e+001 191508 -2.5381e+005 -1.6403e+006  1.1412e+005 187256 191404,191482,191430
 3.8000e+001 191634 -6.3480e+005 -4.7800e+005 -1.4638e+005 187058 191556,191608,191582
 3.8000e+001 191835 -2.4278e+005 -4.5396e+005 -8.7930e+003 186860 191659,191711,191685
 3.8000e+001 191812 -3.5323e+005 -2.4191e+005  1.4011e+004 186860 191659,191737,191711
 3.8000e+001 191789 -2.9500e+005 -6.3050e+004 -3.6461e+004 186860 191659,191763,191737
 3.8000e+001 191987 -5.8982e+005 -1.5408e+006  4.0738e+005 186662 191886,191938,191912
 3.8000e+001 191964 -5.0884e+005 -7.8179e+005 -1.2737e+005 186662 191860,191938,191886
 3.8000e+001 192090 -7.0026e+005 -1.0592e+006  2.7464e+005 186486 192012,192064,192038
 3.8000e+001 192242 -4.7749e+005 -1.6898e+006 -2.0918e+004 186288 192115,192167,192141
 3.8000e+001 192219 -5.1087e+005 -1.4022e+006  3.7011e+004 186288 192115,192193,192167
 3.8000e+001 192394 -3.7994e+005 -1.2645e+006 -3.1047e+005 185935 192293,192345,192319
 3.8000e+001 192371 -2.9044e+005 -1.3787e+006 -2.9948e+005 185935 192267,192345,192293
 3.8000e+001 192546 -3.4422e+005 -2.5112e+006 -2.2020e+005 185675 192419,192471,192445
 3.8000e+001 192523 -6.1938e+005 -8.5765e+005 -1.5927e+005 185675 192419,192497,192471
 3.8000e+001 192649 -2.1428e+005 -1.9656e+006 -1.3108e+005 185499 192571,192623,192597
 3.8000e+001 192801 -1.0924e+006 -7.4007e+005 -1.0519e+005 185301 192674,192726,192700
 3.8000e+001 192778 -5.1864e+005 -8.2600e+005  5.5577e+005 185301 192674,192752,192726
 3.8000e+001 193002 -1.7805e+005 -8.2049e+005 -3.6160e+005 185046 192852,192930,192878
 3.8000e+001 192979 -3.3286e+005 -1.4131e+006 -3.1301e+005 185046 192826,192930,192852
 3.8000e+001 192956  1.2086e+005 -1.4552e+006 -1.9924e+005 185046 192878,192930,192904
 3.8000e+001 193203 -1.0386e+006 -5.5113e+005 -1.6690e+005 184798 193079,193131,193105
 3.8000e+001 193180 -5.0048e+005 -1.9786e+006 -3.8327e+005 184798 193027,193131,193079
 3.8000e+001 193157 -1.7763e+006 -2.3996e+006  9.1375e+005 184798 193027,193079,193053
 3.8000e+001 193404 -2.1115e+005 -2.6569e+006 -1.1267e+004 184600 193254,193306,193280
 3.8000e+001 193381 -1.4868e+005 -1.9302e+006  7.5795e+004 184600 193254,193332,193306
 3.8000e+001 193358 -8.2832e+005 -5.1775e+005 -1.0088e+005 184600 193228,193332,193254
 3.8000e+001 193556 -5.2039e+005 -1.1640e+006 -6.0883e+005 184402 193429,193481,193455
 3.8000e+001 193533 -9.1297e+005 -7.4687e+005 -9.2298e+005 184402 193429,193507,193481
 3.8000e+001 193708 -2.4693e+005 -2.3288e+006 -3.1226e+005 184204 193607,193659,193633
 3.8000e+001 193685 -3.9091e+005 -2.0276e+006 -2.8773e+005 184204 193581,193659,193607
 3.8000e+001 193860 -6.4555e+005 -1.2147e+006  3.5881e+005 183908 193759,193811,193785
 3.8000e+001 193837 -5.8592e+004 -1.6892e+006  5.0456e+005 183908 193733,193811,193759
 3.8000e+001 194061 -4.2744e+005 -2.2204e+006 -3.3920e+004 183710 193911,193989,193937
 3.8000e+001 194038 -4.0604e+005 -1.6166e+006  8.3240e+004 183710 193885,193989,193911
 3.8000e+001 194015 -7.4823e+005 -8.4921e+005 -1.6194e+005 183710 193937,193989,193963
 3.8000e+001 194262 -1.6543e+006 -3.1983e+006 -1.2966e+006 183420 194086,194164,194112
 3.8000e+001 194239 -1.5121e+006 -1.5432e+006  1.1857e+006 183420 194086,194190,194164
 3.8000e+001 194216 -2.5860e+006 -1.0202e+007  2.2460e+006 183420 194112,194164,194138
 3.8000e+001 194414 -6.3600e+005 -3.3095e+006 -1.3389e+005 183222 194287,194339,194313
 3.8000e+001 194391 -4.5193e+005 -2.3857e+005 -2.1040e+005 183222 194287,194365,194339
 3.8000e+001 194517 -9.7255e+005 -4.3296e+005  1.8602e+005 183024 194439,194491,194465
 3.8000e+001 194718  2.4575e+006 -1.4188e+007  2.8598e+006 182734 194568,194620,194594
 3.8000e+001 194695 -7.7061e+005 -2.0332e+006 -2.1073e+006 182734 194542,194620,194568
 3.8000e+001 194672 -2.3156e+006 -1.6091e+006 -8.8009e+005 182734 194542,194646,194620
 3.8000e+001 194870 -5.8896e+005 -1.5918e+006  4.2401e+005 182444 194769,194821,194795
 3.8000e+001 194847 -8.2326e+005 -1.3247e+006 -8.0038e+005 182444 194743,194821,194769
 3.8000e+001 195071 -4.6635e+005 -3.3435e+006  1.0537e+006 182154 194895,194947,194921
 3.8000e+001 195048 -4.8919e+005 -1.9984e+006  1.8626e+005 182154 194895,194999,194947
 3.8000e+001 195025 -4.6771e+005 -9.7004e+005  2.8531e+005 182154 194947,194999,194973
 3.8000e+001 195223 -3.4402e+005 -1.8396e+006 -5.5285e+004 181814 195096,195148,195122
 3.8000e+001 195200 -2.2280e+005 -1.4958e+006 -3.4694e+005 181814 195096,195174,195148
 3.8000e+001 195375 -5.3965e+004 -6.8100e+005 -4.8371e+004 181524 195248,195300,195274
 3.8000e+001 195352  6.0825e+004 -2.0114e+006  2.0559e+005 181524 195248,195326,195300
 3.8000e+001 195527 -6.6669e+004 -9.2398e+005  4.3779e+005 181326 195426,195478,195452
 3.8000e+001 195504 -5.9212e+005 -2.2638e+006  8.5638e+005 181326 195400,195478,195426
 3.8000e+001 195679  1.9214e+004 -1.1732e+007 -2.7659e+005 180936 195578,195630,195604
 3.8000e+001 195656 -1.1009e+006 -3.0182e+006  7.6126e+004 180936 195552,195630,195578
 3.8000e+001 195831 -5.9280e+005 -5.9546e+005 -3.2146e+005 180646 195704,195756,195730
 3.8000e+001 195808 -6.9406e+005 -1.7683e+005 -7.4487e+004 180646 195704,195782,195756
 3.8000e+001 196032 -4.7146e+005 -2.2964e+006  8.0806e+005 180306 195882,195960,195934
 3.8000e+001 196009 -8.2665e+005 -7.1037e+005 -5.0606e+005 180306 195856,195960,195882
 3.8000e+001 195986  1.5286e+005 -3.4734e+006 -5.1488e+005 180306 195882,195934,195908
 3.8000e+001 196233 -2.3665e+005 -1.0440e+005 -5.2728e+005 179944 196057,196109,196083
 3.8000e+001 196210 -8.1336e+005 -2.7757e+006  3.6012e+005 179944 196057,196135,196109
 3.8000e+001 196187 -1.6161e+006  3.1623e+006 -1.0650e+006 179944 196057,196161,196135
 3.8000e+001 196385 -8.4168e+005 -8.7459e+005 -5.3762e+005 179604 196258,196310,196284
 3.8000e+001 196362 -1.3477e+006 -1.6977e+006 -1.6058e+006 179604 196258,196336,196310
 3.8000e+001 196586 -3.4985e+005 -8.7087e+005 -1.9820e+005 179114 196410,196488,196436
 3.8000e+001 196563  1.3208e+005 -2.5124e+006 -3.0093e+005 179114 196410,196514,196488
 3.8000e+001 196540 -7.9703e+003 -8.1825e+005 -8.3183e+004 179114 196436,196488,196462
 3.8000e+001 196738 -1.7606e+005 -2.3298e+006 -2.3421e+005 178674 196611,196663,196637
 3.8000e+001 196715 -7.1294e+005 -1.8739e+006 -2.4815e+005 178674 196611,196689,196663
 3.8000e+001 196939  1.3676e+006 -7.7295e+006 -9.8977e+005 178334 196789,196867,196841
 3.8000e+001 196916 -1.3478e+006 -7.7561e+006  1.7235e+006 178334 196763,196867,196789
 3.8000e+001 196893 -1.9723e+006 -5.0706e+006 -3.8012e+006 178334 196789,196841,196815
 3.8000e+001 197091 -3.1957e+005 -4.7208e+006 -2.1513e+005 177930 196990,197042,197016
 3.8000e+001 197068  6.5877e+004 -3.0702e+006 -1.4985e+005 177930 196964,197042,196990
 3.8000e+001 197194 -8.5054e+002 -1.4487e+005 -1.2726e+003 177732 197116,197168,197142
 3.8000e+001 197346 -2.4431e+005 -7.4877e+006  5.2822e+004 177534 197219,197271,197245
 3.8000e+001 197323 -4.8968e+004 -7.9943e+006  3.1964e+005 177534 197219,197297,197271
 3.8000e+001 197547 -1.8168e+005 -3.4828e+006 -5.2819e+005 177130 197397,197449,197423
 3.8000e+001 197524 -4.3772e+005 -3.5214e+006 -7.0589e+005 177130 197397,197475,197449
 3.8000e+001 197501 -3.5979e+005 -8.0833e+006 -1.0756e+006 177130 197371,197475,197397
 3.8000e+001 197748 -7.4255e+005 -7.8223e+006  2.7406e+005 176790 197598,197676,197624
 3.8000e+001 197725 -6.5969e+005 -4.9464e+006  5.1902e+005 176790 197572,197676,197598
 3.8000e+001 197702 -7.6876e+005 -5.7158e+006  6.5657e+005 176790 197624,197676,197650
 3.8000e+001 197900 -1.6139e+005 -5.2272e+006 -1.0563e+006 176300 197773,197825,197799
 3.8000e+001 197877 -1.7284e+005 -5.2722e+006 -1.0438e+006 176300 197773,197851,197825
 3.8000e+001 198052 -1.1994e+006 -7.8368e+006 -1.4210e+006 176010 197925,197977,197951
 3.8000e+001 198029 -1.2678e+006 -5.6672e+006 -1.2712e+006 176010 197925,198003,197977
 3.8000e+001 198204 -1.3111e+006 -4.2057e+006 -1.9245e+006 175670 198103,198155,198129
 3.8000e+001 198181 -2.0240e+006 -5.4467e+006 -9.7230e+005 175670 198077,198155,198103
 3.8000e+001 198405 -2.4555e+005 -6.2702e+006 -4.5491e+005 175266 198255,198307,198281
 3.8000e+001 198382  1.4472e+005 -6.5594e+006 -7.0918e+005 175266 198229,198307,198255
 3.8000e+001 198359 -9.8308e+005 -5.0553e+006 -1.8304e+006 175266 198229,198333,198307
 3.8000e+001 198606 -4.2885e+004 -6.7171e+005  1.5111e+004 174876 198430,198508,198482
 3.8000e+001 198583 -2.7506e+005 -7.0933e+005 -1.7240e+005 174876 198430,198534,198508
 3.8000e+001 198560 -9.4274e+004 -3.7744e+005 -8.2821e+004 174876 198430,198482,198456
 3.8000e+001 198758 -3.5278e+004 -1.0852e+005 -6.3101e+004 174536 198657,198709,198683
 3.8000e+001 198735 -3.4955e+004 -9.9075e+004 -5.7412e+004 174536 198631,198709,198657
 3.8000e+001 199008 -2.3261e+005 -9.0876e+006  3.3750e+004 174132 198835,198913,198887
 3.8000e+001 198985  5.8006e+004 -3.9406e+006  4.0499e+005 174132 198809,198913,198835
 3.8000e+001 198962 -2.3406e+005 -4.3571e+006 -1.8106e+006 174132 198783,198913,198809
 3.8000e+001 198939  5.3206e+005 -9.6319e+006  6.2585e+004 174132 198835,198887,198861
 3.8000e+001 199160 -1.6692e+006 -3.3063e+006 -1.3241e+006 173842 199059,199111,199085
 3.8000e+001 199137 -1.1094e+006 -1.9762e+006 -8.9415e+005 173842 199033,199111,199059
 3.8000e+001 199361 -2.8300e+005 -1.2052e+007  1.5182e+006 173438 199237,199289,199263
 3.8000e+001 199338 -1.3584e+006 -8.4101e+006  1.9417e+006 173438 199211,199289,199237
 3.8000e+001 199315 -1.0280e+006 -1.0065e+007  5.0570e+005 173438 199185,199289,199211
 3.8000e+001 199513  2.1417e+005 -1.4052e+007  2.5457e+006 173190 199386,199438,199412
 3.8000e+001 199490  7.3246e+005 -9.9947e+006 -1.8396e+005 173190 199386,199464,199438
 3.8000e+001 199665 -3.9217e+005 -2.2090e+006  2.1151e+005 172750 199564,199616,199590
 3.8000e+001 199642 -7.5184e+005 -9.7304e+005 -7.4844e+001 172750 199538,199616,199564
 3.8000e+001 199817 -9.3257e+005 -1.2575e+007 -4.5183e+006 172524 199690,199742,199716
 3.8000e+001 199794 -5.3977e+006 -5.3855e+006 -2.8152e+006 172524 199690,199768,199742
 3.8000e+001 199969 -6.0725e+004 -7.9884e+006 -4.1883e+005 172348 199842,199894,199868
 3.8000e+001 199946  7.1475e+005 -7.8840e+006  2.2679e+005 172348 199842,199920,199894
 3.8000e+001 200121  3.4128e+005 -8.6165e+006 -1.2468e+006 172008 199994,200046,200020
 3.8000e+001 200098 -6.9884e+005 -3.5965e+006 -4.4927e+005 172008 199994,200072,200046
 3.8000e+001 200273 -4.7061e+005 -4.9390e+006  2.9906e+005 171668 200172,200224,200198
 3.8000e+001 200250 -3.6205e+005 -4.9851e+006  5.0317e+005 171668 200146,200224,200172
 3.8000e+001 200474 -7.3140e+004 -9.4346e+006 -1.3377e+006 171264 200350,200402,200376
 3.8000e+001 200451 -1.0542e+005 -8.1468e+006 -9.2892e+005 171264 200324,200402,200350
 3.8000e+001 200428 -9.8796e+005 -6.3157e+006  1.4430e+006 171264 200298,200402,200324
 3.8000e+001 200626  1.2251e+005 -8.8233e+006 -2.0563e+005 170832 200525,200577,200551
 3.8000e+001 200603 -2.3619e+005 -5.6291e+006 -1.9375e+005 170832 200499,200577,200525
 3.8000e+001 200827  4.5810e+005 -9.6150e+006  9.2430e+005 170492 200677,200729,200703
 3.8000e+001 200804 -1.4475e+006 -4.4298e+006 -3.0427e+006 170492 200651,200729,200677
 3.8000e+001 200781 -3.0140e+006 -3.3226e+006 -1.8437e+006 170492 200651,200755,200729
 3.8000e+001 201077  1.0369e+006 -6.1132e+006  2.5233e+005 170088 200878,200956,200904
 3.8000e+001 201054 -4.5591e+005 -5.1479e+006 -1.6686e+006 170088 200852,200956,200878
 3.8000e+001 201031  5.8636e+005 -4.1269e+006  4.8813e+006 170088 200904,200956,200930
 3.8000e+001 201008  5.0282e+006 -1.1113e+007  2.4785e+006 170088 200852,200982,200956
 3.8000e+001 201278  2.8123e+005 -1.3069e+006 -6.5162e+004 169798 201102,201154,201128
 3.8000e+001 201255 -1.4846e+006 -7.9975e+006 -7.0164e+005 169798 201102,201206,201154
 3.8000e+001 201232 -1.0072e+006 -2.7021e+006  9.7918e+005 169798 201154,201206,201180
 3.8000e+001 201430 -9.7016e+005 -1.4635e+007 -2.3404e+006 169337 201303,201355,201329
 3.8000e+001 201407 -5.5368e+005 -5.2085e+006 -5.3922e+005 169337 201303,201381,201355
 3.8000e+001 201631 -9.9222e+005 -1.1443e+007 -8.2391e+005 168883 201481,201559,201507
 3.8000e+001 201608  4.4680e+004 -8.4623e+006  1.1124e+006 168883 201455,201559,201481
 3.8000e+001 201585 -6.2874e+005 -1.0209e+007 -5.2969e+005 168883 201507,201559,201533
 3.8000e+001 201832 -2.4430e+005 -1.2728e+007  3.3498e+005 168479 201682,201734,201708
 3.8000e+001 201809 -2.5836e+006 -1.0048e+007 -1.9928e+006 168479 201656,201734,201682
 3.8000e+001 201786 -2.2029e+006 -8.5296e+006 -1.0854e+006 168479 201656,201760,201734
 3.8000e+001 202033 -1.4355e+005 -5.0442e+006  8.5210e+005 167825 201883,201935,201909
 3.8000e+001 202010 -1.1441e+006 -6.0464e+006 -9.7996e+005 167825 201857,201935,201883
 3.8000e+001 201987  5.8033e+005 -1.4100e+007  2.6834e+005 167825 201857,201961,201935
 3.8000e+001 202234 -5.6476e+005 -5.7810e+006 -1.7001e+006 167435 202058,202136,202084
 3.8000e+001 202211 -1.0008e+006 -8.1755e+006  1.1175e+006 167435 202058,202162,202136
 3.8000e+001 202188 -6.0396e+005 -2.7117e+006  4.6548e+005 167435 202084,202136,202110
 3.8000e+001 202386  2.0554e+005 -6.5652e+006 -1.5180e+005 167002 202285,202337,202311
 3.8000e+001 202363 -2.2325e+005 -3.5171e+006  1.1741e+005 167002 202259,202337,202285
 3.8000e+001 202538  4.5803e+004 -6.1771e+006 -1.0941e+005 166662 202411,202463,202437
 3.8000e+001 202515 -6.6000e+005 -4.4979e+006  3.6851e+005 166662 202411,202489,202463
 3.8000e+001 202690  1.9266e+005 -7.9575e+006 -1.7735e+006 166322 202589,202641,202615
 3.8000e+001 202667  3.3134e+005 -6.8315e+006 -8.6715e+005 166322 202563,202641,202589
 3.8000e+001 202891 -6.4951e+005 -2.2285e+006  8.0481e+005 165918 202715,202767,202741
 3.8000e+001 202868 -1.0611e+006 -4.2519e+006 -4.6932e+004 165918 202715,202793,202767
 3.8000e+001 202845 -1.2021e+005 -4.4544e+006 -8.8305e+004 165918 202715,202819,202793
 3.8000e+001 203092 -7.2161e+005 -8.2699e+006 -1.3786e+006 165628 202916,202968,202942
 3.8000e+001 203069 -2.7925e+004 -1.2420e+007 -9.9075e+005 165628 202916,202994,202968
 3.8000e+001 203046 -1.6922e+006 -1.0347e+007 -2.9095e+006 165628 202916,203020,202994
 3.8000e+001 203293 -6.8601e+006 -7.7708e+006 -1.0211e+006 165266 203143,203195,203169
 3.8000e+001 203270 -3.4080e+006 -9.4656e+006 -6.3039e+004 165266 203143,203221,203195
 3.8000e+001 203247 -1.1460e+006 -1.2894e+007 -3.8083e+006 165266 203117,203221,203143
 3.8000e+001 203445 -3.1067e+005 -4.5097e+006 -2.6431e+005 164826 203318,203370,203344
 3.8000e+001 203422  1.8450e+005 -5.2756e+006  2.8272e+005 164826 203318,203396,203370
 3.8000e+001 203597 -6.9271e+005 -5.9435e+006 -4.5704e+005 164386 203470,203522,203496
 3.8000e+001 203574 -9.6173e+004 -3.9429e+006 -7.7034e+004 164386 203470,203548,203522
 3.8000e+001 203798 -2.3342e+004 -6.0350e+006  9.4097e+005 163996 203622,203674,203648
 3.8000e+001 203775 -1.1862e+006 -8.2887e+005 -1.9824e+005 163996 203622,203726,203674
 3.8000e+001 203752 -2.3260e+006 -3.3004e+006  3.0830e+006 163996 203674,203726,203700
 3.8000e+001 203901  1.9513e+005 -3.3303e+006 -9.3046e+005 163770 203823,203875,203849
 3.8000e+001 204053 -1.3642e+006 -4.1048e+006  1.1110e+006 163474 203952,204004,203978
 3.8000e+001 204030 -2.8043e+005 -5.4044e+006 -1.6208e+006 163474 203926,204004,203952
 3.8000e+001 204205 -4.9408e+005 -4.3842e+006 -7.3169e+005 163034 204104,204156,204130
 3.8000e+001 204182 -9.9956e+005 -9.4029e+006 -5.2175e+006 163034 204078,204156,204104
 3.8000e+001 204357 -2.8618e+005 -5.8596e+006  8.5441e+005 162624 204256,204308,204282
 3.8000e+001 204334  7.1072e+004 -1.0373e+006 -2.1860e+004 162624 204230,204308,204256
 3.8000e+001 204509 -1.4725e+004 -1.2008e+005  4.5552e+004 162200 204382,204434,204408
 3.8000e+001 204486 -1.6581e+004 -8.2275e+004  3.1848e+004 162200 204382,204460,204434
 3.8000e+001 204710 -1.0168e+005 -1.6710e+006 -8.7860e+004 161810 204560,204638,204586
 3.8000e+001 204687  2.2003e+004 -2.3421e+006 -7.6225e+005 161810 204534,204638,204560
 3.8000e+001 204664 -3.2104e+005 -1.8116e+006 -4.0701e+005 161810 204586,204638,204612
 3.8000e+001 204862 -1.3834e+006 -5.6585e+006 -2.0952e+006 161406 204735,204787,204761
 3.8000e+001 204839 -2.5816e+006 -5.6965e+006 -1.9380e+006 161406 204735,204813,204787
 3.8000e+001 205014  1.7794e+003 -7.7567e+004  1.2627e+004 161180 204887,204939,204913
 3.8000e+001 204991 -6.1988e+003 -3.9684e+004 -5.3993e+003 161180 204887,204965,204939
 3.8000e+001 205215  5.3509e+005 -1.5231e+006 -1.8540e+005 160726 205039,205091,205065
 3.8000e+001 205192 -6.8401e+005 -6.2565e+006 -6.0145e+005 160726 205039,205143,205091
 3.8000e+001 205169 -7.8520e+004 -7.9762e+005 -3.2965e+004 160726 205091,205143,205117
 3.8000e+001 205416  7.8586e+004 -3.0296e+006  1.1108e+006 160272 205292,205344,205318
 3.8000e+001 205393 -5.5973e+005 -6.3002e+005  6.8424e+005 160272 205240,205344,205292
 3.8000e+001 205370 -3.7433e+005 -3.0690e+005  1.1443e+005 160272 205240,205292,205266
 3.8000e+001 205568 -4.1177e+003 -1.1195e+005  9.6939e+003 159932 205441,205493,205467
 3.8000e+001 205545 -6.2749e+003 -9.2771e+004  1.3302e+004 159932 205441,205519,205493
 3.8000e+001 205720 -1.6105e+004 -9.8320e+004  4.4652e+004 159542 205593,205645,205619
 3.8000e+001 205697 -3.1111e+004 -1.3541e+005  5.6264e+004 159542 205593,205671,205645
 3.8000e+001 205872  1.3816e+004 -3.6035e+004 -2.0587e+003 159252 205745,205797,205771
 3.8000e+001 205849 -6.2419e+003 -1.0933e+005  9.6515e+003 159252 205745,205823,205797
 3.8000e+001 206024 -3.4114e+006 -3.2478e+006 -1.5064e+006 159004 205923,205975,205949
 3.8000e+001 206001 -9.9234e+005 -2.4915e+006  8.7505e+004 159004 205897,205975,205923
 3.8000e+001 206127 -1.4905e+006 -1.2401e+006 -2.7840e+003 158364 206049,206101,206075
 3.8000e+001 206328  1.3581e+004 -5.6245e+004  3.4521e+004 157960 206178,206256,206204
 3.8000e+001 206305  2.5083e+004 -8.7613e+004 -1.6835e+004 157960 206152,206256,206178
 3.8000e+001 206282 -2.3790e+004 -3.7527e+004  2.1006e+004 157960 206204,206256,206230
 3.8000e+001 206529 -6.1863e+005 -1.1375e+007  4.1973e+005 157648 206405,206457,206431
 3.8000e+001 206506 -4.5647e+006 -7.2934e+006 -1.1334e+006 157648 206379,206457,206405
 3.8000e+001 206483 -1.8425e+006 -5.5140e+006  5.2862e+005 157648 206353,206457,206379
 3.8000e+001 206730  1.1136e+006 -1.1417e+007 -4.1639e+004 157208 206554,206606,206580
 3.8000e+001 206707  9.0053e+005 -1.2708e+007  1.6280e+006 157208 206554,206632,206606
 3.8000e+001 206684 -6.0668e+006 -1.6310e+006 -2.5088e+006 157208 206554,206658,206632
 3.8000e+001 206882 -6.0891e+003 -2.9390e+004 -5.7775e+003 157010 206755,206807,206781
 3.8000e+001 206859  2.5186e+003 -7.7211e+004  1.4193e+004 157010 206755,206833,206807
 3.8000e+001 207034 -1.5126e+005 -4.5359e+006 -9.7287e+004 156620 206907,206959,206933
 3.8000e+001 207011  1.3396e+005 -7.8219e+006  6.4807e+004 156620 206907,206985,206959
 3.8000e+001 207186 -2.8739e+003 -2.2241e+006  8.3208e+004 156330 207085,207137,207111
 3.8000e+001 207163 -2.6308e+005 -2.3667e+006 -7.4943e+005 156330 207059,207137,207085
 3.8000e+001 207387 -9.2966e+005 -5.5153e+006  2.0482e+006 155890 207211,207289,207237
 3.8000e+001 207364 -6.8171e+005 -5.6511e+006 -1.2194e+006 155890 207211,207315,207289
 3.8000e+001 207341 -1.3846e+006 -5.2857e+006  2.1589e+006 155890 207237,207289,207263
 3.8000e+001 207588  9.0177e+005 -2.6527e+007  7.5772e+006 155436 207438,207490,207464
 3.8000e+001 207565 -1.4408e+005 -2.0792e+007 -8.7015e+005 155436 207412,207490,207438
 3.8000e+001 207542 -1.9807e+006 -1.1960e+007 -1.0573e+006 155436 207412,207516,207490
 3.8000e+001 207789  2.1886e+006 -3.9992e+007 -2.7011e+006 155260 207639,207691,207665
 3.8000e+001 207766 -4.5686e+006 -1.3933e+007  5.4190e+006 155260 207613,207691,207639
 3.8000e+001 207743 -8.2604e+005 -1.0901e+007 -1.4832e+005 155260 207613,207717,207691
 3.8000e+001 207990 -3.9534e+002 -3.6342e+003  9.1391e+002 154920 207840,207918,207892
 3.8000e+001 207967 -1.1357e+003 -4.0909e+003 -1.9359e+002 154920 207814,207918,207840
 3.8000e+001 207944 -5.4612e+002 -1.0238e+003 -5.2435e+002 154920 207840,207892,207866
 3.8000e+001 208191 -4.1519e+005 -1.1564e+007 -1.9349e+006 154630 208015,208093,208041
 3.8000e+001 208168  8.7723e+004 -6.9607e+006 -1.7581e+006 154630 208015,208119,208093
 3.8000e+001 208145 -2.9981e+006 -6.1738e+006 -4.3031e+006 154630 208041,208093,208067
 3.8000e+001 208343  7.3552e-002  2.2787e-004  4.0939e-003 154240 208216,208268,208242
 3.8000e+001 208320 -1.4063e-001 -4.3568e-004 -7.8275e-003 154240 208216,208294,208268
 3.8000e+001 208495  3.0270e+006 -3.0718e+007 -7.2927e+006 153950 208394,208446,208420
 3.8000e+001 208472 -2.4851e+006 -1.3714e+007  4.4835e+006 153950 208368,208446,208394
 3.8000e+001 208647 -1.4987e+006 -1.4918e+007  9.2066e+006 153603 208520,208572,208546
 3.8000e+001 208624 -5.4086e+006 -5.6040e+006 -4.6443e+006 153603 208520,208598,208572
 3.8000e+001 208848 -4.4277e+005 -4.0198e+006  1.5506e+006 153149 208698,208776,208724
 3.8000e+001 208825  6.0559e+005 -8.9439e+006 -9.3180e+005 153149 208672,208776,208698
 3.8000e+001 208802 -1.6398e+006 -2.3658e+006  1.0613e+006 153149 208724,208776,208750
 3.8000e+001 209000 -1.2068e+006 -1.0399e+007 -3.7060e+005 152859 208873,208925,208899
 3.8000e+001 208977 -8.6046e+004 -1.6549e+007  5.5771e+005 152859 208873,208951,208925
 3.8000e+001 209152  8.3319e+005 -1.4345e+007 -3.7627e+005 152569 209051,209103,209077
 3.8000e+001 209129  6.1735e+005 -1.4779e+007 -6.4655e+005 152569 209025,209103,209051
 3.8000e+001 209304 -3.1909e-001 -4.4371e-001 -3.7627e-001 152065 209177,209229,209203
 3.8000e+001 209281  7.2938e-001  1.0142e+000  8.6009e-001 152065 209177,209255,209229
 3.8000e+001 209456  6.7957e+005 -1.1704e+007 -1.0530e+005 151775 209355,209407,209381
 3.8000e+001 209433  1.3410e+006 -1.6930e+007 -1.8723e+005 151775 209329,209407,209355
 3.8000e+001 209608 -8.0154e+005 -1.5389e+007 -5.0182e+005 151371 209481,209533,209507
 3.8000e+001 209585  8.3799e+005 -2.0462e+007  9.5449e+005 151371 209481,209559,209533
 3.8000e+001 209760 -5.7144e+005 -6.8635e+006 -1.4371e+004 150981 209659,209711,209685
 3.8000e+001 209737 -9.9944e+005 -9.1454e+006 -5.0121e+006 150981 209633,209711,209659
 3.8000e+001 209912  2.8138e+006 -4.0562e+007 -3.4102e+006 150619 209811,209863,209837
 3.8000e+001 209889 -3.2557e+006 -1.8451e+007  4.2256e+006 150619 209785,209863,209811
 3.8000e+001 210064 -1.2377e+006 -2.0743e+006 -1.1101e+006 150279 209937,209989,209963
 3.8000e+001 210041  9.3122e+005 -1.7081e+007 -3.5825e+006 150279 209937,210015,209989
 3.8000e+001 210265 -8.1314e+005 -1.6674e+007  9.4162e+005 149989 210115,210167,210141
 3.8000e+001 210242 -1.6398e+005 -1.8541e+007 -1.1589e+006 149989 210115,210193,210167
 3.8000e+001 210219  8.9770e+005 -1.9749e+007 -4.7638e+005 149989 210089,210193,210115
 3.8000e+001 210417 -5.3247e+006 -4.6273e+006 -6.2775e+004 149599 210316,210368,210342
 3.8000e+001 210394 -2.7667e+006 -1.5012e+007 -1.7930e+006 149599 210290,210368,210316
 3.8000e+001 210618 -4.2229e+006 -1.3775e+007  5.3379e+006 149095 210468,210520,210494
 3.8000e+001 210595 -3.8088e+006 -1.3218e+007  4.0576e+005 149095 210442,210520,210468
 3.8000e+001 210572 -2.6007e+006 -2.6785e+007  2.3616e+006 149095 210442,210546,210520
 3.8000e+001 210819 -1.3784e+002 -1.4691e+005 -1.9425e+004 148748 210695,210747,210721
 3.8000e+001 210796 -1.2898e+003 -1.2585e+005 -2.5432e+004 148748 210669,210747,210695
 3.8000e+001 210773 -1.3232e+004 -6.3158e+004  2.8396e+004 148748 210643,210747,210669
 3.8000e+001 210971  1.5441e+002 -2.6100e+002  6.4671e+001 148408 210870,210922,210896
 3.8000e+001 210948  1.4874e+002  4.6982e+001  1.3492e+001 148408 210844,210922,210870
 3.8000e+001 211123 -7.8155e+005 -1.2411e+007  1.2247e+006 148118 210996,211048,211022
 3.8000e+001 211100  3.2148e+005 -1.5511e+007  5.7789e+006 148118 210996,211074,211048
 3.8000e+001 211275 -3.6476e+006 -1.0853e+007  2.3038e+005 147778 211148,211200,211174
 3.8000e+001 211252 -2.7136e+005 -2.5733e+007  9.7497e+006 147778 211148,211226,211200
 3.8000e+001 211427 -2.5195e+006 -7.2156e+006  2.7139e+006 147324 211326,211378,211352
 3.8000e+001 211404  1.0227e+006 -1.5606e+007 -9.3121e+003 147324 211300,211378,211326
 3.8000e+001 211628  5.9147e+001 -2.1157e+002 -5.1630e+001 147012 211452,211504,211478
 3.8000e+001 211605  9.1216e+001  6.4394e+002  7.9463e+001 147012 211452,211556,211504
 3.8000e+001 211582  6.5350e+001  2.0689e+002  1.7180e+002 147012 211504,211556,211530
 3.8000e+001 211829 -3.7582e+006 -7.1005e+006  2.8516e+006 146636 211679,211757,211731
 3.8000e+001 211806  4.8410e+006 -2.3910e+007 -2.0964e+006 146636 211653,211757,211679
 3.8000e+001 211783  1.6817e+006 -7.7022e+006  4.4374e+006 146636 211679,211731,211705
 3.8000e+001 211981 -4.3302e+002 -1.6247e+004 -8.5408e+000 146246 211880,211932,211906
 3.8000e+001 211958 -2.4935e+002 -9.7495e+001  4.9106e+001 146246 211854,211932,211880
 3.8000e+001 212133 -3.8478e+001 -1.2834e+001  1.6490e+002 145956 212006,212058,212032
 3.8000e+001 212110  1.9512e+002  2.2091e+002  8.4728e+000 145956 212006,212084,212058
 3.8000e+001 212285 -1.7227e+003 -3.9096e+004  1.0420e+003 145544 212184,212236,212210
 3.8000e+001 212262  1.1863e+001 -3.1307e+003 -7.2272e+001 145544 212158,212236,212184
 3.8000e+001 212486  1.7912e+006 -1.6297e+007  1.8758e+006 144990 212362,212414,212388
 3.8000e+001 212463  3.4937e+004 -1.0712e+007  4.5634e+006 144990 212310,212414,212362
 3.8000e+001 212440 -3.2593e+006 -2.5965e+006  2.0906e+006 144990 212310,212362,212336
 3.8000e+001 212638 -8.2522e+003 -1.9902e+005  3.8486e+004 144600 212537,212589,212563
 3.8000e+001 212615 -7.3587e+003 -1.9068e+005  4.8332e+004 144600 212511,212589,212537
 3.8000e+001 212839 -5.2345e+004 -8.4420e+005 -1.3897e+005 144210 212689,212741,212715
 3.8000e+001 212816 -3.4994e+003 -1.0076e+006  7.4773e+003 144210 212663,212741,212689
 3.8000e+001 212793  5.5268e+004 -6.5752e+005 -3.4165e+004 144210 212663,212767,212741
 3.8000e+001 212991 -7.2577e+004 -1.5066e+005 -8.0448e+004 143920 212890,212942,212916
 3.8000e+001 212968 -1.4450e+005 -4.0365e+005 -1.5695e+005 143920 212864,212942,212890
 3.8000e+001 213143 -4.7899e+002 -4.3658e+002  1.6278e+002 143480 213016,213068,213042
 3.8000e+001 213120 -5.9845e+001 -2.2946e+002  2.6027e+000 143480 213016,213094,213068
 3.8000e+001 213295 -2.2804e+006 -8.1857e+006  5.4039e+006 142990 213194,213246,213220
 3.8000e+001 213272 -2.9455e+006 -2.8975e+006  2.1198e+006 142990 213168,213246,213194
 3.8000e+001 213447 -3.9752e+005 -3.5661e+006  5.8217e+005 142600 213320,213372,213346
 3.8000e+001 213424 -9.4023e+005 -1.9015e+006 -7.1256e+005 142600 213320,213398,213372
 3.8000e+001 213599 -7.1520e+004 -3.9056e+005 -2.0004e+005 142260 213472,213524,213498
 3.8000e+001 213576 -2.7255e+004 -4.7007e+005  1.0595e+005 142260 213472,213550,213524
 3.8000e+001 213751 -7.1733e+005 -1.4780e+006 -3.7388e+005 141870 213624,213676,213650
 3.8000e+001 213728 -1.2715e+006 -8.3732e+005 -1.4257e+006 141870 213624,213702,213676
 3.8000e+001 213903 -1.3501e+006 -2.6136e+006 -1.8682e+006 141530 213776,213828,213802
 3.8000e+001 213880 -5.9498e+005 -2.9222e+006 -1.2304e+006 141530 213776,213854,213828
 3.8000e+001 214055 -2.3898e+001 -4.6132e+002 -1.1190e+002 141218 213928,213980,213954
 3.8000e+001 214032 -3.7510e+002 -2.4240e+002 -7.3660e+001 141218 213928,214006,213980
 3.8000e+001 214207 -1.7564e+002 -4.0307e+002 -3.9327e+002 140928 214080,214132,214106
 3.8000e+001 214184 -3.5321e+002 -4.7594e+002 -5.5000e+000 140928 214080,214158,214132
 3.8000e+001 214359 -4.2516e+005 -2.2498e+005 -4.2212e+005 140538 214232,214284,214258
 3.8000e+001 214336  2.1531e+005 -1.1296e+006  2.7347e+005 140538 214232,214310,214284
 3.8000e+001 214560 -3.3938e+004 -2.9019e+006 -4.5536e+003 140248 214384,214462,214410
 3.8000e+001 214537  1.8867e+005 -1.3532e+006 -9.2815e+004 140248 214384,214488,214462
 3.8000e+001 214514 -3.1505e+005 -1.7636e+006 -4.2518e+005 140248 214410,214462,214436
 3.8000e+001 214712 -9.2241e+005 -7.7500e+006  1.5867e+006 140000 214611,214663,214637
 3.8000e+001 214689 -9.1533e+005 -4.6271e+006  1.3626e+006 140000 214585,214663,214611
 3.8000e+001 214913 -5.7919e+005 -2.1487e+006 -1.3190e+006 139596 214737,214815,214763
 3.8000e+001 214890 -5.3868e+005 -4.3151e+005 -2.1117e+005 139596 214737,214841,214815
 3.8000e+001 214867  5.1819e+005 -4.8050e+006 -7.6269e+005 139596 214763,214815,214789
 3.8000e+001 215016 -4.8114e+002 -7.3930e+001 -1.0715e+002 139420 214938,214990,214964
 3.8000e+001 215168 -1.4838e+006 -1.0707e+007  3.8136e+006 139130 215067,215119,215093
 3.8000e+001 215145 -8.5636e+005 -1.0838e+007  2.4412e+006 139130 215041,215119,215067
 3.8000e+001 215320 -1.2654e+006 -4.3206e+006  1.9428e+006 138790 215219,215271,215245
 3.8000e+001 215297 -8.7128e+004 -1.2087e+007  3.6446e+006 138790 215193,215271,215219
 3.8000e+001 215472 -2.1850e+004 -2.0391e+005  7.8365e+004 138514 215345,215397,215371
 3.8000e+001 215449  1.8980e+004 -1.6618e+005  4.9478e+004 138514 215345,215423,215397
 3.8000e+001 215624 -1.0802e+005 -9.6283e+006  5.7244e+005 138174 215497,215549,215523
 3.8000e+001 215601  1.1444e+005 -8.4373e+006  2.9865e+005 138174 215497,215575,215549
 3.8000e+001 215776 -3.2434e+005 -1.9452e+006  1.0992e+006 137734 215649,215701,215675
 3.8000e+001 215753 -9.0912e+004 -1.2817e+006 -1.8803e+005 137734 215649,215727,215701
 3.8000e+001 215977 -4.0561e+005 -1.9679e+007  5.2135e+006 137344 215801,215879,215827
 3.8000e+001 215954 -1.2243e+006 -8.7045e+006 -3.1079e+006 137344 215801,215905,215879
 3.8000e+001 215931  9.6303e+004 -2.7381e+007 -7.5075e+005 137344 215827,215879,215853
 3.8000e+001 216129 -3.7700e+005 -6.5507e+006 -1.5323e+005 136940 216028,216080,216054
 3.8000e+001 216106 -5.8256e+005 -6.4007e+006 -5.6600e+005 136940 216002,216080,216028
 3.8000e+001 216330 -3.5209e+005 -8.5293e+006  1.2535e+006 136600 216180,216232,216206
 3.8000e+001 216307 -5.7776e+005 -8.7532e+006  2.0102e+006 136600 216154,216232,216180
 3.8000e+001 216284 -2.0720e+006 -6.3981e+006  1.0143e+006 136600 216154,216258,216232
 3.8000e+001 216482  9.3567e+005 -6.6918e+006  5.9013e+005 136260 216381,216433,216407
 3.8000e+001 216459  2.9310e+005 -8.1599e+006  4.0384e+004 136260 216355,216433,216381
 3.8000e+001 216634 -9.6618e+005 -7.3061e+006  2.3493e+006 135970 216533,216585,216559
 3.8000e+001 216611 -4.6831e+005 -9.9698e+006  2.7345e+006 135970 216507,216585,216533
 3.8000e+001 216835 -9.4357e+005 -4.1320e+006 -1.4815e+006 135608 216685,216763,216711
 3.8000e+001 216812 -2.4940e+005 -2.7624e+006  3.0951e+005 135608 216659,216763,216685
 3.8000e+001 216789 -6.1305e+005 -1.1519e+007  2.0141e+005 135608 216711,216763,216737
 3.8000e+001 217036 -1.2886e+006 -3.3640e+006  9.1418e+005 135312 216912,216964,216938
 3.8000e+001 217013 -9.0832e+005 -6.1805e+006  2.6028e+006 135312 216886,216964,216912
 3.8000e+001 216990  3.9126e+005 -9.0433e+006  1.9375e+006 135312 216860,216964,216886
 3.8000e+001 217237 -5.5108e+004 -4.8449e+005  1.7062e+005 134908 217061,217139,217113
 3.8000e+001 217214 -2.9125e+004 -4.7201e+005  1.4522e+005 134908 217061,217165,217139
 3.8000e+001 217191 -3.0485e+004 -6.6608e+005  2.4052e+005 134908 217061,217113,217087
 3.8000e+001 217438 -2.0840e+006 -2.4905e+007  1.3271e+006 134568 217288,217366,217314
 3.8000e+001 217415  2.1380e+006 -3.5177e+007  1.3006e+006 134568 217262,217366,217288
 3.8000e+001 217392 -1.8944e+005 -2.3430e+007 -4.6127e+005 134568 217314,217366,217340
 3.8000e+001 217590 -4.9883e+004 -2.3055e+005  8.6496e+004 134106 217463,217515,217489
 3.8000e+001 217567 -3.2265e+004 -2.1662e+005  7.0240e+004 134106 217463,217541,217515
 3.8000e+001 217791 -2.0276e+006 -3.2591e+007 -8.6298e+006 133816 217641,217693,217667
 3.8000e+001 217768  3.6915e+006 -3.6905e+007  3.9483e+006 133816 217641,217719,217693
 3.8000e+001 217745 -7.3810e+006 -3.9622e+006  5.1907e+006 133816 217615,217719,217641
 3.8000e+001 217992 -2.9814e+006 -5.3724e+006  4.0431e+006 133355 217842,217920,217894
 3.8000e+001 217969  5.3952e+005 -1.5936e+007 -1.1633e+006 133355 217816,217920,217842
 3.8000e+001 217946 -3.3554e+004 -3.0266e+006  7.2325e+005 133355 217842,217894,217868
 3.8000e+001 218193 -5.8994e+005 -7.5341e+006 -4.0599e+006 132851 218017,218095,218069
 3.8000e+001 218170 -2.7170e+006 -1.0949e+007  7.1001e+006 132851 218017,218121,218095
 3.8000e+001 218147 -4.1366e+006 -5.9319e+006 -3.0833e+006 132851 218017,218069,218043
 3.8000e+001 218345 -2.3555e+005 -2.9668e+006  8.0094e+005 132511 218244,218296,218270
 3.8000e+001 218322 -2.2186e+005 -3.2444e+006  8.5022e+005 132511 218218,218296,218244
 3.8000e+001 218497  3.8743e+005 -3.5419e+007 -2.6695e+006 132235 218396,218448,218422
 3.8000e+001 218474 -2.0823e+006 -1.0855e+007  1.1287e+005 132235 218370,218448,218396
 3.8000e+001 218698 -5.0521e+005 -1.4732e+007 -2.7437e+004 131945 218574,218626,218600
 3.8000e+001 218675 -2.2444e+006 -2.2235e+007  1.4426e+005 131945 218522,218626,218574
 3.8000e+001 218652 -1.4888e+006 -1.6998e+007 -1.6806e+006 131945 218522,218574,218548
 3.8000e+001 218850 -5.5079e+005 -2.2968e+007 -1.6078e+006 131655 218723,218775,218749
 3.8000e+001 218827 -5.4025e+004 -1.4132e+007 -1.0515e+006 131655 218723,218801,218775
 3.8000e+001 218953 -3.0716e+005 -4.6670e+006  6.7920e+005 131215 218875,218927,218901
 3.8000e+001 219105 -3.0121e+005 -7.6554e+006 -2.0168e+006 130875 218978,219030,219004
 3.8000e+001 219082 -6.6592e+005 -2.3434e+006 -5.5570e+005 130875 218978,219056,219030
 3.8000e+001 219306 -1.7600e+005 -5.7795e+006 -6.5586e+005 130429 219156,219234,219208
 3.8000e+001 219283 -5.8337e+005 -2.5501e+006  1.8688e+004 130429 219130,219234,219156
 3.8000e+001 219260 -2.9043e+006 -6.6607e+006  1.7701e+006 130429 219156,219208,219182
 3.8000e+001 219507 -2.3664e+003 -1.5846e+006  1.1844e+005 130025 219383,219435,219409
 3.8000e+001 219484  1.1968e+004 -1.7291e+006  1.8198e+005 130025 219331,219435,219383
 3.8000e+001 219461 -1.8310e+005 -7.8792e+005 -2.0533e+005 130025 219331,219383,219357
 3.8000e+001 219659 -1.2382e+006 -7.2951e+006  7.5765e+005 129685 219558,219610,219584
 3.8000e+001 219636  2.3930e+005 -1.2488e+007 -5.8315e+006 129685 219532,219610,219558
 3.8000e+001 219860  4.9951e+004 -3.9559e+006  1.1291e+006 129395 219710,219788,219762
 3.8000e+001 219837 -1.1545e+006 -2.8437e+006  5.0263e+005 129395 219684,219788,219710
 3.8000e+001 219814  8.3698e+005 -6.5983e+006 -8.4555e+005 129395 219710,219762,219736
 3.8000e+001 220061  2.5354e+005 -4.7396e+006  3.5847e+005 128991 219937,219989,219963
 3.8000e+001 220038 -5.1951e+004 -4.4033e+006  3.0902e+005 128991 219885,219989,219937
 3.8000e+001 220015 -8.8997e+004 -4.8048e+006  5.3231e+005 128991 219885,219937,219911
 3.8000e+001 220262 -4.6621e+005 -3.2977e+006  1.8708e+005 128701 220086,220164,220112
 3.8000e+001 220239 -5.6122e+005 -3.8964e+006  4.6226e+005 128701 220086,220190,220164
 3.8000e+001 220216 -2.5993e+005 -3.3461e+006  3.0713e+004 128701 220112,220164,220138
 3.8000e+001 220463 -3.2185e+006 -9.4572e+006  3.4763e+006 128297 220339,220391,220365
 3.8000e+001 220440  2.4491e+006 -2.1044e+007  7.2117e+005 128297 220313,220391,220339
 3.8000e+001 220417 -2.7569e+005 -2.5354e+007 -5.7732e+006 128297 220287,220391,220313
 3.8000e+001 220615 -1.4302e+006 -3.7766e+006 -1.1409e+006 128007 220488,220540,220514
 3.8000e+001 220592  1.2899e+006 -1.3152e+007  2.4335e+005 128007 220488,220566,220540
 3.8000e+001 220767  4.6640e+004 -3.5754e+006  3.3330e+004 127567 220640,220692,220666
 3.8000e+001 220744 -7.2898e+004 -2.1544e+006 -1.7928e+004 127567 220640,220718,220692
 3.8000e+001 220919 -7.3986e+005 -1.8930e+007 -2.3426e+006 127163 220792,220844,220818
 3.8000e+001 220896  1.7152e+006 -2.2408e+007  1.7646e+006 127163 220792,220870,220844
 3.8000e+001 221071 -1.1972e+006 -3.5539e+006  1.3859e+006 126915 220970,221022,220996
 3.8000e+001 221048 -9.0290e+005 -4.5137e+006  1.0906e+006 126915 220944,221022,220970
 3.8000e+001 221272 -1.7740e+006 -3.9097e+006  2.8198e+006 126461 221122,221174,221148
 3.8000e+001 221249 -4.7707e+006 -5.1629e+006  1.1032e+006 126461 221122,221200,221174
 3.8000e+001 221226  1.2440e+006 -1.4827e+007 -3.1659e+006 126461 221096,221200,221122
 3.8000e+001 221375 -8.7498e+001 -1.2078e+005  2.6445e+002 126213 221297,221349,221323
 3.8000e+001 221478  6.3084e+002 -4.8608e+004  1.6783e+002 125766 221400,221452,221426
 3.8000e+001 221679 -8.6821e+004 -3.1015e+006  2.9804e+005 125212 221503,221555,221529
 3.8000e+001 221656 -1.7583e+005 -3.9317e+006  9.9704e+004 125212 221503,221581,221555
 3.8000e+001 221633  3.5447e+005 -7.0316e+006  1.5613e+006 125212 221503,221607,221581
 3.8000e+001 221929 -1.3368e+002 -2.0395e+002 -3.6303e+002 124872 221782,221834,221808
 3.8000e+001 221906 -4.7208e+002  3.7975e+002  1.4493e+002 124872 221756,221834,221782
 3.8000e+001 221883 -7.1210e+002 -8.1412e+002  7.5758e+001 124872 221704,221834,221756
 3.8000e+001 221860 -6.0094e+002  4.4440e+002  3.3305e+002 124872 221704,221756,221730
 3.8000e+001 222130 -6.7411e+005 -1.0736e+007 -1.2467e+006 124582 221980,222058,222006
 3.8000e+001 222107 -2.6267e+006 -1.0923e+007 -1.2544e+006 124582 221954,222058,221980
 3.8000e+001 222084 -1.9974e+006 -1.1950e+007 -2.0206e+006 124582 222006,222058,222032
 3.8000e+001 222282 -2.6918e+006 -1.3257e+007 -3.6443e+006 124192 222181,222233,222207
 3.8000e+001 222259 -1.1171e+006 -1.2548e+007 -3.0791e+006 124192 222155,222233,222181
 3.8000e+001 222483 -1.5379e+005 -3.2853e+006 -1.2683e+006 123702 222333,222385,222359
 3.8000e+001 222460 -2.3968e+005 -2.3842e+006 -9.2995e+003 123702 222333,222411,222385
 3.8000e+001 222437 -2.3476e+005 -9.4409e+005 -2.8346e+005 123702 222307,222411,222333
 3.8000e+001 222635 -5.6677e+005 -9.2827e+005 -4.8832e+005 123312 222508,222560,222534
 3.8000e+001 222612  3.2454e+005 -4.5754e+006 -4.0460e+005 123312 222508,222586,222560
 3.8000e+001 222787 -5.3645e+004 -2.5210e+006 -9.5293e+004 122858 222686,222738,222712
 3.8000e+001 222764 -2.0031e+005 -2.6913e+006 -4.8568e+005 122858 222660,222738,222686
 3.8000e+001 222939 -1.8567e+005 -9.2126e+005 -2.2003e+004 122568 222812,222864,222838
 3.8000e+001 222916 -2.2863e+005 -7.3427e+005  2.7153e+005 122568 222812,222890,222864
 3.8000e+001 223091 -1.5943e+005 -2.4537e+006 -5.5274e+005 122392 222964,223016,222990
 3.8000e+001 223068  2.6121e+005 -2.8165e+006 -1.7909e+005 122392 222964,223042,223016
 3.8000e+001 223292 -3.4350e+005 -9.4917e+006 -1.4863e+006 121852 223142,223220,223194
 3.8000e+001 223269 -1.3180e+006 -8.9712e+006 -1.2268e+006 121852 223116,223220,223142
 3.8000e+001 223246 -2.2242e+005 -9.4764e+006 -1.4544e+006 121852 223142,223194,223168
 3.8000e+001 223493 -9.3777e+005 -9.3683e+006  3.0031e+005 121406 223343,223395,223369
 3.8000e+001 223470 -2.8965e+006 -7.3761e+006 -1.5641e+006 121406 223343,223421,223395
 3.8000e+001 223447 -1.0216e+006 -5.1239e+006  1.6236e+006 121406 223317,223421,223343
 3.8000e+001 223645  3.6102e+005 -1.0603e+007  9.4096e+005 121002 223544,223596,223570
 3.8000e+001 223622 -1.1794e+006 -5.7561e+006  1.2072e+006 121002 223518,223596,223544
 3.8000e+001 223846 -3.1535e+005 -9.6121e+006 -6.3867e+004 120662 223670,223748,223696
 3.8000e+001 223823  6.3115e+005 -5.7135e+006 -1.0637e+005 120662 223670,223774,223748
 3.8000e+001 223800 -1.4034e+006 -4.2057e+006 -1.6744e+006 120662 223696,223748,223722
 3.8000e+001 224047 -5.6846e+005 -5.3910e+006  1.5100e+006 120222 223897,223949,223923
 3.8000e+001 224024  8.1513e+005 -7.4349e+006 -9.2384e+005 120222 223871,223949,223897
 3.8000e+001 224001 -1.1122e+006 -4.7424e+006 -1.4334e+006 120222 223871,223975,223949
 3.8000e+001 224248  6.6154e+005 -4.9298e+006 -1.2958e+006 119875 224124,224176,224150
 3.8000e+001 224225 -1.1096e+006 -1.0352e+007 -2.5224e+006 119875 224098,224176,224124
 3.8000e+001 224202 -5.7406e+005 -1.9591e+006  1.6696e+005 119875 224072,224176,224098
 3.8000e+001 224449 -2.4033e+005 -6.3478e+006 -6.8179e+005 119677 224325,224377,224351
 3.8000e+001 224426 -5.6708e+005 -7.6590e+006 -4.3582e+005 119677 224299,224377,224325
 3.8000e+001 224403 -8.0927e+003 -1.9881e+006 -1.1296e+005 119677 224273,224377,224299
 3.8000e+001 224552 -5.6902e+005 -2.0268e+006 -4.1823e+005 119273 224474,224526,224500
 3.8000e+001 224704 -9.4364e+005 -1.1066e+007 -1.5860e+006 118983 224603,224655,224629
 3.8000e+001 224681 -2.5390e+005 -1.1322e+007 -1.6953e+006 118983 224577,224655,224603
 3.8000e+001 224856 -6.4100e+005 -8.3241e+006 -4.1261e+005 118529 224755,224807,224781
 3.8000e+001 224833  1.8738e+005 -1.3107e+007 -1.5274e+006 118529 224729,224807,224755
 3.8000e+001 225008 -1.0282e+006 -1.0360e+007  1.2731e+005 118353 224881,224933,224907
 3.8000e+001 224985 -4.5415e+005 -1.0404e+006 -9.5573e+004 118353 224881,224959,224933
 3.8000e+001 225209 -1.7498e+005 -6.6062e+006 -4.7263e+005 117949 225059,225137,225111
 3.8000e+001 225186 -3.2105e+005 -6.7442e+006 -7.0693e+005 117949 225033,225137,225059
 3.8000e+001 225163 -2.1437e+004 -6.8664e+006 -3.7755e+005 117949 225059,225111,225085
 3.8000e+001 225410  6.7129e+002 -7.0235e+006  7.2571e+005 117559 225260,225338,225312
 3.8000e+001 225387 -9.5343e+005 -7.3894e+006  2.8966e+005 117559 225234,225338,225260
 3.8000e+001 225364 -5.8712e+005 -4.9479e+006 -1.7042e+006 117559 225260,225312,225286
 3.8000e+001 225611 -1.8311e+006 -1.1318e+007 -5.2834e+006 117361 225461,225513,225487
 3.8000e+001 225588  7.0965e+005 -1.1816e+007  1.2763e+006 117361 225461,225539,225513
 3.8000e+001 225565 -2.1696e+006 -7.6739e+006  3.8901e+006 117361 225435,225539,225461
 3.8000e+001 225812  8.9123e+004 -5.7892e+006 -4.0466e+005 116900 225636,225714,225662
 3.8000e+001 225789  6.7379e+005 -6.5172e+006 -4.7723e+005 116900 225636,225740,225714
 3.8000e+001 225766 -2.3918e+004 -5.8218e+006 -3.7525e+005 116900 225662,225714,225688
 3.8000e+001 225964 -2.7982e+005 -4.1636e+006 -2.0639e+005 116560 225837,225889,225863
 3.8000e+001 225941  1.0258e+005 -6.3287e+006  1.5213e+005 116560 225837,225915,225889
 3.8000e+001 226165  2.6705e+005 -7.4243e+006 -4.0157e+005 116106 226015,226093,226041
 3.8000e+001 226142 -6.1149e+005 -8.9060e+006 -4.0011e+006 116106 225989,226093,226015
 3.8000e+001 226119 -3.3237e+006 -2.9259e+006  1.0241e+006 116106 226041,226093,226067
 3.8000e+001 226268 -1.4750e+006 -8.4082e+006  5.7936e+004 115716 226190,226242,226216
 3.8000e+001 226420 -3.0892e+005 -8.4497e+006  1.9087e+006 115376 226293,226345,226319
 3.8000e+001 226397 -6.0096e+005 -8.5239e+006  1.9353e+006 115376 226293,226371,226345
 3.8000e+001 226621 -5.0956e+005 -1.7684e+006  2.8056e+005 114972 226497,226549,226523
 3.8000e+001 226598 -4.9601e+005 -9.3247e+006 -6.5578e+005 114972 226445,226549,226497
 3.8000e+001 226575  1.2459e+005 -4.5385e+006  5.7162e+005 114972 226445,226497,226471
 3.8000e+001 226773 -9.6851e+005 -2.6004e+006 -1.0691e+006 114670 226646,226698,226672
 3.8000e+001 226750  5.7322e+005 -6.6767e+006  5.1901e+005 114670 226646,226724,226698
 3.8000e+001 226974  4.3650e+004 -2.1827e+006 -4.4649e+005 114082 226798,226850,226824
 3.8000e+001 226951  1.3757e+005 -3.0885e+006 -1.2585e+005 114082 226798,226902,226850
 3.8000e+001 226928  6.8034e+004 -4.1996e+006 -4.5816e+005 114082 226850,226902,226876
 3.8000e+001 227175 -8.0980e+005 -3.7673e+006 -7.7707e+005 113678 226999,227051,227025
 3.8000e+001 227152 -1.8071e+006 -5.4174e+006 -2.3862e+006 113678 226999,227077,227051
 3.8000e+001 227129  1.2529e+005 -1.4609e+007 -4.1088e+006 113678 226999,227103,227077
 3.8000e+001 227425 -3.9687e+004 -8.0943e+006 -1.4062e+006 113274 227226,227278,227252
 3.8000e+001 227402  2.9544e+005 -8.1554e+006 -3.4051e+006 113274 227226,227330,227278
 3.8000e+001 227379 -4.5421e+005 -1.0448e+007 -4.2175e+006 113274 227200,227330,227226
 3.8000e+001 227356 -4.1692e+006 -2.0816e+006 -1.8610e+006 113274 227278,227330,227304
 3.8000e+001 227626  4.4485e+005 -5.6450e+006 -1.2977e+006 112934 227502,227554,227528
 3.8000e+001 227603  5.4507e+004 -3.7224e+006  2.8492e+005 112934 227450,227554,227502
 3.8000e+001 227580 -1.7533e+006 -2.3815e+006 -4.8302e+005 112934 227450,227502,227476
 3.8000e+001 227876 -1.1830e+005 -1.7346e+006 -2.0591e+005 112437 227677,227755,227703
 3.8000e+001 227853 -9.4517e+005 -2.0546e+006  6.9957e+005 112437 227677,227781,227755
 3.8000e+001 227830 -2.4557e+005 -9.4232e+005  2.5614e+005 112437 227703,227755,227729
 3.8000e+001 227807 -1.6122e+005 -5.6609e+006 -5.2772e+005 112437 227651,227781,227677
 3.8000e+001 228126 -7.9418e+005 -4.9133e+006  2.4271e+005 112041 227927,228005,227953
 3.8000e+001 228103 -5.3259e+005 -6.6679e+006 -7.8965e+005 112041 227927,228031,228005
 3.8000e+001 228080 -8.1085e+005 -5.6546e+006  2.0791e+005 112041 227953,228005,227979
 3.8000e+001 228057 -1.0929e+006 -5.0443e+006 -1.1249e+006 112041 227901,228031,227927
 3.8000e+001 228327 -1.3386e+006 -5.1401e+006 -1.0645e+006 111693 228151,228203,228177
 3.8000e+001 228304 -8.8412e+005 -2.7406e+006 -1.5159e+006 111693 228151,228229,228203
 3.8000e+001 228281  4.1274e+005 -5.5159e+006  5.1495e+005 111693 228151,228255,228229
 3.8000e+001 228479 -3.6831e+006 -9.3669e+006 -5.3701e+006 111253 228352,228404,228378
 3.8000e+001 228456 -2.7751e+006 -5.8741e+006 -1.1566e+006 111253 228352,228430,228404
 3.8000e+001 228582 -2.4923e+006 -5.7728e+006 -5.9507e+005 110906 228504,228556,228530
 3.8000e+001 228783  3.4730e+004 -1.5893e+006  1.3124e+005 110416 228633,228711,228659
 3.8000e+001 228760  5.3942e+004 -1.5437e+006  1.4934e+005 110416 228607,228711,228633
 3.8000e+001 228737 -1.0171e+005 -2.7925e+006  1.6441e+005 110416 228659,228711,228685
 3.8000e+001 228935 -3.1309e+004 -4.3555e+006 -1.7711e+005 110012 228808,228860,228834
 3.8000e+001 228912 -7.1435e+005 -8.3680e+006 -8.0034e+005 110012 228808,228886,228860
 3.8000e+001 229087 -1.2077e+006 -3.3272e+006 -1.5301e+006 109672 228960,229012,228986
 3.8000e+001 229064 -7.1826e+005 -7.5743e+006 -4.1936e+004 109672 228960,229038,229012
 3.8000e+001 229190  3.0258e+004 -7.5901e+005 -4.1148e+004 109332 229112,229164,229138
 3.8000e+001 229391 -9.3858e+002 -5.0873e+005 -1.6737e+005 109156 229267,229319,229293
 3.8000e+001 229368 -1.7404e+005 -1.1101e+006 -2.7547e+005 109156 229215,229319,229267
 3.8000e+001 229345 -2.0798e+004 -2.8446e+005 -7.9636e+004 109156 229215,229267,229241
 3.8000e+001 229543 -4.2750e+004 -9.0537e+006  9.6286e+005 108752 229416,229468,229442
 3.8000e+001 229520  4.8906e+004 -9.8712e+006  1.2606e+006 108752 229416,229494,229468
 3.8000e+001 229744 -1.9290e+005 -7.4744e+006  8.9062e+004 108198 229594,229646,229620
 3.8000e+001 229721 -8.3023e+005 -7.7293e+006  1.1882e+006 108198 229594,229672,229646
 3.8000e+001 229698 -4.9764e+004 -9.8453e+006  1.6267e+004 108198 229568,229672,229594
 3.8000e+001 229847 -1.8464e+005 -8.5582e+005 -3.9223e+005 107758 229769,229821,229795
 3.8000e+001 230048 -8.4962e+005 -3.3131e+006 -8.0701e+005 107468 229898,229950,229924
 3.8000e+001 230025 -3.6306e+005 -2.8718e+006 -1.1773e+005 107468 229872,229950,229898
 3.8000e+001 230002 -9.0990e+005 -2.8543e+006 -1.6694e+005 107468 229872,229976,229950
 3.8000e+001 230298  1.0608e+005 -2.0685e+006  6.1328e+005 107121 230099,230203,230177
 3.8000e+001 230275 -3.6429e+005 -1.3417e+006  3.8051e+005 107121 230073,230203,230099
 3.8000e+001 230252  2.8486e+005 -2.6308e+006 -1.2204e+006 107121 230099,230177,230151
 3.8000e+001 230229 -5.4083e+005 -2.6904e+006 -1.2060e+006 107121 230099,230151,230125
 3.8000e+001 230450  1.4332e+005 -1.5905e+006 -1.8021e+005 106823 230349,230401,230375
 3.8000e+001 230427 -1.0786e+005 -2.9168e+005  1.0332e+005 106823 230323,230401,230349
 3.8000e+001 230602 -7.5223e+005 -1.0501e+007 -3.1802e+006 106533 230501,230553,230527
 3.8000e+001 230579 -1.3528e+006 -1.0245e+007 -1.7997e+006 106533 230475,230553,230501
 3.8000e+001 230803 -2.1169e+005 -1.0807e+006 -2.3180e+005 106029 230679,230731,230705
 3.8000e+001 230780 -2.0497e+005 -1.1437e+006  1.4896e+005 106029 230653,230731,230679
 3.8000e+001 230757  2.7920e+005 -3.1632e+006  1.4937e+004 106029 230627,230731,230653
 3.8000e+001 231004 -2.1944e+005 -3.4194e+006  2.0864e+005 105689 230854,230906,230880
 3.8000e+001 230981  2.5786e+005 -4.1735e+006 -6.5038e+005 105689 230828,230906,230854
 3.8000e+001 230958 -7.1757e+005 -3.1190e+006 -1.4957e+006 105689 230828,230932,230906
 3.8000e+001 231156 -1.3824e+006 -3.9452e+006  1.4919e+006 105377 231055,231107,231081
 3.8000e+001 231133  4.3446e+005 -1.1677e+007 -6.5298e+005 105377 231029,231107,231055
 3.8000e+001 231406 -8.3084e+005 -8.2345e+006 -7.7322e+004 104858 231207,231259,231233
 3.8000e+001 231383 -2.0051e+006 -7.9523e+006 -7.8750e+005 104858 231207,231311,231259
 3.8000e+001 231360 -1.1686e+006 -1.2572e+007 -1.6926e+006 104858 231259,231311,231285
 3.8000e+001 231337 -3.5773e+005 -1.0988e+007 -1.3393e+006 104858 231181,231311,231207
 3.8000e+001 231558 -1.5141e+006 -7.7913e+006  4.4379e+006 104418 231457,231509,231483
 3.8000e+001 231535 -3.2355e+005 -8.2474e+006 -2.4878e+006 104418 231431,231509,231457
 3.8000e+001 231710 -9.3976e+005 -1.3323e+006 -3.7966e+005 103978 231583,231635,231609
 3.8000e+001 231687 -1.0199e+006 -6.9865e+005 -3.9301e+005 103978 231583,231661,231635
 3.8000e+001 231862 -2.0974e+004 -1.4242e+006 -8.2933e+004 103588 231761,231813,231787
 3.8000e+001 231839  1.7864e+004 -1.2609e+006 -7.9416e+004 103588 231735,231813,231761
 3.8000e+001 232014 -2.4791e+006 -6.3902e+006 -2.2387e+006 103248 231887,231939,231913
 3.8000e+001 231991 -3.5796e+005 -1.7107e+007 -5.8560e+006 103248 231887,231965,231939
 3.8000e+001 232215 -1.9284e+005 -2.8025e+006  5.2676e+005 102844 232039,232117,232065
 3.8000e+001 232192  6.0264e+004 -3.3233e+006 -1.7275e+005 102844 232039,232143,232117
 3.8000e+001 232169 -2.5489e+005 -1.6625e+006 -2.6183e+005 102844 232065,232117,232091
 3.8000e+001 232416 -3.8864e+006 -9.8391e+006 -2.8067e+006 102554 232240,232318,232292
 3.8000e+001 232393  1.0270e+006 -1.4343e+007 -1.0772e+005 102554 232240,232344,232318
 3.8000e+001 232370 -4.2690e+006 -4.3525e+006 -9.7193e+005 102554 232240,232292,232266
 3.8000e+001 232568  2.6632e+004 -4.3740e+006  1.2243e+005 102100 232441,232493,232467
 3.8000e+001 232545 -4.6652e+005 -4.3306e+006 -1.9656e+005 102100 232441,232519,232493
 3.8000e+001 232769 -1.5206e+005 -1.5415e+006 -2.2133e+005 101596 232645,232697,232671
 3.8000e+001 232746 -1.1029e+005 -1.3554e+006 -3.0569e+005 101596 232593,232697,232645
 3.8000e+001 232723  1.8079e+005 -3.5089e+006 -3.6522e+005 101596 232593,232645,232619
 3.8000e+001 232921  7.2753e+001 -1.2782e+002 -1.2081e+001 101420 232794,232846,232820
 3.8000e+001 232898  9.5510e+001 -3.7964e+001 -2.3239e+001 101420 232794,232872,232846
 3.8000e+001 233073 -1.2698e+006 -2.7088e+006 -7.1539e+005 101023 232946,232998,232972
 3.8000e+001 233050  5.3380e+005 -5.9036e+006  1.7231e+006 101023 232946,233024,232998
 3.8000e+001 233225 -3.2560e+005 -2.6664e+006  5.1935e+003 100661 233098,233150,233124
 3.8000e+001 233202  2.8267e+005 -5.7590e+006  2.0914e+005 100661 233098,233176,233150
 3.8000e+001 233426 -1.4386e+006 -7.1764e+006 -2.1298e+006 100265 233276,233328,233302
 3.8000e+001 233403 -1.4737e+006 -6.3236e+006  1.0820e+005 100265 233276,233354,233328
 3.8000e+001 233380 -1.5814e+006 -1.0666e+007 -8.1186e+005 100265 233250,233354,233276
 3.8000e+001 233578 -2.2561e+005 -1.9859e+005 -6.4370e+003 100032 233451,233503,233477
 3.8000e+001 233555 -2.4416e+005 -2.0430e+005  7.1617e+004 100032 233451,233529,233503
 3.8000e+001 233681 -3.2208e+005 -4.7989e+004  5.7953e+004 99742 233603,233655,233629
 3.8000e+001 233784 -3.6209e+005 -2.5202e+006  2.8262e+005 99402 233706,233758,233732
 3.8000e+001 233936 -7.4974e+005 -2.4131e+006  3.1128e+005 99062 233835,233887,233861
 3.8000e+001 233913 -5.1671e+005 -1.4078e+006  2.8777e+004 99062 233809,233887,233835
 3.8000e+001 234088 -1.6650e+005 -4.3772e+006  6.8348e+005 98772 233987,234039,234013
 3.8000e+001 234065 -4.1505e+005 -4.3031e+006  2.0436e+006 98772 233961,234039,233987
 3.8000e+001 234240 -5.2675e+002 -1.4402e+005  1.5006e+004 98160 234139,234191,234165
 3.8000e+001 234217 -4.1927e+003 -1.5921e+005  1.5268e+004 98160 234113,234191,234139
 3.8000e+001 234441 -1.3712e+003 -1.0982e+003 -1.2413e+003 97820 234317,234369,234343
 3.8000e+001 234418 -1.3145e+003 -8.1403e+002 -1.8312e+003 97820 234291,234369,234317
 3.8000e+001 234395 -2.3724e+003 -3.1083e+003 -2.7109e+003 97820 234265,234369,234291
 3.8000e+001 234593 -1.9024e+005 -1.3237e+006 -1.4020e+005 97366 234466,234518,234492
 3.8000e+001 234570  1.0187e+005 -2.7018e+006 -1.7473e+005 97366 234466,234544,234518
 3.8000e+001 234794 -7.1692e+005 -1.0345e+006 -7.1453e+005 96976 234618,234670,234644
 3.8000e+001 234771 -9.7645e+004 -2.1184e+006 -6.1699e+005 96976 234618,234722,234670
 3.8000e+001 234748 -2.2134e+005 -1.9444e+006 -8.7168e+005 96976 234670,234722,234696
 3.8000e+001 234946 -8.7015e+005 -2.8023e+006  1.2136e+006 96568 234845,234897,234871
 3.8000e+001 234923 -6.0770e+005 -1.6819e+006  1.1985e+006 96568 234819,234897,234845
 3.8000e+001 235196 -1.1439e+005 -1.2828e+006  1.8078e+005 96216 234997,235075,235049
 3.8000e+001 235173 -3.9507e+005 -4.2494e+006  1.4211e+006 96216 234997,235101,235075
 3.8000e+001 235150 -8.8763e+005 -3.3227e+006  8.7443e+005 96216 234997,235049,235023
 3.8000e+001 235127 -1.0005e+005 -5.3129e+006 -1.2798e+006 96216 234971,235101,234997
 3.8000e+001 235348 -1.0027e+006 -2.9110e+006 -4.3041e+005 95863 235247,235299,235273
 3.8000e+001 235325 -1.0282e+006 -1.5410e+006 -8.8451e+005 95863 235221,235299,235247
 3.8000e+001 235500 -1.4937e+006 -2.6631e+006 -2.4234e+006 95339 235373,235425,235399
 3.8000e+001 235477 -5.3447e+005 -6.0640e+006  3.3701e+006 95339 235373,235451,235425
 3.8000e+001 235701 -8.0604e+004 -3.9620e+006  1.2763e+006 95023 235525,235577,235551
 3.8000e+001 235678 -3.8450e+004 -2.3690e+006  1.9453e+004 95023 235525,235629,235577
 3.8000e+001 235655 -9.7734e+004 -2.8374e+006  1.3943e+005 95023 235577,235629,235603
 3.8000e+001 235853  8.4100e+005 -9.4239e+006  1.0546e+006 94671 235726,235778,235752
 3.8000e+001 235830 -2.9430e+005 -7.2346e+006 -5.8876e+005 94671 235726,235804,235778
 3.8000e+001 236005 -1.1110e+006 -6.9686e+006 -8.8021e+005 94261 235904,235956,235930
 3.8000e+001 235982 -1.3797e+006 -8.0754e+006 -1.9027e+006 94261 235878,235956,235904
 3.8000e+001 236206 -5.6373e+005 -6.3549e+005  1.1990e+006 93853 236056,236134,236082
 3.8000e+001 236183 -9.8721e+005 -7.8004e+005  3.7215e+005 93853 236030,236134,236056
 3.8000e+001 236160 -9.5333e+005 -1.0050e+006  9.6898e+005 93853 236082,236134,236108
 3.8000e+001 236407 -6.2889e+005 -6.0217e+006  1.2162e+005 93557 236257,236309,236283
 3.8000e+001 236384 -1.8038e+006 -6.6995e+006 -1.6688e+006 93557 236231,236309,236257
 3.8000e+001 236361 -5.8470e+005 -1.0987e+007 -2.6271e+005 93557 236231,236335,236309
 3.8000e+001 236559  3.9671e+003 -2.5642e+004  9.3711e+003 93149 236432,236484,236458
 3.8000e+001 236536  3.0616e+003 -2.4932e+004  7.8632e+003 93149 236432,236510,236484
 3.8000e+001 236711 -4.2530e+004 -7.1209e+004  6.0208e+004 92853 236584,236636,236610
 3.8000e+001 236688 -4.0988e+004 -8.1809e+004  6.1903e+004 92853 236584,236662,236636
 3.8000e+001 236912 -2.7062e+005 -3.8839e+006  1.4581e+006 92501 236736,236788,236762
 3.8000e+001 236889 -5.3597e+005 -2.3485e+006  5.9724e+005 92501 236736,236840,236788
 3.8000e+001 236866 -7.1742e+005 -3.0935e+006  6.2600e+005 92501 236788,236840,236814
 3.8000e+001 237113 -3.5981e+005 -4.2151e+006  3.8321e+005 92291 236963,237041,237015
 3.8000e+001 237090 -1.2942e+005 -2.8572e+006  3.8195e+005 92291 236937,237041,236963
 3.8000e+001 237067 -2.0187e+005 -3.8889e+006  8.8966e+005 92291 236963,237015,236989
 3.8000e+001 237265  1.3319e+005 -8.7835e+005 -4.2835e+005 91871 237138,237190,237164
 3.8000e+001 237242 -5.1845e+005 -2.3687e+006 -9.3291e+005 91871 237138,237216,237190
 3.8000e+001 237368 -1.1642e+003 -1.6821e+006  7.9823e+002 91581 237290,237342,237316
 3.8000e+001 237520 -1.7323e+004 -4.6516e+004  4.3407e+003 91184 237419,237471,237445
 3.8000e+001 237497 -4.8906e+004 -1.5146e+005 -8.6959e+004 91184 237393,237471,237419
 3.8000e+001 237672 -1.6798e+005 -2.1768e+006  3.0451e+005 90894 237545,237597,237571
 3.8000e+001 237649 -6.9834e+004 -3.5561e+006  9.2477e+005 90894 237545,237623,237597
 3.8000e+001 237873 -1.2442e+006 -4.8833e+006  8.3146e+005 90490 237749,237801,237775
 3.8000e+001 237850 -6.5360e+005 -4.4275e+006  1.3361e+006 90490 237723,237801,237749
 3.8000e+001 237827 -9.5340e+005 -4.5086e+006 -7.1672e+005 90490 237697,237801,237723
 3.8000e+001 238074 -8.1035e+005 -6.2740e+006  2.6831e+005 90100 237898,237976,237950
 3.8000e+001 238051 -1.8250e+006 -6.4626e+006  2.6440e+005 90100 237898,238002,237976
 3.8000e+001 238028 -6.0601e+005 -5.9479e+006  1.1365e+005 90100 237898,237950,237924
 3.8000e+001 238275 -3.9118e+005 -3.3049e+006  7.4725e+005 89696 238125,238177,238151
 3.8000e+001 238252 -3.8527e+005 -2.5291e+006 -7.7053e+005 89696 238099,238177,238125
 3.8000e+001 238229 -4.3026e+005 -3.3214e+006 -6.7959e+005 89696 238099,238203,238177
 3.8000e+001 238427 -1.6059e+004 -4.7070e+004 -2.9322e+004 89206 238326,238378,238352
 3.8000e+001 238404 -1.8742e+004 -1.4548e+005 -3.5379e+004 89206 238300,238378,238326
 3.8000e+001 238579 -1.3320e+006 -5.0679e+006  2.0080e+006 88908 238452,238504,238478
 3.8000e+001 238556 -3.1953e+005 -4.1006e+006  3.5661e+005 88908 238452,238530,238504
 3.8000e+001 238682  6.4572e+002 -4.5574e+005  1.6259e+003 88568 238604,238656,238630
 3.8000e+001 238883  7.3843e+004 -6.0900e+006  1.6637e+006 88278 238733,238811,238785
 3.8000e+001 238860 -6.5550e+005 -4.0136e+006  1.5033e+006 88278 238707,238811,238733
 3.8000e+001 238837 -2.2430e+005 -6.3770e+006  1.1909e+006 88278 238733,238785,238759
 3.8000e+001 239035 -1.3581e+006 -4.5589e+006 -3.9699e+005 87988 238908,238960,238934
 3.8000e+001 239012 -1.4737e+006 -2.5405e+006  2.1066e+005 87988 238908,238986,238960
 3.8000e+001 239138  1.0575e+003 -8.8274e+005  8.7548e+004 87648 239060,239112,239086
 3.8000e+001 239339 -1.0881e+006 -3.2488e+006 -1.9056e+006 87358 239163,239215,239189
 3.8000e+001 239316 -1.1017e+006 -2.2570e+006 -5.5584e+005 87358 239163,239241,239215
 3.8000e+001 239293 -8.6680e+005 -1.1932e+006 -1.0171e+006 87358 239163,239267,239241
 3.8000e+001 239589  9.9278e+001  1.2593e+002 -1.7052e+002 86961 239390,239468,239416
 3.8000e+001 239566  9.7863e+002  6.3127e+002  3.7953e+002 86961 239390,239494,239468
 3.8000e+001 239543  6.8385e+002  2.8045e+002  3.0568e+002 86961 239416,239468,239442
 3.8000e+001 239520  2.2549e+002  8.7472e+002  2.2117e+002 86961 239364,239494,239390
 3.8000e+001 239741 -1.1677e+006 -4.2014e+006 -4.8690e+005 86621 239640,239692,239666
 3.8000e+001 239718 -4.7786e+005 -5.3122e+006 -1.2489e+006 86621 239614,239692,239640
 3.8000e+001 239893 -4.9801e+005 -5.6898e+006  1.4452e+006 86217 239792,239844,239818
 3.8000e+001 239870 -6.0444e+005 -4.9457e+006  1.0406e+006 86217 239766,239844,239792
 3.8000e+001 240045 -8.0021e+005 -4.6029e+006  5.7538e+005 85827 239918,239970,239944
 3.8000e+001 240022 -1.9769e+005 -4.4400e+006  2.2396e+005 85827 239918,239996,239970
 3.8000e+001 240197 -8.2929e+005 -8.1816e+006  8.7321e+005 85437 240096,240148,240122
 3.8000e+001 240174 -1.7036e+006 -2.8134e+006 -5.1608e+005 85437 240070,240148,240096
 3.8000e+001 240349 -6.7429e+004 -1.5589e+006  5.2143e+005 85147 240222,240274,240248
 3.8000e+001 240326 -2.3694e+005 -1.0065e+006 -9.9821e+003 85147 240222,240300,240274
 3.8000e+001 240501 -3.9449e+005 -1.6026e+006  7.2886e+005 84807 240374,240426,240400
 3.8000e+001 240478 -1.4113e+006 -1.9360e+006  9.5334e+005 84807 240374,240452,240426
 3.8000e+001 240653  6.5479e+002  1.0289e+002  1.4425e+002 84303 240552,240604,240578
 3.8000e+001 240630  6.1620e+002 -1.1435e+002  1.5729e+002 84303 240526,240604,240552
 3.8000e+001 240854 -1.7264e+005 -1.2099e+007 -5.3006e+006 83929 240704,240756,240730
 3.8000e+001 240831  1.6731e+006 -9.9251e+006  2.3346e+006 83929 240704,240782,240756
 3.8000e+001 240808 -3.3478e+006  1.6553e+006  2.7774e+006 83929 240678,240782,240704
 3.8000e+001 241055 -1.0080e+004 -1.2762e+004 -5.6561e+003 83539 240879,240957,240931
 3.8000e+001 241032 -4.5295e+004 -1.2055e+004 -1.7857e+004 83539 240879,240983,240957
 3.8000e+001 241009 -9.6423e+003 -5.2185e+003 -7.2505e+003 83539 240879,240931,240905
 3.8000e+001 241207  1.5171e+004 -1.6370e+006  3.2722e+005 83079 241106,241158,241132
 3.8000e+001 241184 -8.8031e+004 -8.3873e+005  4.0678e+005 83079 241080,241158,241106
 3.8000e+001 241408  1.1122e+006 -4.3353e+006  4.0672e+005 82665 241232,241284,241258
 3.8000e+001 241385 -1.5707e+006 -1.2861e+007 -3.7471e+006 82665 241232,241336,241284
 3.8000e+001 241362 -3.9667e+006  4.4795e+006  6.6252e+006 82665 241284,241336,241310
 3.8000e+001 241658 -1.9483e+005 -4.1000e+006  4.0238e+005 82375 241485,241563,241511
 3.8000e+001 241635  5.6588e+004 -2.8766e+006  3.6711e+005 82375 241433,241563,241485
 3.8000e+001 241612 -6.3292e+004 -3.2949e+006  4.3938e+005 82375 241433,241485,241459
 3.8000e+001 241589 -5.1697e+005 -4.7616e+006  6.8310e+005 82375 241511,241563,241537
 3.8000e+001 241810 -7.5344e+005 -3.3384e+006 -1.5068e+005 82035 241683,241735,241709
 3.8000e+001 241787 -1.0321e+006 -3.9355e+006  6.0312e+005 82035 241683,241761,241735
 3.8000e+001 241962 -7.6736e+005 -3.5818e+006  3.1559e+005 81695 241861,241913,241887
 3.8000e+001 241939 -4.7030e+005 -4.1184e+006 -6.7726e+005 81695 241835,241913,241861
 3.8000e+001 242114 -9.5138e+005 -6.3737e+006  2.2557e+006 81355 242013,242065,242039
 3.8000e+001 242091 -3.8630e+005 -4.5904e+006  1.4650e+006 81355 241987,242065,242013
 3.8000e+001 242266 -7.2239e+004 -3.4061e+005 -6.8058e+004 80951 242139,242191,242165
 3.8000e+001 242243 -1.4165e+005 -6.3551e+005 -2.2190e+004 80951 242139,242217,242191
 3.8000e+001 242467 -3.1359e+005 -4.8543e+006  5.8805e+005 80311 242291,242369,242343
 3.8000e+001 242444  7.0981e+004 -3.3566e+006  4.4919e+005 80311 242291,242395,242369
 3.8000e+001 242421 -3.6987e+005 -3.0630e+006  2.0121e+005 80311 242291,242343,242317
 3.8000e+001 242619 -1.5688e+006 -3.6490e+006  5.1937e+005 80021 242492,242544,242518
 3.8000e+001 242596 -1.4549e+006 -3.3353e+006  1.6867e+006 80021 242492,242570,242544
 3.8000e+001 242869 -2.5465e+005 -1.1804e+006  3.2479e+005 79631 242644,242722,242696
 3.8000e+001 242846 -1.6363e+005 -1.1822e+006  2.9536e+005 79631 242644,242774,242722
 3.8000e+001 242823 -2.4196e+005 -1.5668e+006  2.3013e+005 79631 242722,242774,242748
 3.8000e+001 242800 -3.0605e+005 -1.4504e+006  3.7507e+005 79631 242644,242696,242670
 3.8000e+001 243070  1.7667e+004 -1.6257e+007  3.2335e+006 79341 242920,242972,242946
 3.8000e+001 243047 -7.8998e+005 -9.6511e+006 -3.8552e+004 79341 242920,242998,242972
 3.8000e+001 243024 -1.1790e+006 -6.5503e+006  2.7793e+006 79341 242894,242998,242920
 3.8000e+001 243222 -3.4458e+005 -3.7226e+006  1.3805e+006 78801 243121,243173,243147
 3.8000e+001 243199 -8.8676e+005 -5.4534e+006  2.0506e+006 78801 243095,243173,243121
 3.8000e+001 243423 -8.1938e+005 -4.7564e+006 -5.1484e+005 78511 243273,243325,243299
 3.8000e+001 243400  5.9391e+005 -9.1446e+006  1.7764e+006 78511 243273,243351,243325
 3.8000e+001 243377 -5.3567e+003 -9.3895e+006  2.3230e+005 78511 243247,243351,243273
 3.8000e+001 243624 -3.4678e+005 -3.6771e+006 -8.2966e+005 78107 243474,243552,243526
 3.8000e+001 243601 -3.4895e+005 -3.3070e+006 -9.2256e+005 78107 243448,243552,243474
 3.8000e+001 243578 -7.7461e+005 -5.0689e+006 -2.1343e+006 78107 243474,243526,243500
 3.8000e+001 243776 -7.2192e+005 -3.9875e+006 -9.2968e+005 77653 243649,243701,243675
 3.8000e+001 243753 -1.6842e+006 -7.2533e+006 -3.8979e+005 77653 243649,243727,243701
 3.8000e+001 243977 -5.1674e+005 -5.9324e+006  7.8598e+003 77093 243801,243853,243827
 3.8000e+001 243954 -1.2844e+005 -4.7087e+006  6.2644e+005 77093 243801,243879,243853
 3.8000e+001 243931  1.0737e+005 -3.6685e+006  2.2450e+005 77093 243801,243905,243879
 3.8000e+001 244080 -1.4321e+006 -5.0811e+006  2.6368e+005 76791 244002,244054,244028
 3.8000e+001 244232 -2.6462e+005 -4.5406e+006  2.2644e+004 76311 244131,244183,244157
 3.8000e+001 244209 -1.1772e+005 -9.0095e+006  5.8045e+005 76311 244105,244183,244131
 3.8000e+001 244433 -1.6866e+006 -1.8375e+007  3.5484e+006 75903 244283,244335,244309
 3.8000e+001 244410 -9.3389e+005 -1.4161e+007  4.7326e+005 75903 244283,244361,244335
 3.8000e+001 244387 -2.7713e+006 -1.1063e+007  2.7660e+006 75903 244257,244361,244283
 3.8000e+001 244585  5.4892e+004 -1.7741e+007  1.8955e+006 75419 244458,244510,244484
 3.8000e+001 244562 -7.1014e+005 -1.2368e+007  7.3486e+005 75419 244458,244536,244510
 3.8000e+001 244737 -3.7402e+005 -1.9490e+006 -1.5104e+005 75215 244636,244688,244662
 3.8000e+001 244714 -2.7767e+005 -4.5884e+006 -1.6387e+005 75215 244610,244688,244636
 3.8000e+001 244889 -9.8937e+005 -5.2380e+006 -5.2402e+005 74857 244788,244840,244814
 3.8000e+001 244866 -3.1632e+005 -2.7002e+006 -2.3355e+005 74857 244762,244840,244788
 3.8000e+001 245041  4.0351e+004 -1.7660e+005 -1.2667e+005 74653 244940,244992,244966
 3.8000e+001 245018 -1.9357e+004 -3.7391e+004  6.4626e+004 74653 244914,244992,244940
 3.8000e+001 245144 -3.7333e+005 -9.1493e+006 -1.6269e+006 74359 245066,245118,245092
 3.8000e+001 245296 -9.1306e+004 -1.8365e+006 -5.8297e+005 74007 245169,245221,245195
 3.8000e+001 245273 -5.8425e+005 -3.1590e+006 -9.3661e+005 74007 245169,245247,245221
 3.8000e+001 245448 -8.6890e+005 -8.7811e+006  2.1997e+006 73711 245321,245373,245347
 3.8000e+001 245425 -1.6409e+005 -8.5473e+006 -3.7485e+006 73711 245321,245399,245373
 3.8000e+001 245600  5.7740e+005 -1.3646e+007 -1.1023e+006 73301 245499,245551,245525
 3.8000e+001 245577 -1.8290e+006 -1.0000e+007  1.8234e+006 73301 245473,245551,245499
 3.8000e+001 245752 -2.1399e+006 -3.1115e+006 -1.8688e+006 72995 245625,245677,245651
 3.8000e+001 245729  8.2763e+005 -1.3061e+007 -1.7076e+006 72995 245625,245703,245677
 3.8000e+001 245953 -2.7405e+006 -1.3769e+007  1.7961e+006 72585 245777,245829,245803
 3.8000e+001 245930 -1.3283e+006 -1.6595e+007  4.0555e+006 72585 245777,245855,245829
 3.8000e+001 245907 -6.9866e+005 -1.1919e+007  2.4379e+006 72585 245777,245881,245855
 3.8000e+001 246154 -3.5257e+005 -6.8839e+006  1.2678e+006 72127 246030,246082,246056
 3.8000e+001 246131 -1.2062e+006 -9.4675e+006  6.5481e+005 72127 245978,246082,246030
 3.8000e+001 246108 -8.0557e+004 -9.2225e+006  1.4448e+004 72127 245978,246030,246004
 3.8000e+001 246257 -1.0394e+006 -2.3916e+006 -2.8970e+005 71737 246179,246231,246205
 3.8000e+001 246360 -7.4758e+004 -3.0209e+006  3.6630e+005 71447 246282,246334,246308
 3.8000e+001 246512 -2.2568e+005 -2.7611e+006  8.9855e+005 71157 246385,246437,246411
 3.8000e+001 246489 -2.7915e+004 -2.3385e+006  1.7560e+005 71157 246385,246463,246437
 3.8000e+001 246664 -1.5703e+005 -2.8013e+006 -3.3071e+005 70753 246537,246589,246563
 3.8000e+001 246641 -6.0428e+005 -1.6329e+006 -1.3758e+005 70753 246537,246615,246589
 3.8000e+001 246865 -2.2705e+006 -1.1960e+007  7.3961e+006 70249 246715,246767,246741
 3.8000e+001 246842 -2.8779e+006 -1.0709e+007 -7.1915e+004 70249 246715,246793,246767
 3.8000e+001 246819 -6.5617e+005 -1.4896e+007 -2.6836e+006 70249 246689,246793,246715
 3.8000e+001 247066 -7.7962e+004 -2.1814e+006  3.5912e+005 70023 246916,246994,246942
 3.8000e+001 247043  3.0743e+004 -2.4338e+006  2.5611e+005 70023 246890,246994,246916
 3.8000e+001 247020 -5.2022e+004 -2.0046e+006  2.9634e+005 70023 246942,246994,246968
 3.8000e+001 247267 -3.8486e+005 -4.8409e+006 -6.0943e+005 69633 247091,247143,247117
 3.8000e+001 247244 -1.0958e+005 -3.5824e+006 -4.4580e+005 69633 247091,247169,247143
 3.8000e+001 247221 -7.5327e+004 -3.0110e+006 -3.8128e+005 69633 247091,247195,247169
 3.8000e+001 247419 -8.9584e+005 -5.3744e+006  5.8132e+005 69457 247318,247370,247344
 3.8000e+001 247396 -1.1012e+006 -3.1459e+006  7.6127e+005 69457 247292,247370,247318
 3.8000e+001 247522 -2.6004e+000 -8.6421e+001 -8.9273e+001 69209 247444,247496,247470
 3.8000e+001 247625 -1.5487e+006 -1.4727e+006 -6.2454e+005 68919 247547,247599,247573
 3.8000e+001 247777  2.5888e+005 -6.4043e+006 -3.1513e+005 68579 247650,247702,247676
 3.8000e+001 247754 -2.3171e+005 -2.2533e+006 -7.1071e+004 68579 247650,247728,247702
 3.8000e+001 247929  1.3199e+005 -4.1363e+006  1.9387e+006 68289 247802,247854,247828
 3.8000e+001 247906 -1.9868e+005 -1.6754e+006 -2.6374e+005 68289 247802,247880,247854
 3.8000e+001 248081 -3.2516e+005 -4.9960e+006  1.1977e+006 67949 247980,248032,248006
 3.8000e+001 248058 -4.3812e+005 -1.1298e+006  6.4020e+004 67949 247954,248032,247980
 3.8000e+001 248233 -1.5770e+006 -5.7319e+006 -7.0071e+005 67616 248132,248184,248158
 3.8000e+001 248210 -5.4963e+005 -5.8581e+006 -3.6432e+005 67616 248106,248184,248132
 3.8000e+001 248434 -1.1364e+005 -4.1131e+006 -9.3501e+004 67212 248284,248336,248310
 3.8000e+001 248411 -3.1525e+004 -4.1925e+006 -4.3461e+005 67212 248258,248336,248284
 3.8000e+001 248388 -1.4751e+006 -2.5722e+006 -5.9636e+005 67212 248258,248362,248336
 3.8000e+001 248586 -5.8243e+004 -5.0550e+006  4.7214e+005 66872 248485,248537,248511
 3.8000e+001 248563 -7.5683e+005 -1.6148e+006 -2.0181e+005 66872 248459,248537,248485
 3.8000e+001 248738 -2.7648e+005 -5.1885e+006  1.1978e+005 66510 248637,248689,248663
 3.8000e+001 248715 -3.9140e+005 -7.8306e+006  1.6661e+005 66510 248611,248689,248637
 3.8000e+001 248890 -2.5980e+004 -6.3206e+005  1.2744e+005 66220 248789,248841,248815
 3.8000e+001 248867 -7.2629e+004 -8.0798e+005 -1.9787e+005 66220 248763,248841,248789
 3.8000e+001 249091 -1.0651e+006 -1.0651e+007  3.2955e+006 65759 248915,248967,248941
 3.8000e+001 249068 -8.3846e+005 -9.7165e+006  3.3234e+006 65759 248915,248993,248967
 3.8000e+001 249045 -4.5200e+005 -6.8102e+006  1.3096e+006 65759 248915,249019,248993
 3.8000e+001 249243 -5.6788e+004 -7.9483e+006  1.6272e+006 65419 249142,249194,249168
 3.8000e+001 249220 -8.0634e+004 -3.5202e+006  2.9883e+005 65419 249116,249194,249142
 3.8000e+001 249395 -4.1964e+005 -3.0327e+006 -4.9913e+005 65079 249268,249320,249294
 3.8000e+001 249372 -4.4700e+005 -3.7507e+006 -6.7307e+005 65079 249268,249346,249320
 3.8000e+001 249547 -5.1434e+004 -1.0814e+006  6.7863e+004 64739 249420,249472,249446
 3.8000e+001 249524 -1.0621e+005 -1.0481e+006 -4.3077e+004 64739 249420,249498,249472
 3.8000e+001 249650 -1.3974e+006 -5.9248e+006 -2.5255e+006 64342 249572,249624,249598
 3.8000e+001 249851 -4.3003e+005 -5.3351e+006 -4.8744e+005 63938 249701,249779,249753
 3.8000e+001 249828 -1.7059e+005 -5.5323e+006  1.0694e+006 63938 249675,249779,249701
 3.8000e+001 249805 -5.2815e+005 -7.1161e+006 -3.1024e+005 63938 249701,249753,249727
 3.8000e+001 250052 -5.8751e+005 -4.5687e+006 -9.1603e+005 63341 249876,249954,249902
 3.8000e+001 250029 -1.2337e+006 -5.6133e+006 -3.5175e+005 63341 249876,249980,249954
 3.8000e+001 250006  8.3371e+005 -6.7045e+006  8.3608e+005 63341 249902,249954,249928
 3.8000e+001 250253 -1.7046e+005 -3.6952e+006 -4.7364e+005 63058 250077,250129,250103
 3.8000e+001 250230 -5.1920e+005 -3.5780e+006 -1.4954e+005 63058 250077,250155,250129
 3.8000e+001 250207 -2.1303e+005 -3.4035e+006 -3.4196e+005 63058 250077,250181,250155
 3.8000e+001 250454 -8.8050e+005 -7.1413e+006  1.2135e+006 62832 250304,250382,250330
 3.8000e+001 250431  1.8651e+005 -8.9137e+006 -2.3504e+006 62832 250278,250382,250304
 3.8000e+001 250408 -2.1619e+006 -4.5261e+006  2.5137e+005 62832 250330,250382,250356
 3.8000e+001 250606  1.6320e+004 -1.7877e+007  4.7428e+005 62428 250479,250531,250505
 3.8000e+001 250583 -6.3599e+005 -1.3297e+007 -4.7650e+005 62428 250479,250557,250531
 3.8000e+001 250758  6.8111e+003 -7.3092e+006  7.1847e+005 62202 250631,250683,250657
 3.8000e+001 250735 -1.3078e+005 -7.7514e+006  1.3333e+006 62202 250631,250709,250683
 3.8000e+001 250861 -1.2544e+006 -2.5897e+006 -1.2749e+005 61954 250783,250835,250809
 3.8000e+001 251062 -2.4709e+006 -1.1965e+007 -8.3650e+004 61557 250912,250990,250938
 3.8000e+001 251039  7.6434e+004 -1.4232e+007  4.0394e+004 61557 250886,250990,250912
 3.8000e+001 251016 -1.0783e+006 -1.1631e+007 -1.9360e+006 61557 250938,250990,250964
 3.8000e+001 251263 -9.6021e+005 -7.2439e+006 -2.1302e+005 61167 251113,251165,251139
 3.8000e+001 251240 -4.1595e+005 -7.1057e+006 -4.9396e+005 61167 251113,251191,251165
 3.8000e+001 251217 -1.2267e+006 -6.9137e+006  1.7433e+006 61167 251087,251191,251113
 3.8000e+001 251415 -1.2367e+006 -2.9039e+006  7.8326e+005 60827 251288,251340,251314
 3.8000e+001 251392 -4.4937e+005 -1.6822e+006  5.7607e+004 60827 251288,251366,251340
 3.8000e+001 251567  1.5827e+005 -4.8996e+006  2.9618e+005 60487 251466,251518,251492
 3.8000e+001 251544  1.0570e+005 -3.5298e+006 -2.7714e+005 60487 251440,251518,251466
 3.8000e+001 251719  5.0920e+004 -9.9119e+006 -1.6655e+005 59983 251592,251644,251618
 3.8000e+001 251696 -8.0054e+005 -7.8585e+006  7.3752e+003 59983 251592,251670,251644
 3.8000e+001 251920 -3.5672e+004 -2.1052e+006  2.7641e+003 59807 251770,251848,251796
 3.8000e+001 251897 -1.1487e+004 -1.7762e+006 -4.8293e+004 59807 251744,251848,251770
 3.8000e+001 251874 -5.8031e+004 -2.2072e+006 -2.4852e+001 59807 251796,251848,251822
 3.8000e+001 252023 -2.4593e+004 -4.5807e+006 -3.6952e+004 59517 251945,251997,251971
 3.8000e+001 252175  1.5621e+006 -1.3555e+007 -2.8598e+005 59269 252074,252126,252100
 3.8000e+001 252152 -1.9292e+005 -8.3684e+006  1.6275e+005 59269 252048,252126,252074
 3.8000e+001 252278 -4.6203e+005 -2.1427e+006  9.6344e+005 58979 252200,252252,252226
 3.8000e+001 252381 -2.3754e+006 -2.4507e+006  1.0629e+006 58689 252303,252355,252329
 3.8000e+001 252533 -9.7331e+005 -4.3913e+006 -6.1569e+005 58249 252432,252484,252458
 3.8000e+001 252510 -1.1268e+006 -5.7171e+006 -1.1324e+006 58249 252406,252484,252432
 3.8000e+001 252734 -2.3101e+005 -4.4004e+006 -1.1496e+005 57902 252584,252662,252610
 3.8000e+001 252711  5.0166e+005 -4.6850e+006 -1.6733e+005 57902 252558,252662,252584
 3.8000e+001 252688 -1.3745e+005 -3.5768e+006 -3.8665e+005 57902 252610,252662,252636
 3.8000e+001 252886  4.0721e+002 -4.8749e+006 -2.9443e+005 57540 252785,252837,252811
 3.8000e+001 252863  2.4132e+005 -4.3239e+006 -5.7483e+004 57540 252759,252837,252785
 3.8000e+001 253038 -5.6217e+005 -5.9917e+006  1.4078e+006 57086 252937,252989,252963
 3.8000e+001 253015 -2.2558e+005 -2.3931e+006  1.6958e+005 57086 252911,252989,252937
 3.8000e+001 253239 -1.5227e+006 -5.5700e+006 -1.9107e+006 56796 253063,253141,253115
 3.8000e+001 253216  1.5899e+005 -6.6828e+006 -3.9376e+005 56796 253063,253167,253141
 3.8000e+001 253193 -9.0781e+005 -6.5227e+006 -2.2772e+006 56796 253063,253115,253089
 3.8000e+001 253342 -5.7621e+005 -1.7231e+007  1.4936e+004 56349 253264,253316,253290
 3.8000e+001 253543 -8.9494e+005 -8.6916e+006 -8.1697e+005 56009 253367,253419,253393
 3.8000e+001 253520 -5.2323e+005 -4.9590e+006 -5.5724e+005 56009 253367,253445,253419
 3.8000e+001 253497 -1.9177e+005 -6.5235e+006  1.7264e+005 56009 253367,253471,253445
 3.8000e+001 253695 -4.0402e+005 -1.9954e+006  3.7127e+005 55733 253594,253646,253620
 3.8000e+001 253672 -1.1941e+006 -7.3775e+005  9.1398e+004 55733 253568,253646,253594
 3.8000e+001 253798 -5.2870e+005 -2.1764e+006 -2.5506e+005 55557 253720,253772,253746
 3.8000e+001 253950 -6.2846e+005 -4.0382e+006  1.3132e+005 55153 253849,253901,253875
 3.8000e+001 253927 -6.2675e+004 -4.6822e+006 -6.3393e+005 55153 253823,253901,253849
 3.8000e+001 254151 -1.2193e+006 -4.8028e+006  6.1138e+005 54863 253975,254053,254001
 3.8000e+001 254128 -6.3625e+005 -4.8171e+006 -9.4935e+004 54863 253975,254079,254053
 3.8000e+001 254105 -5.7852e+005 -4.0989e+006  1.8260e+005 54863 254001,254053,254027
 3.8000e+001 254303  5.5752e+004 -2.2361e+006  1.9153e+005 54373 254176,254228,254202
 3.8000e+001 254280  6.2049e+004 -2.0258e+006  1.3905e+005 54373 254176,254254,254228
 3.8000e+001 254455 -1.1751e+005 -5.6321e+006 -3.8817e+005 53975 254354,254406,254380
 3.8000e+001 254432 -6.8206e+005 -1.3752e+006  2.0419e+005 53975 254328,254406,254354
 3.8000e+001 254607 -2.2443e+005 -5.2739e+006 -4.6493e+005 53585 254480,254532,254506
 3.8000e+001 254584 -4.3180e+005 -4.9109e+006 -4.4872e+005 53585 254480,254558,254532
 3.8000e+001 254808 -8.5370e+005 -3.7364e+006 -9.4727e+004 53245 254658,254736,254684
 3.8000e+001 254785 -1.0934e+006 -1.5164e+006 -6.3309e+005 53245 254632,254736,254658
 3.8000e+001 254762 -4.6072e+005 -2.4795e+006 -3.3781e+005 53245 254684,254736,254710
 3.8000e+001 254911 -2.5003e+005 -4.0068e+006  4.4028e+005 52955 254833,254885,254859
 3.8000e+001 255063 -6.6758e+005 -6.2802e+006 -1.2410e+005 52551 254962,255014,254988
 3.8000e+001 255040 -6.8031e+005 -6.7214e+006 -3.1717e+005 52551 254936,255014,254962
 3.8000e+001 255264 -4.6178e+005 -8.3707e+005  6.2959e+005 52261 255114,255166,255140
 3.8000e+001 255241 -1.2617e+006 -2.4075e+006  1.3318e+006 52261 255114,255192,255166
 3.8000e+001 255218  2.9991e+005 -4.3419e+006 -4.7681e+005 52261 255088,255192,255114
 3.8000e+001 255416 -4.3602e+005 -5.1495e+006  1.5061e+006 51971 255289,255341,255315
 3.8000e+001 255393 -1.5433e+005 -4.6960e+006 -2.8209e+005 51971 255289,255367,255341
 3.8000e+001 255568 -1.2816e+006 -8.7645e+005 -3.0097e+005 51681 255441,255493,255467
 3.8000e+001 255545 -1.4656e+005 -7.4352e+006  8.1675e+005 51681 255441,255519,255493
 3.8000e+001 255769 -2.0524e+005 -3.1264e+006 -8.8694e+004 51291 255619,255697,255671
 3.8000e+001 255746 -1.8550e+005 -2.8393e+006 -3.2071e+005 51291 255593,255697,255619
 3.8000e+001 255723 -2.2803e+005 -5.0455e+006 -5.6670e+005 51291 255619,255671,255645
 3.8000e+001 255921 -4.2594e+005 -2.9338e+006  7.5403e+005 50951 255820,255872,255846
 3.8000e+001 255898 -9.9155e+004 -1.8549e+006  8.8195e+004 50951 255794,255872,255820
 3.8000e+001 256171 -1.1495e+006 -4.5560e+006  4.9070e+004 50547 256024,256076,256050
 3.8000e+001 256148 -9.0735e+005 -4.5729e+006  4.0409e+005 50547 255972,256076,256024
 3.8000e+001 256125 -2.3322e+005 -5.1815e+006 -4.5079e+004 50547 255946,256076,255972
 3.8000e+001 256102 -8.8707e+005 -4.1367e+006  2.5886e+005 50547 255972,256024,255998
 3.8000e+001 256323  3.4101e+005 -5.6712e+006  1.0326e+006 50093 256196,256248,256222
 3.8000e+001 256300 -1.0359e+006 -2.8131e+006 -1.2196e+006 50093 256196,256274,256248
 3.8000e+001 256426  7.7479e+002 -2.3344e+003  1.0616e+003 49845 256348,256400,256374
 3.8000e+001 256627 -7.5152e+004 -5.1527e+006  7.9837e+004 49555 256477,256555,256503
 3.8000e+001 256604 -2.2005e+005 -3.4775e+006  1.2568e+005 49555 256451,256555,256477
 3.8000e+001 256581 -3.9784e+005 -4.5004e+006  2.7231e+005 49555 256503,256555,256529
 3.8000e+001 256828 -8.5635e+005 -2.9191e+006 -2.3467e+005 49056 256652,256730,256678
 3.8000e+001 256805 -3.0895e+005 -3.2821e+006 -6.2735e+005 49056 256652,256756,256730
 3.8000e+001 256782 -6.8313e+005 -2.2501e+006 -6.9199e+005 49056 256678,256730,256704
 3.8000e+001 256931 -7.3847e+004 -2.0110e+005  5.5071e+004 48766 256853,256905,256879
 3.8000e+001 257083 -9.9696e+005 -4.6028e+006 -7.5379e+005 48568 256982,257034,257008
 3.8000e+001 257060 -7.8513e+005 -3.7714e+006 -6.2479e+005 48568 256956,257034,256982
 3.8000e+001 257186 -1.2079e+003 -2.8343e+006  6.7260e+002 48228 257108,257160,257134
 3.8000e+001 257338 -4.3942e+005 -1.5833e+006  5.7843e+005 47888 257237,257289,257263
 3.8000e+001 257315 -4.1166e+005 -1.8080e+006  7.0592e+005 47888 257211,257289,257237
 3.8000e+001 257539 -2.9414e+005 -4.6629e+006  1.9617e+005 47548 257363,257441,257415
 3.8000e+001 257516 -5.8379e+005 -4.3607e+006 -3.5192e+005 47548 257363,257467,257441
 3.8000e+001 257493 -5.3306e+005 -3.4472e+006 -1.2214e+005 47548 257363,257415,257389
 3.8000e+001 257740 -2.0796e+005 -4.7107e+006  4.5999e+005 46994 257564,257642,257616
 3.8000e+001 257717 -4.4379e+005 -3.7930e+006  1.2213e+005 46994 257564,257668,257642
 3.8000e+001 257694 -7.5184e+005 -4.9511e+006  2.6832e+004 46994 257564,257616,257590
 3.8000e+001 257843 -1.0814e+006 -2.4241e+006 -2.1953e+005 46654 257765,257817,257791
 3.8000e+001 257995 -7.2653e+005 -3.7161e+006  2.7073e+005 46364 257894,257946,257920
 3.8000e+001 257972 -7.2648e+005 -4.4631e+006 -1.5326e+005 46364 257868,257946,257894
 3.8000e+001 258147 -1.5908e+005 -3.7496e+006  2.4657e+005 46024 258046,258098,258072
 3.8000e+001 258124 -3.4756e+005 -3.3545e+006  3.6616e+005 46024 258020,258098,258046
 3.8000e+001 258250 -6.8754e+005 -2.6214e+006  9.4433e+005 45741 258172,258224,258198
 3.8000e+001 258402 -2.8781e+005 -2.8301e+006  2.5570e+005 45401 258301,258353,258327
 3.8000e+001 258379 -5.3242e+005 -1.9845e+006  2.4800e+005 45401 258275,258353,258301
 3.8000e+001 258603 -7.1826e+005 -2.3580e+006  4.0052e+003 45071 258427,258505,258479
 3.8000e+001 258580 -1.7163e+005 -5.5407e+006  3.2469e+005 45071 258427,258531,258505
 3.8000e+001 258557 -2.0629e+005 -3.0756e+006  2.6050e+005 45071 258427,258479,258453
 3.8000e+001 258755 -1.7420e+005 -4.3066e+006 -3.2730e+005 44681 258654,258706,258680
 3.8000e+001 258732 -2.1623e+005 -4.1856e+006 -3.4056e+005 44681 258628,258706,258654
 3.8000e+001 258907 -7.8807e+005 -8.9415e+005 -5.3462e+004 44157 258806,258858,258832
 3.8000e+001 258884 -2.3548e+005 -1.3402e+006 -4.9639e+004 44157 258780,258858,258806
 3.8000e+001 259010 -7.3861e+005 -5.0856e+005  3.7601e+004 43705 258932,258984,258958
 3.8000e+001 259113 -4.4259e+005 -3.2679e+006  1.9737e+005 43284 259035,259087,259061
 3.8000e+001 259216 -6.2357e+005 -3.0251e+006 -1.3692e+005 42954 259138,259190,259164
 3.8000e+001 259319 -9.3412e+005 -2.1392e+006  2.8530e+004 42116 259241,259293,259267
 3.8000e+001 259422 -2.8581e+005 -3.3719e+006 -1.6750e+005 41804 259344,259396,259370
 3.8000e+001 259525 -6.1589e+005 -5.8734e+006  7.9641e+005 41219 259447,259499,259473
 3.8000e+001 259628 -8.2351e+005 -3.2769e+006 -3.8582e+005 385 259550,259602,259576
 4.0000e+000 190120 -9.0893e+005 -3.0682e+006  2.1277e+005 189630 189993,190045,190019
 4.0000e+000 190097 -6.1974e+005 -3.2416e+006  1.9462e+005 189630 189993,190071,190045
 4.0000e+000 190319 -6.2355e+005 -3.4402e+006  1.1709e+005 189312 190169,190221,190195
 4.0000e+000 190296 -8.7534e+005 -3.1458e+006 -1.8569e+005 189312 190169,190247,190221
 4.0000e+000 190273 -6.7300e+005 -3.0814e+006 -1.4395e+005 189312 190143,190247,190169
 4.0000e+000 190518 -3.7596e+005 -3.2402e+006 -1.4231e+005 189124 190368,190446,190420
 4.0000e+000 190495 -4.3559e+005 -3.6698e+006 -4.6922e+005 189124 190342,190446,190368
 4.0000e+000 190472 -1.5924e+005 -3.0568e+006 -5.8432e+005 189124 190368,190420,190394
 4.0000e+000 190619 -4.7319e+005 -7.6444e+005 -4.7265e+004 188926 190541,190593,190567
 4.0000e+000 190771 -1.3387e+006 -3.2402e+006 -5.8790e+004 188614 190670,190722,190696
 4.0000e+000 190748 -8.9312e+005 -4.7177e+006 -3.0725e+005 188614 190644,190722,190670
 4.0000e+000 190972 -5.4113e+005 -2.7086e+006  3.9510e+005 188324 190848,190900,190874
 4.0000e+000 190949 -4.6692e+005 -3.6946e+006 -1.6332e+005 188324 190796,190900,190848
 4.0000e+000 190926 -3.7464e+005 -3.5922e+006 -1.0159e+005 188324 190796,190848,190822
 4.0000e+000 191124 -1.6324e+005 -2.7914e+006  9.2499e+003 188034 191023,191075,191049
 4.0000e+000 191101 -6.5203e+005 -2.3136e+006 -2.4395e+005 188034 190997,191075,191023
 4.0000e+000 191276 -2.3167e+005 -2.4369e+006 -4.3642e+004 187836 191149,191201,191175
 4.0000e+000 191253 -4.3165e+005 -2.1732e+006  8.3318e+004 187836 191149,191227,191201
 4.0000e+000 191379 -3.6221e+005 -1.4469e+006 -7.4058e+004 187546 191301,191353,191327
 4.0000e+000 191531 -1.9798e+005 -3.9877e+006 -8.8035e+005 187256 191430,191482,191456
 4.0000e+000 191508 -6.2944e+005 -3.3054e+006  1.4100e+005 187256 191404,191482,191430
 4.0000e+000 191634 -3.7206e+005 -2.7492e+006 -1.2273e+005 187058 191556,191608,191582
 4.0000e+000 191835 -3.7588e+005 -2.7722e+006 -3.2482e+004 186860 191659,191711,191685
 4.0000e+000 191812 -5.2754e+005 -2.6670e+006 -5.7573e+004 186860 191659,191737,191711
 4.0000e+000 191789 -4.2263e+005 -2.3393e+006 -1.3745e+005 186860 191659,191763,191737
 4.0000e+000 191987 -6.0951e+005 -2.3964e+006 -3.2997e+005 186662 191886,191938,191912
 4.0000e+000 191964 -4.8715e+005 -2.5487e+006 -2.2612e+005 186662 191860,191938,191886
 4.0000e+000 192090 -6.0157e+005 -1.9973e+006 -5.5570e+004 186486 192012,192064,192038
 4.0000e+000 192242 -6.1235e+005 -3.8546e+006  1.0011e+005 186288 192115,192167,192141
 4.0000e+000 192219 -4.6369e+005 -3.6059e+006  2.1425e+005 186288 192115,192193,192167
 4.0000e+000 192394 -2.1046e+005 -3.4386e+006 -2.2572e+005 185935 192293,192345,192319
 4.0000e+000 192371 -3.6220e+005 -2.9869e+006 -3.2659e+005 185935 192267,192345,192293
 4.0000e+000 192546 -3.4339e+005 -2.8019e+006  3.4129e+004 185675 192419,192471,192445
 4.0000e+000 192523 -3.1926e+005 -2.8800e+006  3.6680e+004 185675 192419,192497,192471
 4.0000e+000 192649 -5.4308e+005 -1.9301e+006 -2.7624e+002 185499 192571,192623,192597
 4.0000e+000 192801 -8.4112e+005 -2.1864e+006 -1.5768e+005 185301 192674,192726,192700
 4.0000e+000 192778 -4.8254e+005 -2.1371e+006 -5.2355e+004 185301 192674,192752,192726
 4.0000e+000 193002 -2.0976e+005 -2.1295e+006 -4.8908e+005 185046 192852,192930,192878
 4.0000e+000 192979 -3.9443e+005 -2.9002e+006 -4.8408e+005 185046 192826,192930,192852
 4.0000e+000 192956  5.6979e+004 -3.1970e+006 -1.6076e+005 185046 192878,192930,192904
 4.0000e+000 193203 -1.0402e+006 -2.7264e+006 -1.9722e+005 184798 193079,193131,193105
 4.0000e+000 193180 -5.6701e+005 -3.2967e+006 -4.3798e+005 184798 193027,193131,193079
 4.0000e+000 193157 -7.1685e+005 -3.3682e+006  3.7155e+003 184798 193027,193079,193053
 4.0000e+000 193404 -4.0508e+005 -2.5624e+006 -2.1966e+005 184600 193254,193306,193280
 4.0000e+000 193381 -4.5916e+005 -2.7521e+006 -1.8940e+005 184600 193254,193332,193306
 4.0000e+000 193358 -6.6729e+005 -2.8884e+006 -8.6021e+004 184600 193228,193332,193254
 4.0000e+000 193556 -1.4718e+005 -3.1727e+006 -2.7587e+004 184402 193429,193481,193455
 4.0000e+000 193533 -2.9113e+005 -3.6965e+006  3.6129e+005 184402 193429,193507,193481
 4.0000e+000 193708 -6.7162e+005 -2.7200e+006  3.7793e+004 184204 193607,193659,193633
 4.0000e+000 193685 -7.4014e+005 -3.5604e+006 -1.9133e+005 184204 193581,193659,193607
 4.0000e+000 193860 -5.2294e+005 -2.5771e+006  3.9465e+005 183908 193759,193811,193785
 4.0000e+000 193837 -4.2871e+005 -2.8815e+006  3.7074e+005 183908 193733,193811,193759
 4.0000e+000 194061 -9.2231e+004 -1.8618e+006 -2.5863e+005 183710 193911,193989,193937
 4.0000e+000 194038 -4.9778e+005 -2.4454e+006  1.6707e+005 183710 193885,193989,193911
 4.0000e+000 194015 -1.0611e+005 -2.8260e+006 -6.8517e+004 183710 193937,193989,193963
 4.0000e+000 194262 -9.6711e+005 -2.4960e+006 -4.1617e+005 183420 194086,194164,194112
 4.0000e+000 194239 -1.0048e+006 -2.4365e+006 -2.8373e+004 183420 194086,194190,194164
 4.0000e+000 194216 -2.3058e+005 -4.2504e+006  3.6056e+005 183420 194112,194164,194138
 4.0000e+000 194414 -3.7220e+005 -3.3556e+006  4.5851e+005 183222 194287,194339,194313
 4.0000e+000 194391 -5.5905e+005 -2.5969e+006  1.9672e+005 183222 194287,194365,194339
 4.0000e+000 194517 -3.8393e+005 -3.1344e+006  6.6168e+004 183024 194439,194491,194465
 4.0000e+000 194718 -2.8209e+005 -4.8412e+006  1.5348e+005 182734 194568,194620,194594
 4.0000e+000 194695 -7.0747e+005 -3.2957e+006 -5.1683e+005 182734 194542,194620,194568
 4.0000e+000 194672 -1.1646e+006 -2.6819e+006 -1.7336e+005 182734 194542,194646,194620
 4.0000e+000 194870 -6.7329e+005 -2.9706e+006 -6.7415e+004 182444 194769,194821,194795
 4.0000e+000 194847 -6.0138e+005 -2.4338e+006 -3.0650e+005 182444 194743,194821,194769
 4.0000e+000 195071 -1.1854e+006 -3.6252e+006  1.9418e+005 182154 194895,194947,194921
 4.0000e+000 195048 -9.3076e+005 -2.7646e+006  3.4632e+005 182154 194895,194999,194947
 4.0000e+000 195025 -6.6217e+005 -3.4213e+006  4.4754e+005 182154 194947,194999,194973
 4.0000e+000 195223 -8.5566e+005 -2.7719e+006  4.2335e+005 181814 195096,195148,195122
 4.0000e+000 195200 -7.8038e+005 -2.3946e+006  5.8437e+005 181814 195096,195174,195148
 4.0000e+000 195375 -1.0932e+005 -2.5833e+006 -6.2141e+004 181524 195248,195300,195274
 4.0000e+000 195352 -6.9511e+004 -2.7893e+006 -3.1666e+004 181524 195248,195326,195300
 4.0000e+000 195527 -1.7772e+005 -8.5614e+005 -1.6558e+005 181326 195426,195478,195452
 4.0000e+000 195504 -7.1733e+005 -1.5506e+006  2.1262e+005 181326 195400,195478,195426
 4.0000e+000 195679  3.2771e+003 -3.4994e+006  3.4993e+005 180936 195578,195630,195604
 4.0000e+000 195656 -1.4134e+005 -2.9540e+006  3.2228e+005 180936 195552,195630,195578
 4.0000e+000 195831 -6.9480e+005 -7.0533e+005 -3.9662e+005 180646 195704,195756,195730
 4.0000e+000 195808 -5.8366e+005 -2.3975e+005 -1.0316e+005 180646 195704,195782,195756
 4.0000e+000 196032 -5.8189e+005 -2.0406e+006  6.6951e+005 180306 195882,195960,195934
 4.0000e+000 196009 -9.1769e+005 -2.7319e+006  2.9692e+005 180306 195856,195960,195882
 4.0000e+000 195986 -9.4720e+004 -2.7604e+006 -1.3623e+005 180306 195882,195934,195908
 4.0000e+000 196233 -5.3094e+005 -1.2698e+006  1.5954e+005 179944 196057,196109,196083
 4.0000e+000 196210 -1.2063e+006 -4.2561e+006  8.3948e+005 179944 196057,196135,196109
 4.0000e+000 196187 -1.7030e+006  2.9879e+005 -2.9139e+005 179944 196057,196161,196135
 4.0000e+000 196385 -2.5515e+004 -3.6599e+005 -1.0717e+005 179604 196258,196310,196284
 4.0000e+000 196362 -1.1257e+005 -6.1312e+005 -2.0110e+005 179604 196258,196336,196310
 4.0000e+000 196586  3.6492e+004 -2.0024e+006 -4.6562e+005 179114 196410,196488,196436
 4.0000e+000 196563 -5.0562e+005 -1.6069e+006 -1.9769e+005 179114 196410,196514,196488
 4.0000e+000 196540 -2.3819e+004 -2.0819e+006 -2.2244e+005 179114 196436,196488,196462
 4.0000e+000 196738 -7.2818e+005 -2.1481e+006 -2.6161e+005 178674 196611,196663,196637
 4.0000e+000 196715 -1.7270e+005 -2.7318e+006 -2.0082e+005 178674 196611,196689,196663
 4.0000e+000 196939 -4.6232e+005 -3.6226e+006 -4.7764e+005 178334 196789,196867,196841
 4.0000e+000 196916 -4.6575e+005 -3.7962e+006 -8.2340e+005 178334 196763,196867,196789
 4.0000e+000 196893 -9.1436e+005 -3.5946e+006 -6.2013e+005 178334 196789,196841,196815
 4.0000e+000 197091 -2.0205e+005 -2.1902e+006  2.4856e+005 177930 196990,197042,197016
 4.0000e+000 197068 -2.7090e+005 -2.4679e+006  2.5159e+005 177930 196964,197042,196990
 4.0000e+000 197194  7.2328e+001 -9.1699e+005  1.0574e+002 177732 197116,197168,197142
 4.0000e+000 197346 -4.3933e+005 -4.4472e+006  1.2697e+005 177534 197219,197271,197245
 4.0000e+000 197323 -2.3935e+005 -5.1992e+006  5.3183e+005 177534 197219,197297,197271
 4.0000e+000 197547 -8.6979e+005 -3.0993e+006 -1.3590e+006 177130 197397,197449,197423
 4.0000e+000 197524 -7.0952e+005 -3.2881e+006 -2.3611e+005 177130 197397,197475,197449
 4.0000e+000 197501 -6.0726e+005 -4.8139e+006 -3.5508e+005 177130 197371,197475,197397
 4.0000e+000 197748 -8.2520e+005 -4.4328e+006  3.3632e+005 176790 197598,197676,197624
 4.0000e+000 197725 -3.5984e+005 -3.8726e+006  6.6227e+005 176790 197572,197676,197598
 4.0000e+000 197702 -8.2567e+005 -3.8121e+006  4.3750e+005 176790 197624,197676,197650
 4.0000e+000 197900 -2.6747e+005 -3.0465e+006 -7.8482e+005 176300 197773,197825,197799
 4.0000e+000 197877 -4.3528e+005 -3.1696e+006 -6.8706e+005 176300 197773,197851,197825
 4.0000e+000 198052 -4.8784e+005 -3.3616e+006 -6.5623e+005 176010 197925,197977,197951
 4.0000e+000 198029 -7.1734e+005 -3.2773e+006 -4.6029e+005 176010 197925,198003,197977
 4.0000e+000 198204 -1.5008e+006 -3.8642e+006  6.9474e+005 175670 198103,198155,198129
 4.0000e+000 198181 -1.1929e+006 -3.6120e+006  1.5237e+005 175670 198077,198155,198103
 4.0000e+000 198405 -6.6740e+005 -3.8272e+006  1.5663e+005 175266 198255,198307,198281
 4.0000e+000 198382 -3.8531e+005 -3.8337e+006  1.4188e+005 175266 198229,198307,198255
 4.0000e+000 198359 -5.1457e+005 -3.8306e+006  1.3936e+005 175266 198229,198333,198307
 4.0000e+000 198606 -5.3709e+005 -2.5398e+006 -2.3119e+005 174876 198430,198508,198482
 4.0000e+000 198583 -7.7331e+005 -2.6832e+006  4.9617e+005 174876 198430,198534,198508
 4.0000e+000 198560 -7.6336e+005 -2.9939e+006 -1.0119e+004 174876 198430,198482,198456
 4.0000e+000 198758 -1.0505e+005 -1.7751e+006  2.3468e+005 174536 198657,198709,198683
 4.0000e+000 198735  1.5212e+005 -9.0122e+005  8.3757e+004 174536 198631,198709,198657
 4.0000e+000 199008 -3.5688e+005 -5.2057e+006  1.7441e+004 174132 198835,198913,198887
 4.0000e+000 198985 -4.8062e+005 -3.6363e+006  1.9059e+003 174132 198809,198913,198835
 4.0000e+000 198962 -1.1455e+005 -3.6234e+006 -5.8508e+005 174132 198783,198913,198809
 4.0000e+000 198939 -7.8746e+005 -4.3774e+006  1.8467e+005 174132 198835,198887,198861
 4.0000e+000 199160 -4.8099e+005 -3.8101e+006  5.3965e+005 173842 199059,199111,199085
 4.0000e+000 199137 -5.8772e+005 -2.7817e+006  2.6392e+005 173842 199033,199111,199059
 4.0000e+000 199361 -8.6958e+005 -4.6674e+006 -1.1117e+004 173438 199237,199289,199263
 4.0000e+000 199338 -8.5500e+005 -3.4068e+006  2.7550e+005 173438 199211,199289,199237
 4.0000e+000 199315 -7.5621e+005 -3.9265e+006 -1.6740e+005 173438 199185,199289,199211
 4.0000e+000 199513 -4.9472e+005 -3.5107e+006  5.4415e+005 173190 199386,199438,199412
 4.0000e+000 199490 -8.0839e+005 -3.4678e+006  5.2515e+005 173190 199386,199464,199438
 4.0000e+000 199665 -1.3214e+005 -1.5609e+006  7.0997e+004 172750 199564,199616,199590
 4.0000e+000 199642 -2.4318e+005 -1.2873e+006  2.4997e+003 172750 199538,199616,199564
 4.0000e+000 199817 -5.5416e+005 -4.6839e+006 -9.8965e+005 172524 199690,199742,199716
 4.0000e+000 199794 -1.2500e+006 -3.2833e+006 -7.6306e+005 172524 199690,199768,199742
 4.0000e+000 199969 -1.1719e+006 -3.5546e+006 -9.6207e+005 172348 199842,199894,199868
 4.0000e+000 199946 -2.3147e+005 -3.3956e+006 -2.5746e+005 172348 199842,199920,199894
 4.0000e+000 200121 -9.9113e+004 -4.0306e+006 -6.4718e+005 172008 199994,200046,200020
 4.0000e+000 200098 -4.8279e+005 -3.1880e+006 -4.6562e+005 172008 199994,200072,200046
 4.0000e+000 200273 -4.3264e+005 -3.4362e+006  9.2680e+005 171668 200172,200224,200198
 4.0000e+000 200250 -4.6817e+005 -3.8050e+006  9.9320e+005 171668 200146,200224,200172
 4.0000e+000 200474 -1.8613e+005 -4.6709e+006 -2.7335e+005 171264 200350,200402,200376
 4.0000e+000 200451 -5.2392e+005 -3.7833e+006 -6.5446e+004 171264 200324,200402,200350
 4.0000e+000 200428 -3.1942e+005 -3.5169e+006  2.2889e+005 171264 200298,200402,200324
 4.0000e+000 200626 -2.1023e+005 -4.5524e+006  5.5574e+004 170832 200525,200577,200551
 4.0000e+000 200603 -1.1343e+005 -3.8234e+006  1.7217e+005 170832 200499,200577,200525
 4.0000e+000 200827 -1.0216e+005 -4.0037e+006  3.8985e+005 170492 200677,200729,200703
 4.0000e+000 200804 -2.9038e+005 -3.3526e+006 -1.2356e+005 170492 200651,200729,200677
 4.0000e+000 200781 -3.3607e+005 -3.7561e+006 -8.8009e+004 170492 200651,200755,200729
 4.0000e+000 201077  1.3626e+005 -2.1745e+006 -4.7108e+004 170088 200878,200956,200904
 4.0000e+000 201054 -5.2315e+005 -2.7270e+006 -7.2900e+005 170088 200852,200956,200878
 4.0000e+000 201031  2.8643e+004 -1.9519e+006  7.5388e+005 170088 200904,200956,200930
 4.0000e+000 201008  1.4570e+006 -5.4379e+006  1.1647e+006 170088 200852,200982,200956
 4.0000e+000 201278 -3.9890e+005 -2.5552e+006 -1.4604e+005 169798 201102,201154,201128
 4.0000e+000 201255 -7.0554e+005 -3.8266e+006  2.2838e+005 169798 201102,201206,201154
 4.0000e+000 201232 -6.5244e+005 -2.9262e+006  4.4206e+005 169798 201154,201206,201180
 4.0000e+000 201430 -1.1398e+006 -5.0177e+006 -3.3038e+005 169337 201303,201355,201329
 4.0000e+000 201407 -9.5456e+005 -4.7060e+006 -4.8973e+005 169337 201303,201381,201355
 4.0000e+000 201631 -2.3702e+005 -3.5045e+006 -2.8027e+005 168883 201481,201559,201507
 4.0000e+000 201608  4.4012e+004 -3.6981e+006 -3.7986e+005 168883 201455,201559,201481
 4.0000e+000 201585 -9.2527e+005 -4.3487e+006 -7.7646e+005 168883 201507,201559,201533
 4.0000e+000 201832 -2.1629e+005 -4.3850e+006 -5.0007e+004 168479 201682,201734,201708
 4.0000e+000 201809 -7.4541e+005 -4.2556e+006 -1.7264e+005 168479 201656,201734,201682
 4.0000e+000 201786 -6.3006e+005 -3.7754e+006 -4.3949e+005 168479 201656,201760,201734
 4.0000e+000 202033 -2.2847e+005 -2.8626e+006  4.6862e+005 167825 201883,201935,201909
 4.0000e+000 202010 -2.1577e+005 -3.2782e+006 -5.0652e+005 167825 201857,201935,201883
 4.0000e+000 201987 -5.5023e+005 -4.0477e+006 -2.0145e+005 167825 201857,201961,201935
 4.0000e+000 202234 -9.7497e+005 -4.1507e+006 -7.9796e+005 167435 202058,202136,202084
 4.0000e+000 202211 -1.9521e+006 -5.1408e+006  2.2534e+005 167435 202058,202162,202136
 4.0000e+000 202188 -1.1800e+006 -3.2268e+006 -1.5233e+005 167435 202084,202136,202110
 4.0000e+000 202386 -8.9603e+004 -3.2355e+006  3.6805e+005 167002 202285,202337,202311
 4.0000e+000 202363 -3.1950e+004 -4.1066e+006  2.6752e+005 167002 202259,202337,202285
 4.0000e+000 202538 -1.8668e+005 -4.0822e+006 -1.6934e+005 166662 202411,202463,202437
 4.0000e+000 202515 -7.3960e+005 -2.7714e+006  2.4085e+005 166662 202411,202489,202463
 4.0000e+000 202690 -4.1955e+005 -4.5204e+006 -5.6627e+005 166322 202589,202641,202615
 4.0000e+000 202667 -1.0917e+005 -4.1577e+006 -3.1313e+005 166322 202563,202641,202589
 4.0000e+000 202891 -1.5113e+006 -3.7744e+006  2.1853e+004 165918 202715,202767,202741
 4.0000e+000 202868 -1.2774e+006 -2.8759e+006 -1.2398e+005 165918 202715,202793,202767
 4.0000e+000 202845 -9.4153e+004 -3.4948e+006 -2.8350e+004 165918 202715,202819,202793
 4.0000e+000 203092 -2.1725e+005 -5.2794e+006 -3.7805e+005 165628 202916,202968,202942
 4.0000e+000 203069 -8.6351e+005 -5.0838e+006 -1.8229e+005 165628 202916,202994,202968
 4.0000e+000 203046 -5.0650e+005 -4.9292e+006 -3.0124e+005 165628 202916,203020,202994
 4.0000e+000 203293 -9.3360e+005 -5.8497e+006  8.9469e+005 165266 203143,203195,203169
 4.0000e+000 203270 -1.3045e+006 -4.2616e+006 -1.3359e+005 165266 203143,203221,203195
 4.0000e+000 203247 -4.2976e+005 -5.3931e+006 -1.3839e+006 165266 203117,203221,203143
 4.0000e+000 203445 -6.6161e+005 -3.4718e+006  4.1000e+005 164826 203318,203370,203344
 4.0000e+000 203422 -1.5169e+006 -3.0313e+006  9.2196e+004 164826 203318,203396,203370
 4.0000e+000 203597 -3.1431e+005 -3.1549e+006  4.3098e+005 164386 203470,203522,203496
 4.0000e+000 203574 -3.8611e+005 -2.7581e+006  3.9005e+004 164386 203470,203548,203522
 4.0000e+000 203798 -3.3076e+004 -3.4293e+006  1.6987e+005 163996 203622,203674,203648
 4.0000e+000 203775 -3.4921e+005 -3.1324e+006  1.9571e+005 163996 203622,203726,203674
 4.0000e+000 203752 -5.7631e+005 -3.9153e+006  4.9547e+005 163996 203674,203726,203700
 4.0000e+000 203901 -6.0098e+005 -2.5258e+006  4.7304e+004 163770 203823,203875,203849
 4.0000e+000 204053 -8.9113e+005 -3.4477e+006 -1.8956e+005 163474 203952,204004,203978
 4.0000e+000 204030 -7.5624e+005 -3.1416e+006  3.4796e+005 163474 203926,204004,203952
 4.0000e+000 204205 -4.6263e+005 -3.7361e+006 -5.4151e+005 163034 204104,204156,204130
 4.0000e+000 204182 -7.0811e+005 -4.1612e+006 -9.2168e+005 163034 204078,204156,204104
 4.0000e+000 204357 -5.2754e+005 -3.0730e+006  3.1202e+005 162624 204256,204308,204282
 4.0000e+000 204334 -4.1716e+005 -2.5902e+006  3.4703e+005 162624 204230,204308,204256
 4.0000e+000 204509  3.9393e+002 -5.4931e+005  6.8320e+004 162200 204382,204434,204408
 4.0000e+000 204486 -2.9527e+003 -4.2967e+005  3.3679e+004 162200 204382,204460,204434
 4.0000e+000 204710 -2.3203e+005 -1.8204e+006  8.6399e+004 161810 204560,204638,204586
 4.0000e+000 204687 -3.9143e+004 -2.2049e+006 -3.0789e+005 161810 204534,204638,204560
 4.0000e+000 204664 -4.1889e+005 -2.2714e+006 -7.8221e+004 161810 204586,204638,204612
 4.0000e+000 204862 -1.0847e+006 -2.9798e+006 -3.0098e+005 161406 204735,204787,204761
 4.0000e+000 204839 -1.2020e+006 -3.7972e+006  1.3485e+005 161406 204735,204813,204787
 4.0000e+000 205014 -5.7095e+005 -2.1490e+006  3.9763e+005 161180 204887,204939,204913
 4.0000e+000 204991 -5.3771e+005 -2.1713e+006  4.0512e+005 161180 204887,204965,204939
 4.0000e+000 205215 -3.6100e+005 -2.6646e+006 -4.1578e+005 160726 205039,205091,205065
 4.0000e+000 205192 -5.0249e+005 -3.4720e+006 -1.4625e+004 160726 205039,205143,205091
 4.0000e+000 205169 -7.0131e+005 -2.1327e+006 -9.0164e+004 160726 205091,205143,205117
 4.0000e+000 205416 -2.4714e+005 -2.8369e+006  7.1134e+005 160272 205292,205344,205318
 4.0000e+000 205393 -4.2906e+005 -2.4014e+006  5.9856e+005 160272 205240,205344,205292
 4.0000e+000 205370 -5.1354e+005 -3.0615e+006  6.4871e+004 160272 205240,205292,205266
 4.0000e+000 205568 -5.1996e+004 -2.2642e+006  1.5850e+005 159932 205441,205493,205467
 4.0000e+000 205545 -7.0092e+004 -2.7305e+006  1.5314e+005 159932 205441,205519,205493
 4.0000e+000 205720 -5.8651e+005 -2.0572e+006 -8.6416e+005 159542 205593,205645,205619
 4.0000e+000 205697 -1.0786e+006 -1.6178e+006 -3.4660e+005 159542 205593,205671,205645
 4.0000e+000 205872  1.2990e+004 -9.0889e+005  1.0305e+004 159252 205745,205797,205771
 4.0000e+000 205849 -1.5944e+005 -2.1073e+006 -4.2619e+005 159252 205745,205823,205797
 4.0000e+000 206024 -2.1590e+006 -2.6255e+006 -5.2869e+005 159004 205923,205975,205949
 4.0000e+000 206001 -7.9940e+005 -2.7326e+006  3.5639e+005 159004 205897,205975,205923
 4.0000e+000 206127 -3.1270e+002 -4.8583e+002  4.3343e+002 158364 206049,206101,206075
 4.0000e+000 206328 -5.6347e+005 -3.1787e+006 -5.6928e+004 157960 206178,206256,206204
 4.0000e+000 206305  1.9635e+003 -3.1180e+006 -8.6173e+004 157960 206152,206256,206178
 4.0000e+000 206282 -2.9313e+005 -2.7225e+006  1.4054e+005 157960 206204,206256,206230
 4.0000e+000 206529 -3.9580e+005 -3.1062e+006  2.6859e+005 157648 206405,206457,206431
 4.0000e+000 206506 -7.1324e+005 -3.5781e+006  4.4453e+004 157648 206379,206457,206405
 4.0000e+000 206483 -5.1437e+005 -4.0642e+006 -5.8240e+005 157648 206353,206457,206379
 4.0000e+000 206730 -3.8095e+004 -4.6430e+006  4.4289e+005 157208 206554,206606,206580
 4.0000e+000 206707 -3.1084e+005 -5.9077e+006  3.3412e+005 157208 206554,206632,206606
 4.0000e+000 206684 -1.7228e+006 -3.4524e+006  5.8383e+005 157208 206554,206658,206632
 4.0000e+000 206882  6.3649e+003 -2.6229e+006  2.3666e+005 157010 206755,206807,206781
 4.0000e+000 206859  6.3578e+004 -2.7970e+006  3.0804e+005 157010 206755,206833,206807
 4.0000e+000 207034 -2.5293e+004 -3.8271e+006 -1.5974e+004 156620 206907,206959,206933
 4.0000e+000 207011 -5.5153e+003 -4.2274e+006  1.2201e+004 156620 206907,206985,206959
 4.0000e+000 207186 -3.2351e+004 -2.1812e+006  6.6076e+003 156330 207085,207137,207111
 4.0000e+000 207163 -1.1175e+005 -2.2051e+006 -1.1156e+005 156330 207059,207137,207085
 4.0000e+000 207387 -4.9126e+005 -3.4168e+006  1.7742e+005 155890 207211,207289,207237
 4.0000e+000 207364 -6.6631e+005 -3.4608e+006  4.0632e+004 155890 207211,207315,207289
 4.0000e+000 207341 -4.3121e+005 -2.9818e+006  4.6607e+005 155890 207237,207289,207263
 4.0000e+000 207588 -6.7552e+005 -4.3196e+006  4.7268e+005 155436 207438,207490,207464
 4.0000e+000 207565 -7.6295e+005 -4.4237e+006  5.8498e+005 155436 207412,207490,207438
 4.0000e+000 207542 -1.6654e+005 -4.6698e+006  2.6970e+005 155436 207412,207516,207490
 4.0000e+000 207789 -4.4753e+005 -5.8820e+006  2.0425e+004 155260 207639,207691,207665
 4.0000e+000 207766 -4.2582e+005 -4.3984e+006  6.2051e+005 155260 207613,207691,207639
 4.0000e+000 207743 -3.2889e+005 -4.3230e+006  5.0267e+005 155260 207613,207717,207691
 4.0000e+000 207990 -1.7144e+005 -2.0589e+006  2.6829e+005 154920 207840,207918,207892
 4.0000e+000 207967 -8.9553e+005 -2.2764e+006  1.2584e+005 154920 207814,207918,207840
 4.0000e+000 207944 -2.8963e+005 -2.2604e+006  4.0050e+005 154920 207840,207892,207866
 4.0000e+000 208191 -2.1258e+005 -4.8959e+006 -7.7094e+005 154630 208015,208093,208041
 4.0000e+000 208168 -1.0760e+006 -4.4084e+006 -2.4647e+005 154630 208015,208119,208093
 4.0000e+000 208145 -4.6156e+005 -4.8818e+006 -7.9737e+005 154630 208041,208093,208067
 4.0000e+000 208343 -1.4565e+005 -2.0539e+006 -3.1500e+005 154240 208216,208268,208242
 4.0000e+000 208320  6.2066e+004 -9.8917e+005 -8.8500e+004 154240 208216,208294,208268
 4.0000e+000 208495 -1.0233e+006 -6.0648e+006 -1.1495e+006 153950 208394,208446,208420
 4.0000e+000 208472 -1.1194e+006 -5.1513e+006 -4.7251e+005 153950 208368,208446,208394
 4.0000e+000 208647 -8.8067e+005 -4.3362e+006  5.1646e+005 153603 208520,208572,208546
 4.0000e+000 208624 -1.2891e+006 -4.0753e+006  2.7123e+005 153603 208520,208598,208572
 4.0000e+000 208848 -4.8654e+005 -3.3727e+006  4.3872e+005 153149 208698,208776,208724
 4.0000e+000 208825 -1.1218e+005 -4.5571e+006 -1.4462e+005 153149 208672,208776,208698
 4.0000e+000 208802 -9.1520e+005 -4.3489e+006  9.9510e+004 153149 208724,208776,208750
 4.0000e+000 209000 -3.9702e+005 -4.9314e+006  6.0416e+004 152859 208873,208925,208899
 4.0000e+000 208977 -3.8907e+005 -4.6313e+006 -6.6096e+003 152859 208873,208951,208925
 4.0000e+000 209152 -6.3893e+005 -4.7925e+006 -5.1381e+005 152569 209051,209103,209077
 4.0000e+000 209129 -9.7089e+005 -4.4954e+006 -3.6513e+005 152569 209025,209103,209051
 4.0000e+000 209304 -2.8753e+005 -2.4562e+006  2.9339e+005 152065 209177,209229,209203
 4.0000e+000 209281 -4.2609e+005 -2.4348e+006  3.1082e+005 152065 209177,209255,209229
 4.0000e+000 209456 -2.3363e+005 -5.1276e+006 -6.3136e+004 151775 209355,209407,209381
 4.0000e+000 209433 -6.5543e+005 -5.0532e+006 -2.9196e+005 151775 209329,209407,209355
 4.0000e+000 209608 -6.1500e+005 -5.2708e+006 -4.0492e+004 151371 209481,209533,209507
 4.0000e+000 209585  7.5556e+004 -5.9225e+006  1.3531e+004 151371 209481,209559,209533
 4.0000e+000 209760 -1.5867e+006 -4.8306e+006 -1.0099e+006 150981 209659,209711,209685
 4.0000e+000 209737 -5.6378e+005 -4.6285e+006 -9.1398e+005 150981 209633,209711,209659
 4.0000e+000 209912 -2.2441e+004 -5.4212e+006 -2.2167e+005 150619 209811,209863,209837
 4.0000e+000 209889  2.5084e+005 -5.1609e+006 -5.9866e+004 150619 209785,209863,209811
 4.0000e+000 210064 -5.6301e+005 -5.5824e+006 -4.7594e+005 150279 209937,209989,209963
 4.0000e+000 210041 -3.7497e+005 -4.9262e+006 -6.6215e+005 150279 209937,210015,209989
 4.0000e+000 210265 -6.3711e+005 -5.1715e+006 -1.0686e+006 149989 210115,210167,210141
 4.0000e+000 210242 -9.0555e+005 -3.9134e+006  4.6502e+005 149989 210115,210193,210167
 4.0000e+000 210219 -8.5295e+005 -6.0302e+006  3.7387e+005 149989 210089,210193,210115
 4.0000e+000 210417 -3.3469e+005 -4.9474e+006 -5.0737e+005 149599 210316,210368,210342
 4.0000e+000 210394 -3.7575e+005 -3.9163e+006 -2.6674e+005 149599 210290,210368,210316
 4.0000e+000 210618 -1.4851e+006 -3.9080e+006 -4.6767e+005 149095 210468,210520,210494
 4.0000e+000 210595 -1.1722e+006 -4.0357e+006  7.0979e+005 149095 210442,210520,210468
 4.0000e+000 210572 -4.5976e+005 -5.2681e+006  5.5933e+005 149095 210442,210546,210520
 4.0000e+000 210819 -4.5878e+005 -2.5124e+006  2.1095e+005 148748 210695,210747,210721
 4.0000e+000 210796 -3.5624e+005 -2.8825e+006  3.8139e+005 148748 210669,210747,210695
 4.0000e+000 210773 -2.9719e+005 -2.5148e+006  7.3146e+005 148748 210643,210747,210669
 4.0000e+000 210971 -1.2271e+005 -1.3654e+006  8.5725e+003 148408 210870,210922,210896
 4.0000e+000 210948 -4.2003e+004 -2.0639e+006  1.8317e+005 148408 210844,210922,210870
 4.0000e+000 211123 -6.4162e+005 -3.5371e+006  9.2492e+005 148118 210996,211048,211022
 4.0000e+000 211100 -1.1244e+006 -3.7580e+006  1.0911e+006 148118 210996,211074,211048
 4.0000e+000 211275 -8.4007e+005 -4.9273e+006  5.0624e+005 147778 211148,211200,211174
 4.0000e+000 211252 -1.2002e+006 -5.0397e+006  5.9939e+005 147778 211148,211226,211200
 4.0000e+000 211427 -6.5165e+005 -4.8834e+006 -4.4343e+005 147324 211326,211378,211352
 4.0000e+000 211404 -8.2413e+004 -4.7241e+006 -2.6105e+005 147324 211300,211378,211326
 4.0000e+000 211628  1.2817e+004 -1.2337e+006  3.9395e+003 147012 211452,211504,211478
 4.0000e+000 211605 -5.2696e+004 -1.6195e+006  9.4168e+003 147012 211452,211556,211504
 4.0000e+000 211582 -1.0633e+005 -1.6590e+006 -6.3749e+004 147012 211504,211556,211530
 4.0000e+000 211829 -7.9577e+005 -4.3023e+006  1.5232e+005 146636 211679,211757,211731
 4.0000e+000 211806 -1.0802e+005 -5.2705e+006 -1.1247e+005 146636 211653,211757,211679
 4.0000e+000 211783 -4.4859e+004 -4.1845e+006  1.3191e+005 146636 211679,211731,211705
 4.0000e+000 211981 -1.9344e+004 -2.3050e+006  1.4997e+005 146246 211880,211932,211906
 4.0000e+000 211958 -1.1871e+005 -1.7662e+006  7.2740e+004 146246 211854,211932,211880
 4.0000e+000 212133 -8.5381e+004 -1.1408e+006  1.0038e+004 145956 212006,212058,212032
 4.0000e+000 212110 -5.8297e+005 -1.6985e+006  3.7352e+005 145956 212006,212084,212058
 4.0000e+000 212285 -1.2150e+005 -2.0361e+006  5.0379e+004 145544 212184,212236,212210
 4.0000e+000 212262 -1.2617e+005 -2.1150e+006  5.2027e+004 145544 212158,212236,212184
 4.0000e+000 212486 -1.8734e+005 -3.9299e+006  2.2625e+005 144990 212362,212414,212388
 4.0000e+000 212463  5.0553e+004 -3.3534e+006  5.7985e+005 144990 212310,212414,212362
 4.0000e+000 212440 -7.4585e+005 -2.4770e+006  7.3449e+004 144990 212310,212362,212336
 4.0000e+000 212638 -4.4402e+005 -2.2404e+006  7.8903e+005 144600 212537,212589,212563
 4.0000e+000 212615 -3.4581e+005 -1.8527e+006  4.1557e+005 144600 212511,212589,212537
 4.0000e+000 212839 -2.4980e+005 -2.2872e+006 -1.4714e+005 144210 212689,212741,212715
 4.0000e+000 212816 -4.9979e+005 -1.9224e+006 -4.1398e+005 144210 212663,212741,212689
 4.0000e+000 212793 -4.2579e+005 -1.6534e+006 -3.7868e+005 144210 212663,212767,212741
 4.0000e+000 212991 -5.7613e+005 -2.8969e+006  1.3048e+005 143920 212890,212942,212916
 4.0000e+000 212968 -3.3423e+005 -3.5342e+006  1.0846e+005 143920 212864,212942,212890
 4.0000e+000 213143 -2.9144e+005 -2.2620e+006 -2.8318e+005 143480 213016,213068,213042
 4.0000e+000 213120  2.3323e+004 -2.7722e+006  2.2948e+005 143480 213016,213094,213068
 4.0000e+000 213295 -6.0222e+005 -2.1030e+006  6.4180e+004 142990 213194,213246,213220
 4.0000e+000 213272 -9.9412e+005 -1.7507e+006 -6.2647e+005 142990 213168,213246,213194
 4.0000e+000 213447 -4.6730e+005 -2.7601e+006  5.6306e+005 142600 213320,213372,213346
 4.0000e+000 213424 -1.0392e+006 -2.0322e+006  5.4524e+004 142600 213320,213398,213372
 4.0000e+000 213599 -2.8502e+005 -2.3758e+006  1.9297e+005 142260 213472,213524,213498
 4.0000e+000 213576 -3.4411e+005 -2.5897e+006  6.7795e+005 142260 213472,213550,213524
 4.0000e+000 213751 -6.7278e+005 -3.3307e+006  3.5101e+005 141870 213624,213676,213650
 4.0000e+000 213728 -1.2278e+006 -3.1374e+006 -3.1998e+004 141870 213624,213702,213676
 4.0000e+000 213903 -9.8052e+005 -3.3309e+006 -1.0991e+006 141530 213776,213828,213802
 4.0000e+000 213880 -6.8173e+005 -4.0506e+006 -3.3046e+002 141530 213776,213854,213828
 4.0000e+000 214055 -2.6829e+004 -8.8582e+005 -2.6799e+004 141218 213928,213980,213954
 4.0000e+000 214032  6.3192e+004 -1.3580e+006  8.8901e+004 141218 213928,214006,213980
 4.0000e+000 214207 -9.3805e+005 -9.7061e+005 -1.1087e+005 140928 214080,214132,214106
 4.0000e+000 214184 -8.7059e+005 -1.0287e+006  5.6176e+005 140928 214080,214158,214132
 4.0000e+000 214359 -3.3464e+005 -1.6494e+006 -4.8939e+004 140538 214232,214284,214258
 4.0000e+000 214336 -2.3571e+005 -3.2257e+006  1.0137e+006 140538 214232,214310,214284
 4.0000e+000 214560 -2.0256e+005 -2.2937e+006  1.5179e+005 140248 214384,214462,214410
 4.0000e+000 214537 -4.8571e+005 -2.0268e+006 -2.3510e+005 140248 214384,214488,214462
 4.0000e+000 214514 -3.2735e+005 -1.8462e+006  2.2746e+004 140248 214410,214462,214436
 4.0000e+000 214712 -9.8550e+004 -2.5201e+006  2.9074e+005 140000 214611,214663,214637
 4.0000e+000 214689 -3.1384e+005 -1.9910e+006  1.0685e+005 140000 214585,214663,214611
 4.0000e+000 214913 -4.0010e+005 -2.7113e+006 -5.1815e+005 139596 214737,214815,214763
 4.0000e+000 214890 -3.1660e+005 -1.7993e+006 -1.1535e+005 139596 214737,214841,214815
 4.0000e+000 214867  2.7062e+004 -3.5440e+006 -3.6827e+005 139596 214763,214815,214789
 4.0000e+000 215016  5.2670e+001 -5.3613e+004  1.1862e+002 139420 214938,214990,214964
 4.0000e+000 215168 -1.0518e+006 -3.7112e+006  4.8850e+005 139130 215067,215119,215093
 4.0000e+000 215145 -6.9070e+005 -3.6390e+006  1.4389e+005 139130 215041,215119,215067
 4.0000e+000 215320 -2.0506e+005 -3.2989e+006  9.5227e+005 138790 215219,215271,215245
 4.0000e+000 215297 -4.0889e+005 -2.4091e+006  7.7716e+005 138790 215193,215271,215219
 4.0000e+000 215472 -2.7210e+005 -2.6927e+006  1.4704e+005 138514 215345,215397,215371
 4.0000e+000 215449 -2.6328e+005 -2.6666e+006  1.2690e+005 138514 215345,215423,215397
 4.0000e+000 215624 -4.0621e+005 -3.7688e+006 -3.2961e+004 138174 215497,215549,215523
 4.0000e+000 215601 -2.4918e+005 -3.3570e+006 -1.6478e+005 138174 215497,215575,215549
 4.0000e+000 215776 -1.0032e+006 -2.6200e+006  5.4231e+005 137734 215649,215701,215675
 4.0000e+000 215753 -1.0334e+006 -2.3423e+006  7.1303e+003 137734 215649,215727,215701
 4.0000e+000 215977 -1.6856e+006 -4.3120e+006  8.0777e+005 137344 215801,215879,215827
 4.0000e+000 215954 -1.8598e+005 -4.3570e+006  9.1168e+005 137344 215801,215905,215879
 4.0000e+000 215931  1.2272e+006 -6.9091e+006 -9.1594e+005 137344 215827,215879,215853
 4.0000e+000 216129 -6.9470e+005 -3.4971e+006 -5.2021e+005 136940 216028,216080,216054
 4.0000e+000 216106 -5.7823e+005 -3.4853e+006 -3.4531e+005 136940 216002,216080,216028
 4.0000e+000 216330 -8.6921e+005 -3.5363e+006  7.0332e+005 136600 216180,216232,216206
 4.0000e+000 216307 -4.9381e+005 -3.3276e+006  2.7717e+005 136600 216154,216232,216180
 4.0000e+000 216284 -1.0995e+006 -2.7626e+006  1.0009e+005 136600 216154,216258,216232
 4.0000e+000 216482 -7.6757e+005 -2.8743e+006 -2.1208e+005 136260 216381,216433,216407
 4.0000e+000 216459 -8.8377e+005 -3.2593e+006 -3.3808e+005 136260 216355,216433,216381
 4.0000e+000 216634 -3.4233e+005 -2.1563e+006  4.6932e+005 135970 216533,216585,216559
 4.0000e+000 216611 -1.3825e+005 -2.4770e+006  5.9012e+005 135970 216507,216585,216533
 4.0000e+000 216835 -4.3014e+005 -3.3958e+006  4.2039e+005 135608 216685,216763,216711
 4.0000e+000 216812  1.4331e+005 -4.1693e+006 -8.4001e+005 135608 216659,216763,216685
 4.0000e+000 216789 -6.1506e+005 -3.4018e+006  2.0152e+005 135608 216711,216763,216737
 4.0000e+000 217036 -1.4167e+005 -1.6213e+006  3.1220e+005 135312 216912,216964,216938
 4.0000e+000 217013 -1.2386e+005 -2.1670e+006  5.0333e+005 135312 216886,216964,216912
 4.0000e+000 216990 -9.3353e+004 -2.8644e+006  2.4771e+005 135312 216860,216964,216886
 4.0000e+000 217237 -2.2875e+005 -2.2979e+006 -2.7069e+005 134908 217061,217139,217113
 4.0000e+000 217214 -7.0611e+005 -2.5202e+006  1.5697e+005 134908 217061,217165,217139
 4.0000e+000 217191 -8.7927e+005 -1.8053e+006 -3.3984e+005 134908 217061,217113,217087
 4.0000e+000 217438 -5.6503e+005 -5.3163e+006  3.8320e+005 134568 217288,217366,217314
 4.0000e+000 217415 -2.8171e+005 -5.3057e+006  5.0788e+005 134568 217262,217366,217288
 4.0000e+000 217392 -1.8042e+005 -4.1825e+006  1.2042e+005 134568 217314,217366,217340
 4.0000e+000 217590 -6.5344e+005 -2.2250e+006 -1.1521e+005 134106 217463,217515,217489
 4.0000e+000 217567 -6.1244e+005 -2.2261e+006 -1.0209e+005 134106 217463,217541,217515
 4.0000e+000 217791 -2.0359e+006 -9.2276e+006 -4.4936e+006 133816 217641,217693,217667
 4.0000e+000 217768 -1.7998e+005 -1.1092e+007  1.9044e+006 133816 217641,217719,217693
 4.0000e+000 217745 -2.3719e+006 -3.4238e+006  1.5564e+006 133816 217615,217719,217641
 4.0000e+000 217992 -9.2045e+005 -3.0636e+006 -9.5815e+004 133355 217842,217920,217894
 4.0000e+000 217969 -5.0064e+005 -4.1784e+006 -6.8661e+005 133355 217816,217920,217842
 4.0000e+000 217946 -7.5339e+005 -3.3746e+006  4.9493e+005 133355 217842,217894,217868
 4.0000e+000 218193 -1.1928e+006 -3.8620e+006  6.1075e+005 132851 218017,218095,218069
 4.0000e+000 218170 -1.2774e+006 -3.4973e+006 -3.4621e+005 132851 218017,218121,218095
 4.0000e+000 218147  1.5434e+005 -4.9037e+006  2.0068e+005 132851 218017,218069,218043
 4.0000e+000 218345 -5.3231e+005 -2.5640e+006  1.8420e+004 132511 218244,218296,218270
 4.0000e+000 218322 -7.6295e+005 -2.7333e+006 -2.0111e+005 132511 218218,218296,218244
 4.0000e+000 218497 -1.4263e+006 -6.5879e+006  7.6053e+004 132235 218396,218448,218422
 4.0000e+000 218474 -1.1070e+006 -4.3246e+006  6.7110e+005 132235 218370,218448,218396
 4.0000e+000 218698 -2.1894e+005 -2.6630e+006  4.3592e+005 131945 218574,218626,218600
 4.0000e+000 218675 -6.2706e+005 -3.9424e+006  1.1590e+005 131945 218522,218626,218574
 4.0000e+000 218652 -1.0085e+005 -3.8680e+006 -7.3569e+004 131945 218522,218574,218548
 4.0000e+000 218850 -2.3387e+005 -4.9592e+006 -5.5087e+005 131655 218723,218775,218749
 4.0000e+000 218827 -7.3611e+005 -4.8216e+006  2.8883e+004 131655 218723,218801,218775
 4.0000e+000 218953 -4.2027e+005 -2.9125e+006 -1.8241e+005 131215 218875,218927,218901
 4.0000e+000 219105 -6.8895e+005 -4.0685e+006 -4.6021e+005 130875 218978,219030,219004
 4.0000e+000 219082 -5.9447e+005 -3.3093e+006 -4.3026e+005 130875 218978,219056,219030
 4.0000e+000 219306 -3.1886e+005 -3.6670e+006 -8.0778e+004 130429 219156,219234,219208
 4.0000e+000 219283 -3.0101e+005 -3.3818e+006 -1.7662e+003 130429 219130,219234,219156
 4.0000e+000 219260 -9.3111e+005 -3.8770e+006  5.6483e+005 130429 219156,219208,219182
 4.0000e+000 219507 -3.5535e+005 -2.2101e+006  2.9958e+005 130025 219383,219435,219409
 4.0000e+000 219484 -5.4715e+005 -2.8013e+006  1.7540e+005 130025 219331,219435,219383
 4.0000e+000 219461 -4.5852e+005 -2.7627e+006  1.4255e+005 130025 219331,219383,219357
 4.0000e+000 219659 -1.1012e+006 -5.2750e+006 -1.4778e+006 129685 219558,219610,219584
 4.0000e+000 219636 -9.4496e+005 -5.2101e+006 -1.4280e+006 129685 219532,219610,219558
 4.0000e+000 219860 -6.5377e+005 -3.5188e+006  1.5966e+005 129395 219710,219788,219762
 4.0000e+000 219837 -8.6995e+005 -3.7561e+006  1.2164e+004 129395 219684,219788,219710
 4.0000e+000 219814 -3.0979e+005 -4.2647e+006 -3.9817e+005 129395 219710,219762,219736
 4.0000e+000 220061 -3.3450e+003 -2.4860e+006  1.5215e+004 128991 219937,219989,219963
 4.0000e+000 220038 -2.4713e+005 -2.7510e+006 -1.3793e+005 128991 219885,219989,219937
 4.0000e+000 220015 -2.1679e+005 -2.5570e+006 -1.9659e+005 128991 219885,219937,219911
 4.0000e+000 220262 -2.0157e+005 -2.3521e+006 -2.7908e+005 128701 220086,220164,220112
 4.0000e+000 220239 -2.0217e+005 -2.6067e+006 -1.7056e+005 128701 220086,220190,220164
 4.0000e+000 220216 -1.0447e+005 -2.0499e+006  2.2092e+005 128701 220112,220164,220138
 4.0000e+000 220463 -3.7607e+005 -4.2029e+006  7.6149e+005 128297 220339,220391,220365
 4.0000e+000 220440 -2.4288e+005 -5.0315e+006  4.6950e+005 128297 220313,220391,220339
 4.0000e+000 220417 -1.5578e+005 -5.2083e+006  8.4202e+004 128297 220287,220391,220313
 4.0000e+000 220615 -3.6266e+004 -6.1118e+006 -3.8396e+005 128007 220488,220540,220514
 4.0000e+000 220592 -6.9303e+005 -4.3563e+006 -6.0042e+005 128007 220488,220566,220540
 4.0000e+000 220767  6.9449e+004 -2.1175e+006 -3.9308e+005 127567 220640,220692,220666
 4.0000e+000 220744 -1.4925e+005 -1.5718e+006 -2.9320e+005 127567 220640,220718,220692
 4.0000e+000 220919 -1.2172e+005 -4.5560e+006  1.9246e+005 127163 220792,220844,220818
 4.0000e+000 220896  3.9505e+005 -5.2862e+006  8.9113e+005 127163 220792,220870,220844
 4.0000e+000 221071 -5.4013e+005 -2.6360e+006  2.7098e+005 126915 220970,221022,220996
 4.0000e+000 221048 -5.1768e+005 -2.5614e+006  3.0569e+005 126915 220944,221022,220970
 4.0000e+000 221272 -1.2759e+006 -5.4832e+006  3.2630e+004 126461 221122,221174,221148
 4.0000e+000 221249 -8.7455e+005 -5.4200e+006 -6.8634e+004 126461 221122,221200,221174
 4.0000e+000 221226 -2.3030e+005 -5.2944e+006  7.5750e+004 126461 221096,221200,221122
 4.0000e+000 221375  2.6810e+000 -1.4859e+005  1.9312e+002 126213 221297,221349,221323
 4.0000e+000 221478  1.6018e+002 -4.2156e+005  2.8198e+002 125766 221400,221452,221426
 4.0000e+000 221679 -3.1584e+005 -2.2871e+006 -4.5178e+005 125212 221503,221555,221529
 4.0000e+000 221656 -3.5600e+005 -2.8708e+006 -6.4022e+005 125212 221503,221581,221555
 4.0000e+000 221633 -6.5362e+005 -3.0416e+006 -5.1356e+005 125212 221503,221607,221581
 4.0000e+000 221929 -3.1033e+005 -1.8684e+006  8.6136e+004 124872 221782,221834,221808
 4.0000e+000 221906 -4.9816e+005 -1.8404e+006  3.3541e+005 124872 221756,221834,221782
 4.0000e+000 221883 -4.7281e+005 -2.3154e+006  4.3847e+005 124872 221704,221834,221756
 4.0000e+000 221860 -4.6343e+005 -2.1496e+006  4.9034e+005 124872 221704,221756,221730
 4.0000e+000 222130 -8.2256e+005 -3.8473e+006  6.2549e+003 124582 221980,222058,222006
 4.0000e+000 222107 -1.0774e+006 -4.4911e+006 -6.1851e+005 124582 221954,222058,221980
 4.0000e+000 222084 -1.2778e+006 -4.7420e+006 -3.8164e+005 124582 222006,222058,222032
 4.0000e+000 222282 -9.6246e+005 -5.6863e+006 -8.8524e+005 124192 222181,222233,222207
 4.0000e+000 222259 -5.3519e+005 -5.7424e+006 -1.0391e+006 124192 222155,222233,222181
 4.0000e+000 222483 -3.0351e+005 -3.2799e+006 -1.4231e+004 123702 222333,222385,222359
 4.0000e+000 222460 -2.0710e+005 -3.2055e+006  7.5278e+004 123702 222333,222411,222385
 4.0000e+000 222437 -1.3080e+005 -2.4443e+006  5.1246e+004 123702 222307,222411,222333
 4.0000e+000 222635 -2.1999e+005 -3.0921e+006 -3.4122e+005 123312 222508,222560,222534
 4.0000e+000 222612  4.1945e+005 -5.1931e+006 -3.9900e+005 123312 222508,222586,222560
 4.0000e+000 222787 -8.4853e+005 -5.1649e+006 -1.5128e+005 122858 222686,222738,222712
 4.0000e+000 222764 -5.4364e+005 -3.2204e+006 -7.1922e+005 122858 222660,222738,222686
 4.0000e+000 222939 -6.2579e+005 -4.5013e+006  2.9627e+005 122568 222812,222864,222838
 4.0000e+000 222916 -1.5236e+005 -2.3692e+006  4.1989e+005 122568 222812,222890,222864
 4.0000e+000 223091 -7.5892e+005 -3.1424e+006 -1.8656e+005 122392 222964,223016,222990
 4.0000e+000 223068  2.2070e+005 -3.9147e+006  4.9739e+005 122392 222964,223042,223016
 4.0000e+000 223292 -5.4654e+005 -5.2365e+006 -1.3638e+005 121852 223142,223220,223194
 4.0000e+000 223269 -5.0854e+005 -5.7205e+006 -4.5067e+005 121852 223116,223220,223142
 4.0000e+000 223246 -1.8700e+005 -5.0162e+006 -4.5989e+005 121852 223142,223194,223168
 4.0000e+000 223493 -1.2088e+006 -4.1087e+006 -4.0229e+004 121406 223343,223395,223369
 4.0000e+000 223470 -3.1848e+005 -4.3364e+006  1.7817e+005 121406 223343,223421,223395
 4.0000e+000 223447 -8.9653e+005 -4.1646e+006  7.2760e+005 121406 223317,223421,223343
 4.0000e+000 223645 -7.7801e+004 -5.5459e+006  1.6771e+005 121002 223544,223596,223570
 4.0000e+000 223622 -6.4347e+005 -3.7156e+006  2.8726e+005 121002 223518,223596,223544
 4.0000e+000 223846 -6.2065e+005 -3.8189e+006 -1.3745e+005 120662 223670,223748,223696
 4.0000e+000 223823 -4.6042e+005 -3.5650e+006 -6.6731e+005 120662 223670,223774,223748
 4.0000e+000 223800 -1.6195e+005 -3.8939e+006 -2.4289e+005 120662 223696,223748,223722
 4.0000e+000 224047 -8.7906e+005 -3.3939e+006 -2.7625e+005 120222 223897,223949,223923
 4.0000e+000 224024 -5.2855e+005 -3.3506e+006 -2.8777e+005 120222 223871,223949,223897
 4.0000e+000 224001  1.7353e+004 -4.5689e+006 -3.1256e+004 120222 223871,223975,223949
 4.0000e+000 224248 -1.7593e+005 -2.7695e+006 -3.2419e+005 119875 224124,224176,224150
 4.0000e+000 224225 -5.6698e+005 -4.5631e+006 -4.8363e+005 119875 224098,224176,224124
 4.0000e+000 224202 -5.2457e+005 -3.2129e+006 -4.2202e+005 119875 224072,224176,224098
 4.0000e+000 224449 -5.1273e+005 -3.1230e+006  1.7255e+005 119677 224325,224377,224351
 4.0000e+000 224426 -6.5675e+005 -3.6882e+006 -4.5661e+004 119677 224299,224377,224325
 4.0000e+000 224403 -4.5439e+005 -3.6163e+006  1.1277e+005 119677 224273,224377,224299
 4.0000e+000 224552 -9.2135e+005 -3.4069e+006  1.9669e+005 119273 224474,224526,224500
 4.0000e+000 224704 -1.6077e+006 -5.9414e+006 -7.3008e+005 118983 224603,224655,224629
 4.0000e+000 224681 -1.1627e+006 -6.0454e+006 -7.7287e+005 118983 224577,224655,224603
 4.0000e+000 224856 -1.1843e+005 -5.6620e+006 -3.6605e+005 118529 224755,224807,224781
 4.0000e+000 224833  4.0979e+004 -6.2793e+006 -5.0906e+005 118529 224729,224807,224755
 4.0000e+000 225008 -2.2084e+005 -3.6499e+006  6.4874e+004 118353 224881,224933,224907
 4.0000e+000 224985 -3.0084e+005 -3.1232e+006  1.4296e+005 118353 224881,224959,224933
 4.0000e+000 225209 -6.7043e+005 -3.8562e+006  2.6676e+004 117949 225059,225137,225111
 4.0000e+000 225186 -6.4062e+005 -3.8321e+006  7.4859e+004 117949 225033,225137,225059
 4.0000e+000 225163 -4.6599e+005 -4.4065e+006  2.1625e+005 117949 225059,225111,225085
 4.0000e+000 225410 -4.7699e+005 -4.1357e+006 -2.3415e+005 117559 225260,225338,225312
 4.0000e+000 225387 -6.7552e+005 -4.1667e+006 -1.8493e+005 117559 225234,225338,225260
 4.0000e+000 225364 -3.6266e+005 -3.5269e+006 -8.9514e+005 117559 225260,225312,225286
 4.0000e+000 225611 -1.2399e+006 -6.3893e+006 -3.1332e+006 117361 225461,225513,225487
 4.0000e+000 225588  8.7568e+005 -6.4099e+006  2.8648e+004 117361 225461,225539,225513
 4.0000e+000 225565 -1.8910e+006 -2.4596e+006  2.5202e+006 117361 225435,225539,225461
 4.0000e+000 225812 -3.7084e+005 -3.3715e+006  2.5114e+005 116900 225636,225714,225662
 4.0000e+000 225789  2.9184e+004 -3.4661e+006  9.3831e+004 116900 225636,225740,225714
 4.0000e+000 225766 -4.7304e+005 -3.3042e+006 -1.1161e+005 116900 225662,225714,225688
 4.0000e+000 225964 -3.8702e+005 -3.6894e+006  3.0925e+005 116560 225837,225889,225863
 4.0000e+000 225941 -1.2915e+005 -3.7593e+006  2.1623e+005 116560 225837,225915,225889
 4.0000e+000 226165 -2.3055e+005 -3.2455e+006 -2.2275e+005 116106 226015,226093,226041
 4.0000e+000 226142  8.4175e+004 -4.1726e+006 -9.7423e+005 116106 225989,226093,226015
 4.0000e+000 226119 -1.0767e+006 -3.1798e+006 -6.2268e+005 116106 226041,226093,226067
 4.0000e+000 226268 -8.9378e+005 -4.0214e+006  3.6197e+005 115716 226190,226242,226216
 4.0000e+000 226420 -5.9564e+005 -4.1098e+006  9.3381e+005 115376 226293,226345,226319
 4.0000e+000 226397 -5.1667e+005 -4.0006e+006  7.7404e+005 115376 226293,226371,226345
 4.0000e+000 226621 -1.2838e+005 -3.6910e+006 -1.6268e+005 114972 226497,226549,226523
 4.0000e+000 226598 -6.8865e+005 -4.7663e+006 -5.9192e+005 114972 226445,226549,226497
 4.0000e+000 226575 -5.9384e+005 -3.6250e+006 -8.5740e+004 114972 226445,226497,226471
 4.0000e+000 226773 -5.8222e+005 -3.9706e+006 -2.7388e+005 114670 226646,226698,226672
 4.0000e+000 226750 -1.5018e+005 -4.3007e+006 -2.2480e+005 114670 226646,226724,226698
 4.0000e+000 226974  9.7354e+004 -2.3578e+006 -4.2313e+003 114082 226798,226850,226824
 4.0000e+000 226951 -7.6543e+004 -1.7317e+006 -1.9992e+005 114082 226798,226902,226850
 4.0000e+000 226928 -2.0041e+005 -2.0724e+006 -9.7052e+004 114082 226850,226902,226876
 4.0000e+000 227175 -5.0872e+005 -3.7105e+006  3.1297e+005 113678 226999,227051,227025
 4.0000e+000 227152 -7.1827e+005 -4.2264e+006  1.0980e+005 113678 226999,227077,227051
 4.0000e+000 227129 -4.3249e+005 -5.1961e+006 -2.0312e+005 113678 226999,227103,227077
 4.0000e+000 227425 -2.3503e+004 -3.5457e+006 -5.7571e+005 113274 227226,227278,227252
 4.0000e+000 227402 -6.1753e+005 -3.7251e+006  3.4147e+004 113274 227226,227330,227278
 4.0000e+000 227379  7.7774e+004 -5.5641e+006 -2.5557e+005 113274 227200,227330,227226
 4.0000e+000 227356 -8.7751e+005 -5.1607e+006  3.0536e+005 113274 227278,227330,227304
 4.0000e+000 227626  3.1682e+004 -3.0771e+006 -6.1224e+005 112934 227502,227554,227528
 4.0000e+000 227603  5.3273e+003 -2.1073e+006 -1.7029e+005 112934 227450,227554,227502
 4.0000e+000 227580 -7.9009e+005 -3.5720e+006 -7.9589e+005 112934 227450,227502,227476
 4.0000e+000 227876 -3.0939e+005 -2.6509e+006  7.9762e+004 112437 227677,227755,227703
 4.0000e+000 227853 -5.9133e+005 -2.7680e+006  3.9576e+005 112437 227677,227781,227755
 4.0000e+000 227830 -3.7172e+005 -2.2449e+006  3.2349e+005 112437 227703,227755,227729
 4.0000e+000 227807 -4.0743e+005 -3.0439e+006  3.2469e+005 112437 227651,227781,227677
 4.0000e+000 228126 -4.7340e+005 -3.9391e+006  2.7791e+005 112041 227927,228005,227953
 4.0000e+000 228103 -1.7544e+005 -4.6898e+006 -1.4595e+005 112041 227927,228031,228005
 4.0000e+000 228080 -3.3955e+005 -4.6546e+006  3.4928e+005 112041 227953,228005,227979
 4.0000e+000 228057 -2.4343e+005 -3.3726e+006 -1.5560e+005 112041 227901,228031,227927
 4.0000e+000 228327 -7.7539e+005 -4.5143e+006 -6.8107e+005 111693 228151,228203,228177
 4.0000e+000 228304 -7.5811e+005 -2.8695e+006 -8.1230e+005 111693 228151,228229,228203
 4.0000e+000 228281  1.1107e+004 -3.7723e+006 -1.5356e+005 111693 228151,228255,228229
 4.0000e+000 228479 -7.7172e+005 -3.5886e+006 -1.4028e+006 111253 228352,228404,228378
 4.0000e+000 228456 -9.9476e+005 -3.6732e+006 -9.8262e+005 111253 228352,228430,228404
 4.0000e+000 228582  7.7015e+000 -2.9042e+004 -1.6526e+002 110906 228504,228556,228530
 4.0000e+000 228783 -6.8993e+005 -3.8045e+006  2.7646e+005 110416 228633,228711,228659
 4.0000e+000 228760 -4.8456e+005 -2.4744e+006  1.6994e+005 110416 228607,228711,228633
 4.0000e+000 228737 -5.0407e+005 -3.2061e+006  1.5239e+005 110416 228659,228711,228685
 4.0000e+000 228935 -6.5869e+004 -3.1936e+006 -4.6617e+005 110012 228808,228860,228834
 4.0000e+000 228912 -6.8510e+004 -3.2958e+006 -4.7561e+005 110012 228808,228886,228860
 4.0000e+000 229087 -5.4679e+005 -4.4747e+006 -8.4779e+003 109672 228960,229012,228986
 4.0000e+000 229064 -1.2120e+006 -3.6144e+006 -1.8480e+005 109672 228960,229038,229012
 4.0000e+000 229190 -2.3117e+005 -2.4456e+006  4.9995e+005 109332 229112,229164,229138
 4.0000e+000 229391 -1.6652e+005 -1.2502e+006 -8.4474e+003 109156 229267,229319,229293
 4.0000e+000 229368 -2.4969e+005 -2.1686e+006 -4.6507e+002 109156 229215,229319,229267
 4.0000e+000 229345 -2.6131e+005 -1.9292e+006  3.5306e+005 109156 229215,229267,229241
 4.0000e+000 229543 -5.7776e+005 -4.9219e+006  5.1345e+005 108752 229416,229468,229442
 4.0000e+000 229520 -5.1542e+005 -5.1504e+006  5.8868e+005 108752 229416,229494,229468
 4.0000e+000 229744 -1.0322e+006 -4.9093e+006 -1.4367e+005 108198 229594,229646,229620
 4.0000e+000 229721 -9.6516e+005 -4.9090e+006  5.0190e+004 108198 229594,229672,229646
 4.0000e+000 229698 -1.0288e+006 -5.8155e+006 -4.8432e+005 108198 229568,229672,229594
 4.0000e+000 229847 -3.1872e+005 -1.8590e+006 -2.7390e+005 107758 229769,229821,229795
 4.0000e+000 230048 -9.4434e+005 -3.5905e+006 -6.8871e+005 107468 229898,229950,229924
 4.0000e+000 230025 -4.6230e+005 -3.1397e+006  1.9834e+004 107468 229872,229950,229898
 4.0000e+000 230002 -5.4094e+005 -3.1875e+006  5.7495e+004 107468 229872,229976,229950
 4.0000e+000 230298 -3.0410e+005 -3.0707e+006  1.7018e+005 107121 230099,230203,230177
 4.0000e+000 230275 -7.6396e+005 -2.8045e+006 -7.6540e+004 107121 230073,230203,230099
 4.0000e+000 230252 -6.9050e+005 -3.1580e+006  1.8459e+005 107121 230099,230177,230151
 4.0000e+000 230229 -5.0058e+005 -3.0507e+006  1.0271e+005 107121 230099,230151,230125
 4.0000e+000 230450  2.6860e+005 -3.4204e+006 -2.7082e+005 106823 230349,230401,230375
 4.0000e+000 230427 -1.5898e+005 -1.4203e+006  1.5276e+005 106823 230323,230401,230349
 4.0000e+000 230602 -1.0719e+006 -3.0232e+006 -2.8030e+005 106533 230501,230553,230527
 4.0000e+000 230579 -8.4913e+005 -3.5900e+006 -1.0095e+006 106533 230475,230553,230501
 4.0000e+000 230803 -7.2271e+005 -2.2989e+006  1.8704e+005 106029 230679,230731,230705
 4.0000e+000 230780 -1.1136e+006 -3.8185e+006  7.9303e+004 106029 230653,230731,230679
 4.0000e+000 230757 -6.1078e+005 -3.6892e+006  3.0967e+005 106029 230627,230731,230653
 4.0000e+000 231004 -4.1031e+004 -3.1389e+006 -4.3111e+005 105689 230854,230906,230880
 4.0000e+000 230981 -1.7916e+005 -2.8996e+006 -1.6038e+005 105689 230828,230906,230854
 4.0000e+000 230958 -6.6903e+005 -2.7929e+006 -2.5257e+005 105689 230828,230932,230906
 4.0000e+000 231156 -5.1252e+005 -2.1930e+006  5.5305e+005 105377 231055,231107,231081
 4.0000e+000 231133  5.9277e+005 -6.8989e+006 -7.5232e+005 105377 231029,231107,231055
 4.0000e+000 231406  2.1344e+005 -3.8832e+006  3.0752e+005 104858 231207,231259,231233
 4.0000e+000 231383 -9.9523e+005 -3.8128e+006 -1.2046e+005 104858 231207,231311,231259
 4.0000e+000 231360 -6.3626e+005 -5.6637e+006 -4.8834e+005 104858 231259,231311,231285
 4.0000e+000 231337 -2.5352e+005 -4.9705e+006 -2.9008e+005 104858 231181,231311,231207
 4.0000e+000 231558 -3.4500e+005 -1.4672e+006  4.9618e+005 104418 231457,231509,231483
 4.0000e+000 231535 -1.4089e+005 -1.4157e+006  5.3009e+005 104418 231431,231509,231457
 4.0000e+000 231710 -6.5976e+005 -2.5923e+006 -1.9856e+005 103978 231583,231635,231609
 4.0000e+000 231687 -6.7380e+005 -2.0535e+006 -2.4100e+005 103978 231583,231661,231635
 4.0000e+000 231862 -4.0925e+004 -3.4251e+005 -7.6123e+004 103588 231761,231813,231787
 4.0000e+000 231839 -1.8771e+005 -8.6201e+005 -1.4857e+005 103588 231735,231813,231761
 4.0000e+000 232014 -4.8098e+005 -3.6947e+006 -9.0828e+005 103248 231887,231939,231913
 4.0000e+000 231991 -1.3091e+005 -4.6581e+006 -1.0443e+006 103248 231887,231965,231939
 4.0000e+000 232215 -6.3433e+005 -3.2206e+006  2.7760e+004 102844 232039,232117,232065
 4.0000e+000 232192 -4.5093e+005 -3.5688e+006 -4.6610e+005 102844 232039,232143,232117
 4.0000e+000 232169 -4.8652e+005 -3.1925e+006  4.2460e+003 102844 232065,232117,232091
 4.0000e+000 232416 -1.3088e+006 -4.8512e+006  2.5039e+005 102554 232240,232318,232292
 4.0000e+000 232393 -1.9334e+005 -5.5015e+006  6.2902e+005 102554 232240,232344,232318
 4.0000e+000 232370 -1.2092e+006 -5.0727e+006  6.3890e+004 102554 232240,232292,232266
 4.0000e+000 232568 -7.4527e+005 -3.1751e+006  6.7153e+005 102100 232441,232493,232467
 4.0000e+000 232545 -4.7335e+005 -2.9364e+006  3.1685e+005 102100 232441,232519,232493
 4.0000e+000 232769 -3.9489e+005 -9.0687e+005  1.6829e+005 101596 232645,232697,232671
 4.0000e+000 232746 -6.7401e+005 -1.9523e+006 -9.0387e+004 101596 232593,232697,232645
 4.0000e+000 232723 -1.6298e+005 -2.5399e+006 -3.8992e+005 101596 232593,232645,232619
 4.0000e+000 232921 -2.4804e+004 -1.2782e+006 -7.9908e+003 101420 232794,232846,232820
 4.0000e+000 232898 -9.2616e+003 -1.0628e+006  1.1728e+004 101420 232794,232872,232846
 4.0000e+000 233073 -7.0148e+005 -3.1362e+006 -1.6395e+005 101023 232946,232998,232972
 4.0000e+000 233050 -2.6517e+005 -3.6893e+006  2.4196e+005 101023 232946,233024,232998
 4.0000e+000 233225 -2.6788e+005 -4.6988e+006 -1.9795e+005 100661 233098,233150,233124
 4.0000e+000 233202 -2.7592e+005 -4.6422e+006 -2.0314e+005 100661 233098,233176,233150
 4.0000e+000 233426 -1.0995e+006 -3.8913e+006 -5.6118e+005 100265 233276,233328,233302
 4.0000e+000 233403 -5.5143e+005 -3.5599e+006 -3.3702e+004 100265 233276,233354,233328
 4.0000e+000 233380 -7.2890e+005 -4.3766e+006 -2.6982e+005 100265 233250,233354,233276
 4.0000e+000 233578 -6.7158e+005 -1.3719e+006 -1.0026e+006 100032 233451,233503,233477
 4.0000e+000 233555 -2.3557e+005 -1.3243e+006 -4.0342e+005 100032 233451,233529,233503
 4.0000e+000 233681 -2.9797e+005 -1.4339e+006  7.0450e+004 99742 233603,233655,233629
 4.0000e+000 233784 -7.2074e+005 -2.9094e+006 -2.4133e+003 99402 233706,233758,233732
 4.0000e+000 233936 -4.9759e+005 -2.4457e+006  4.2514e+005 99062 233835,233887,233861
 4.0000e+000 233913 -4.2768e+005 -2.0457e+006 -5.8000e+004 99062 233809,233887,233835
 4.0000e+000 234088 -3.1237e+005 -2.2157e+006  4.3397e+004 98772 233987,234039,234013
 4.0000e+000 234065 -4.4479e+005 -2.2500e+006  5.5931e+005 98772 233961,234039,233987
 4.0000e+000 234240 -9.1116e+004 -1.4651e+006  3.9474e+005 98160 234139,234191,234165
 4.0000e+000 234217 -1.1689e+005 -1.4359e+006  2.8377e+005 98160 234113,234191,234139
 4.0000e+000 234441 -2.4856e+005 -2.1673e+006  1.6812e+005 97820 234317,234369,234343
 4.0000e+000 234418 -3.7257e+005 -2.6429e+006  7.8906e+004 97820 234291,234369,234317
 4.0000e+000 234395 -4.8802e+005 -2.7170e+006  1.5989e+004 97820 234265,234369,234291
 4.0000e+000 234593 -5.1717e+005 -2.3460e+006 -2.3832e+005 97366 234466,234518,234492
 4.0000e+000 234570 -3.4757e+005 -3.4306e+006 -2.3059e+005 97366 234466,234544,234518
 4.0000e+000 234794 -6.9987e+005 -2.5695e+006 -2.0016e+005 96976 234618,234670,234644
 4.0000e+000 234771 -6.5097e+005 -3.5235e+006  3.8863e+004 96976 234618,234722,234670
 4.0000e+000 234748 -6.9009e+005 -2.7341e+006 -2.5534e+005 96976 234670,234722,234696
 4.0000e+000 234946 -8.2009e+005 -2.3812e+006  5.3286e+005 96568 234845,234897,234871
 4.0000e+000 234923 -8.7172e+005 -2.6145e+006  5.4718e+005 96568 234819,234897,234845
 4.0000e+000 235196 -2.4074e+005 -2.3249e+006 -3.7792e+005 96216 234997,235075,235049
 4.0000e+000 235173 -8.1081e+004 -2.9539e+006 -1.6791e+005 96216 234997,235101,235075
 4.0000e+000 235150 -3.3964e+005 -2.5299e+006 -2.6043e+005 96216 234997,235049,235023
 4.0000e+000 235127 -2.5993e+004 -2.7923e+006  2.0626e+005 96216 234971,235101,234997
 4.0000e+000 235348 -3.0609e+005 -1.6071e+006 -4.4159e+005 95863 235247,235299,235273
 4.0000e+000 235325 -2.5515e+005 -1.6051e+006 -3.6008e+005 95863 235221,235299,235247
 4.0000e+000 235500 -8.0168e+005 -2.9752e+006 -4.1793e+005 95339 235373,235425,235399
 4.0000e+000 235477 -8.0882e+005 -3.3940e+006  1.6066e+005 95339 235373,235451,235425
 4.0000e+000 235701 -2.1475e+004 -2.9081e+006  5.0425e+005 95023 235525,235577,235551
 4.0000e+000 235678 -2.3526e+005 -2.0448e+006 -1.5833e+005 95023 235525,235629,235577
 4.0000e+000 235655 -7.6080e+005 -2.6966e+006  1.8949e+005 95023 235577,235629,235603
 4.0000e+000 235853 -1.0760e+005 -3.8142e+006  6.8589e+005 94671 235726,235778,235752
 4.0000e+000 235830 -5.1819e+005 -2.6753e+006 -1.6888e+005 94671 235726,235804,235778
 4.0000e+000 236005 -1.1348e+006 -3.0529e+006 -2.3779e+005 94261 235904,235956,235930
 4.0000e+000 235982 -1.0716e+006 -3.3184e+006 -4.9111e+005 94261 235878,235956,235904
 4.0000e+000 236206 -9.9240e+005 -1.7453e+006  6.6782e+005 93853 236056,236134,236082
 4.0000e+000 236183 -5.4630e+005 -1.6691e+006 -8.1712e+004 93853 236030,236134,236056
 4.0000e+000 236160 -6.8329e+005 -2.7077e+006  5.3748e+005 93853 236082,236134,236108
 4.0000e+000 236407 -1.1786e+006 -2.9126e+006 -9.6900e+004 93557 236257,236309,236283
 4.0000e+000 236384 -9.2903e+005 -2.8434e+006 -5.8021e+004 93557 236231,236309,236257
 4.0000e+000 236361 -4.5308e+005 -3.4810e+006  8.7998e+004 93557 236231,236335,236309
 4.0000e+000 236559 -3.9512e+005 -1.7506e+006 -6.9208e+004 93149 236432,236484,236458
 4.0000e+000 236536 -4.3481e+005 -1.5142e+006 -1.6437e+005 93149 236432,236510,236484
 4.0000e+000 236711 -3.3555e+005 -2.1664e+006  3.8859e+005 92853 236584,236636,236610
 4.0000e+000 236688 -9.4191e+004 -2.0796e+006  2.7520e+005 92853 236584,236662,236636
 4.0000e+000 236912 -2.0104e+005 -3.3429e+006  5.4315e+005 92501 236736,236788,236762
 4.0000e+000 236889 -4.2138e+005 -3.3190e+006  5.4906e+005 92501 236736,236840,236788
 4.0000e+000 236866 -2.0817e+005 -2.4667e+006  5.0073e+005 92501 236788,236840,236814
 4.0000e+000 237113 -4.2469e+004 -1.8767e+006  6.9816e+005 92291 236963,237041,237015
 4.0000e+000 237090 -1.7632e+005 -1.7157e+006  4.7721e+005 92291 236937,237041,236963
 4.0000e+000 237067 -1.0867e+005 -2.0244e+006  4.6907e+005 92291 236963,237015,236989
 4.0000e+000 237265 -9.9724e+005 -2.4095e+006 -4.2316e+005 91871 237138,237190,237164
 4.0000e+000 237242 -8.5042e+005 -2.2684e+006 -2.8457e+005 91871 237138,237216,237190
 4.0000e+000 237368 -1.3386e+002 -2.1351e+006  1.0675e+002 91581 237290,237342,237316
 4.0000e+000 237520 -2.3863e+005 -1.6683e+006  5.3670e+005 91184 237419,237471,237445
 4.0000e+000 237497 -1.1637e+005 -2.2557e+006  8.7021e+003 91184 237393,237471,237419
 4.0000e+000 237672 -7.6897e+005 -2.2836e+006 -9.7375e+004 90894 237545,237597,237571
 4.0000e+000 237649 -6.4021e+005 -2.6154e+006  2.8768e+004 90894 237545,237623,237597
 4.0000e+000 237873 -3.4285e+005 -2.7139e+006  7.2524e+003 90490 237749,237801,237775
 4.0000e+000 237850 -1.3978e+005 -2.9950e+006  2.1251e+005 90490 237723,237801,237749
 4.0000e+000 237827 -6.3757e+005 -3.1240e+006 -4.0581e+005 90490 237697,237801,237723
 4.0000e+000 238074 -6.2655e+005 -3.8380e+006 -1.2306e+005 90100 237898,237976,237950
 4.0000e+000 238051 -7.9145e+005 -4.0699e+006  1.8986e+005 90100 237898,238002,237976
 4.0000e+000 238028 -3.3787e+005 -3.7750e+006 -3.4551e+005 90100 237898,237950,237924
 4.0000e+000 238275 -7.1412e+005 -3.8663e+006  2.5633e+005 89696 238125,238177,238151
 4.0000e+000 238252 -6.6135e+005 -3.4148e+006 -5.7596e+005 89696 238099,238177,238125
 4.0000e+000 238229 -1.1858e+006 -3.9482e+006 -2.1922e+005 89696 238099,238203,238177
 4.0000e+000 238427 -1.5011e+005 -2.4506e+006  2.6023e+004 89206 238326,238378,238352
 4.0000e+000 238404 -1.8679e+005 -2.5024e+006 -3.5732e+002 89206 238300,238378,238326
 4.0000e+000 238579 -1.3105e+006 -4.4692e+006  8.7012e+005 88908 238452,238504,238478
 4.0000e+000 238556 -7.7828e+005 -4.5519e+006  1.3027e+006 88908 238452,238530,238504
 4.0000e+000 238682  3.8398e+001 -1.5275e+005  9.9344e+001 88568 238604,238656,238630
 4.0000e+000 238883 -4.2698e+005 -2.4551e+006  3.0390e+005 88278 238733,238811,238785
 4.0000e+000 238860 -5.3220e+004 -3.0332e+006  4.4108e+005 88278 238707,238811,238733
 4.0000e+000 238837 -1.2817e+005 -2.3620e+006  3.6381e+005 88278 238733,238785,238759
 4.0000e+000 239035 -3.4794e+005 -3.8926e+006 -1.0195e+005 87988 238908,238960,238934
 4.0000e+000 239012 -7.7885e+005 -3.2770e+006  6.1185e+005 87988 238908,238986,238960
 4.0000e+000 239138 -8.2977e+005 -2.8539e+006 -3.2565e+005 87648 239060,239112,239086
 4.0000e+000 239339 -9.8466e+005 -3.2777e+006 -7.0872e+005 87358 239163,239215,239189
 4.0000e+000 239316 -1.2623e+006 -3.5656e+006  3.3229e+005 87358 239163,239241,239215
 4.0000e+000 239293 -4.0329e+005 -2.4256e+006 -2.9951e+005 87358 239163,239267,239241
 4.0000e+000 239589 -1.0816e+005 -2.8156e+006  1.8985e+005 86961 239390,239468,239416
 4.0000e+000 239566  4.8740e+004 -2.8974e+006  4.4837e+003 86961 239390,239494,239468
 4.0000e+000 239543 -1.2355e+005 -1.9844e+006  1.5287e+005 86961 239416,239468,239442
 4.0000e+000 239520 -9.0093e+005 -1.7239e+006  5.9576e+004 86961 239364,239494,239390
 4.0000e+000 239741 -7.8241e+005 -3.1044e+006 -7.5196e+005 86621 239640,239692,239666
 4.0000e+000 239718 -4.2149e+005 -3.2350e+006 -8.3416e+005 86621 239614,239692,239640
 4.0000e+000 239893 -3.3765e+005 -2.5233e+006  2.2273e+005 86217 239792,239844,239818
 4.0000e+000 239870 -3.5430e+005 -3.6511e+006  5.5206e+005 86217 239766,239844,239792
 4.0000e+000 240045 -6.8448e+005 -2.3790e+006  1.4244e+005 85827 239918,239970,239944
 4.0000e+000 240022 -2.2696e+005 -2.2726e+006  3.8284e+005 85827 239918,239996,239970
 4.0000e+000 240197 -2.3465e+005 -3.4620e+006  4.7170e+005 85437 240096,240148,240122
 4.0000e+000 240174 -8.3778e+005 -2.9828e+006 -1.6556e+005 85437 240070,240148,240096
 4.0000e+000 240349 -5.6166e+005 -2.5065e+006  1.8592e+005 85147 240222,240274,240248
 4.0000e+000 240326 -6.2310e+005 -2.4392e+006  1.1990e+005 85147 240222,240300,240274
 4.0000e+000 240501 -8.2079e+005 -2.6736e+006 -2.6672e+005 84807 240374,240426,240400
 4.0000e+000 240478 -6.6432e+005 -2.8118e+006 -1.1260e+005 84807 240374,240452,240426
 4.0000e+000 240653 -2.7654e+004 -6.8402e+005  2.7278e+004 84303 240552,240604,240578
 4.0000e+000 240630 -4.5941e+003 -4.7881e+005 -6.1895e+003 84303 240526,240604,240552
 4.0000e+000 240854 -5.8538e+005 -4.7465e+006 -1.2494e+006 83929 240704,240756,240730
 4.0000e+000 240831 -3.0947e+004 -4.2133e+006  5.1021e+005 83929 240704,240782,240756
 4.0000e+000 240808 -7.5531e+005 -2.2938e+006  6.2640e+005 83929 240678,240782,240704
 4.0000e+000 241055 -1.6079e+005 -1.8902e+006 -1.3410e+005 83539 240879,240957,240931
 4.0000e+000 241032 -4.9417e+005 -2.1684e+006  2.0285e+005 83539 240879,240983,240957
 4.0000e+000 241009 -2.2907e+005 -2.0310e+006 -7.8753e+004 83539 240879,240931,240905
 4.0000e+000 241207 -3.1488e+005 -2.5114e+006  4.4978e+005 83079 241106,241158,241132
 4.0000e+000 241184 -5.5434e+005 -1.6479e+006  4.8471e+005 83079 241080,241158,241106
 4.0000e+000 241408  1.6228e+005 -2.8612e+006 -2.6159e+005 82665 241232,241284,241258
 4.0000e+000 241385 -6.0093e+005 -5.4388e+006 -1.1762e+006 82665 241232,241336,241284
 4.0000e+000 241362 -1.2515e+006  1.0798e+004  2.0893e+006 82665 241284,241336,241310
 4.0000e+000 241658 -3.3482e+004 -2.1002e+006  6.6908e+003 82375 241485,241563,241511
 4.0000e+000 241635  1.0222e+005 -1.7935e+006  1.5690e+005 82375 241433,241563,241485
 4.0000e+000 241612  8.7903e+003 -2.1007e+006  2.2883e+005 82375 241433,241485,241459
 4.0000e+000 241589 -3.9942e+005 -2.5547e+006  2.4981e+005 82375 241511,241563,241537
 4.0000e+000 241810 -4.9981e+005 -2.4799e+006  3.0886e+004 82035 241683,241735,241709
 4.0000e+000 241787 -5.2737e+005 -2.5340e+006  9.6355e+004 82035 241683,241761,241735
 4.0000e+000 241962 -7.0876e+005 -3.3003e+006 -2.7250e+005 81695 241861,241913,241887
 4.0000e+000 241939 -6.8757e+005 -2.9225e+006  3.4846e+005 81695 241835,241913,241861
 4.0000e+000 242114 -1.2904e+006 -3.3329e+006  1.7641e+005 81355 242013,242065,242039
 4.0000e+000 242091 -1.2213e+006 -2.9542e+006  3.3832e+005 81355 241987,242065,242013
 4.0000e+000 242266 -2.4984e+005 -2.2695e+006 -4.9648e+005 80951 242139,242191,242165
 4.0000e+000 242243 -4.0677e+005 -2.8321e+006 -6.5677e+005 80951 242139,242217,242191
 4.0000e+000 242467 -7.4084e+004 -1.9994e+006  2.9904e+005 80311 242291,242369,242343
 4.0000e+000 242444  1.8761e+004 -2.3444e+006 -3.0958e+003 80311 242291,242395,242369
 4.0000e+000 242421 -8.4604e+004 -2.4312e+006  3.6384e+005 80311 242291,242343,242317
 4.0000e+000 242619 -1.2391e+006 -2.7339e+006 -3.8756e+005 80021 242492,242544,242518
 4.0000e+000 242596 -1.1821e+006 -2.5700e+006 -1.1234e+004 80021 242492,242570,242544
 4.0000e+000 242869 -6.3088e+005 -2.7121e+006 -1.3800e+005 79631 242644,242722,242696
 4.0000e+000 242846 -3.5731e+005 -3.0752e+006 -1.3398e+005 79631 242644,242774,242722
 4.0000e+000 242823 -4.2735e+005 -2.9422e+006  3.5840e+005 79631 242722,242774,242748
 4.0000e+000 242800 -5.0998e+005 -2.4556e+006  7.2866e+004 79631 242644,242696,242670
 4.0000e+000 243070 -8.8557e+005 -5.9407e+006  6.0117e+005 79341 242920,242972,242946
 4.0000e+000 243047 -7.5791e+005 -4.2276e+006 -2.8201e+005 79341 242920,242998,242972
 4.0000e+000 243024 -6.8718e+005 -3.2596e+006  5.9571e+005 79341 242894,242998,242920
 4.0000e+000 243222 -3.7224e+005 -2.2707e+006  1.1723e+005 78801 243121,243173,243147
 4.0000e+000 243199 -6.0777e+005 -2.7107e+006  8.8154e+005 78801 243095,243173,243121
 4.0000e+000 243423 -4.6052e+005 -3.6135e+006  1.1339e+005 78511 243273,243325,243299
 4.0000e+000 243400 -3.6370e+005 -3.4851e+006  3.2274e+004 78511 243273,243351,243325
 4.0000e+000 243377 -1.6726e+003 -3.3921e+006  7.8348e+004 78511 243247,243351,243273
 4.0000e+000 243624 -4.4871e+005 -2.4504e+006 -4.9566e+005 78107 243474,243552,243526
 4.0000e+000 243601 -3.3305e+005 -2.1448e+006 -4.0960e+005 78107 243448,243552,243474
 4.0000e+000 243578 -2.9420e+005 -2.4429e+006 -5.0445e+005 78107 243474,243526,243500
 4.0000e+000 243776 -3.6514e+005 -2.6585e+006 -6.6763e+005 77653 243649,243701,243675
 4.0000e+000 243753 -5.5614e+005 -3.1407e+006 -5.1563e+005 77653 243649,243727,243701
 4.0000e+000 243977 -3.8984e+005 -3.0519e+006 -4.9664e+005 77093 243801,243853,243827
 4.0000e+000 243954 -2.8887e+005 -2.9417e+006  1.3457e+002 77093 243801,243879,243853
 4.0000e+000 243931 -4.8015e+005 -2.8279e+006  1.7445e+004 77093 243801,243905,243879
 4.0000e+000 244080 -1.0297e+006 -2.9800e+006  2.0998e+005 76791 244002,244054,244028
 4.0000e+000 244232 -2.4293e+005 -3.0738e+006  2.2288e+005 76311 244131,244183,244157
 4.0000e+000 244209 -2.0128e+005 -3.4520e+006  2.9281e+005 76311 244105,244183,244131
 4.0000e+000 244433 -6.2122e+005 -5.3474e+006  6.2664e+005 75903 244283,244335,244309
 4.0000e+000 244410 -4.0086e+005 -5.0923e+006  4.4122e+005 75903 244283,244361,244335
 4.0000e+000 244387 -1.3410e+006 -4.6797e+006  7.5965e+005 75903 244257,244361,244283
 4.0000e+000 244585 -2.1616e+005 -5.5893e+006  1.3201e+005 75419 244458,244510,244484
 4.0000e+000 244562 -1.7675e+005 -4.9167e+006 -5.4840e+004 75419 244458,244536,244510
 4.0000e+000 244737 -2.3855e+005 -1.8429e+006 -8.8951e+004 75215 244636,244688,244662
 4.0000e+000 244714 -2.0861e+005 -3.1910e+006 -1.0877e+005 75215 244610,244688,244636
 4.0000e+000 244889 -1.0037e+006 -2.4486e+006  2.0265e+005 74857 244788,244840,244814
 4.0000e+000 244866 -1.0888e+006 -2.6322e+006 -3.3047e+004 74857 244762,244840,244788
 4.0000e+000 245041 -3.2214e+004 -1.2603e+006 -4.8403e+005 74653 244940,244992,244966
 4.0000e+000 245018 -1.2569e+005 -6.3066e+005  3.4460e+005 74653 244914,244992,244940
 4.0000e+000 245144 -2.9506e+005 -3.5509e+006  8.7113e+004 74359 245066,245118,245092
 4.0000e+000 245296 -4.0663e+005 -1.9010e+006 -4.6052e+005 74007 245169,245221,245195
 4.0000e+000 245273 -3.4740e+005 -2.0445e+006 -3.7679e+005 74007 245169,245247,245221
 4.0000e+000 245448 -9.2558e+005 -3.1171e+006  3.5930e+005 73711 245321,245373,245347
 4.0000e+000 245425 -7.0648e+005 -3.0613e+006 -6.1332e+005 73711 245321,245399,245373
 4.0000e+000 245600 -3.2068e+005 -5.6194e+006 -7.6235e+005 73301 245499,245551,245525
 4.0000e+000 245577 -1.1656e+006 -4.2114e+006  3.7771e+005 73301 245473,245551,245499
 4.0000e+000 245752 -6.7988e+004 -3.2193e+006 -5.0861e+005 72995 245625,245677,245651
 4.0000e+000 245729 -1.4851e+005 -3.0919e+006 -4.8774e+005 72995 245625,245703,245677
 4.0000e+000 245953 -1.0433e+006 -4.8274e+006  6.2702e+005 72585 245777,245829,245803
 4.0000e+000 245930 -7.7829e+005 -5.5293e+006  1.0447e+006 72585 245777,245855,245829
 4.0000e+000 245907 -7.6864e+005 -4.8359e+006  8.4156e+005 72585 245777,245881,245855
 4.0000e+000 246154 -6.8459e+005 -2.9886e+006  4.3628e+005 72127 246030,246082,246056
 4.0000e+000 246131 -8.6381e+005 -3.8237e+006  4.3160e+005 72127 245978,246082,246030
 4.0000e+000 246108 -2.2076e+005 -4.1727e+006  1.1014e+005 72127 245978,246030,246004
 4.0000e+000 246257 -7.4863e+005 -2.5004e+006 -1.9605e+005 71737 246179,246231,246205
 4.0000e+000 246360 -2.6946e+005 -1.3351e+006  7.0602e+004 71447 246282,246334,246308
 4.0000e+000 246512 -3.0524e+005 -2.7342e+006  5.4857e+005 71157 246385,246437,246411
 4.0000e+000 246489 -1.8787e+005 -2.8136e+006  7.4545e+005 71157 246385,246463,246437
 4.0000e+000 246664 -4.7290e+005 -2.6265e+006 -4.5964e+005 70753 246537,246589,246563
 4.0000e+000 246641 -7.7379e+005 -2.8390e+006 -2.5970e+005 70753 246537,246615,246589
 4.0000e+000 246865 -5.8394e+005 -4.6603e+006  1.0051e+006 70249 246715,246767,246741
 4.0000e+000 246842 -8.8832e+005 -4.4833e+006 -7.5594e+004 70249 246715,246793,246767
 4.0000e+000 246819 -3.0657e+005 -4.5529e+006 -1.0384e+005 70249 246689,246793,246715
 4.0000e+000 247066 -2.5465e+005 -2.6506e+006  4.0961e+005 70023 246916,246994,246942
 4.0000e+000 247043  1.8497e+005 -3.6265e+006  1.2401e+004 70023 246890,246994,246916
 4.0000e+000 247020 -3.2856e+005 -2.4718e+006 -3.1084e+004 70023 246942,246994,246968
 4.0000e+000 247267 -4.9601e+005 -3.2231e+006 -1.4634e+005 69633 247091,247143,247117
 4.0000e+000 247244 -3.9363e+005 -3.3394e+006 -4.6551e+004 69633 247091,247169,247143
 4.0000e+000 247221 -2.4099e+005 -2.8861e+006 -1.4878e+005 69633 247091,247195,247169
 4.0000e+000 247419 -2.4711e+005 -3.4422e+006  2.1076e+005 69457 247318,247370,247344
 4.0000e+000 247396 -5.7978e+005 -3.3284e+006  5.4025e+004 69457 247292,247370,247318
 4.0000e+000 247522  5.7707e+000 -3.0457e+004 -7.2441e+001 69209 247444,247496,247470
 4.0000e+000 247625 -1.2822e+006 -3.2464e+006 -1.9976e+005 68919 247547,247599,247573
 4.0000e+000 247777 -2.0125e+005 -3.5056e+006 -4.6051e+005 68579 247650,247702,247676
 4.0000e+000 247754 -5.0111e+005 -3.1425e+006 -2.5763e+005 68579 247650,247728,247702
 4.0000e+000 247929 -7.0862e+005 -2.3200e+006  7.9571e+005 68289 247802,247854,247828
 4.0000e+000 247906 -4.1883e+005 -1.9554e+006  4.8916e+005 68289 247802,247880,247854
 4.0000e+000 248081 -4.1538e+005 -2.7671e+006  6.0635e+005 67949 247980,248032,248006
 4.0000e+000 248058 -5.0304e+005 -2.6768e+006  4.6382e+005 67949 247954,248032,247980
 4.0000e+000 248233 -1.0743e+006 -3.7468e+006 -4.0707e+005 67616 248132,248184,248158
 4.0000e+000 248210 -8.6100e+005 -3.7473e+006 -3.3090e+005 67616 248106,248184,248132
 4.0000e+000 248434 -7.1409e+005 -2.9162e+006 -3.8801e+005 67212 248284,248336,248310
 4.0000e+000 248411 -7.0118e+005 -3.0284e+006 -7.8686e+005 67212 248258,248336,248284
 4.0000e+000 248388 -1.3457e+006 -3.2444e+006 -5.4311e+005 67212 248258,248362,248336
 4.0000e+000 248586 -2.2451e+004 -3.0314e+006  4.5520e+005 66872 248485,248537,248511
 4.0000e+000 248563 -1.7519e+005 -2.4807e+006  3.2187e+005 66872 248459,248537,248485
 4.0000e+000 248738 -1.6108e+005 -3.2555e+006  7.0202e+004 66510 248637,248689,248663
 4.0000e+000 248715 -2.3124e+005 -5.0614e+006  1.0957e+005 66510 248611,248689,248637
 4.0000e+000 248890 -2.2397e+003 -1.8959e+006 -4.8571e+004 66220 248789,248841,248815
 4.0000e+000 248867 -5.2635e+004 -2.1075e+006 -4.3699e+005 66220 248763,248841,248789
 4.0000e+000 249091 -3.8344e+005 -2.1351e+006  8.7693e+005 65759 248915,248967,248941
 4.0000e+000 249068 -4.8198e+005 -2.5578e+006  7.5139e+005 65759 248915,248993,248967
 4.0000e+000 249045 -3.5816e+005 -2.4720e+006  6.9001e+005 65759 248915,249019,248993
 4.0000e+000 249243 -1.8866e+005 -4.3009e+006  9.0947e+005 65419 249142,249194,249168
 4.0000e+000 249220 -3.8565e+005 -3.5372e+006  3.8504e+005 65419 249116,249194,249142
 4.0000e+000 249395 -3.7723e+005 -2.5329e+006 -3.7264e+005 65079 249268,249320,249294
 4.0000e+000 249372 -4.1817e+005 -3.0581e+006 -4.6831e+005 65079 249268,249346,249320
 4.0000e+000 249547 -5.4167e+005 -2.2289e+006  3.6150e+005 64739 249420,249472,249446
 4.0000e+000 249524 -7.2381e+005 -2.2001e+006  1.8962e+005 64739 249420,249498,249472
 4.0000e+000 249650 -7.9012e+005 -2.5177e+006 -1.4638e+005 64342 249572,249624,249598
 4.0000e+000 249851 -5.6651e+005 -4.7179e+006 -6.3095e+005 63938 249701,249779,249753
 4.0000e+000 249828 -6.3015e+005 -5.0147e+006  1.0460e+006 63938 249675,249779,249701
 4.0000e+000 249805 -7.5543e+005 -5.7799e+006 -4.4427e+005 63938 249701,249753,249727
 4.0000e+000 250052 -1.0119e+006 -3.3463e+006 -7.8879e+004 63341 249876,249954,249902
 4.0000e+000 250029 -6.0068e+005 -3.0713e+006 -4.9804e+005 63341 249876,249980,249954
 4.0000e+000 250006 -4.1134e+005 -3.2150e+006 -1.7043e+005 63341 249902,249954,249928
 4.0000e+000 250253 -6.7899e+005 -4.4879e+006 -4.0946e+005 63058 250077,250129,250103
 4.0000e+000 250230 -8.7007e+005 -4.0907e+006 -2.1120e+005 63058 250077,250155,250129
 4.0000e+000 250207 -5.2642e+005 -4.0216e+006 -2.1230e+005 63058 250077,250181,250155
 4.0000e+000 250454 -7.0262e+005 -4.2124e+006  7.4096e+005 62832 250304,250382,250330
 4.0000e+000 250431  7.1849e+004 -5.2428e+006 -1.3958e+006 62832 250278,250382,250304
 4.0000e+000 250408 -1.5645e+006 -2.7679e+006  9.6467e+004 62832 250330,250382,250356
 4.0000e+000 250606 -9.9302e+004 -4.8400e+006 -5.2576e+005 62428 250479,250531,250505
 4.0000e+000 250583 -4.4664e+005 -3.5014e+006 -7.4940e+005 62428 250479,250557,250531
 4.0000e+000 250758 -3.4949e+005 -4.0030e+006  3.8661e+005 62202 250631,250683,250657
 4.0000e+000 250735 -5.4909e+005 -4.5681e+006  1.1587e+006 62202 250631,250709,250683
 4.0000e+000 250861 -6.1402e+005 -2.0867e+006  2.3320e+004 61954 250783,250835,250809
 4.0000e+000 251062 -7.4184e+005 -4.6782e+006 -5.0278e+005 61557 250912,250990,250938
 4.0000e+000 251039 -4.2499e+005 -3.1484e+006  4.0498e+004 61557 250886,250990,250912
 4.0000e+000 251016 -8.8240e+005 -4.3793e+006 -2.3635e+005 61557 250938,250990,250964
 4.0000e+000 251263 -9.3363e+005 -4.4767e+006  3.3929e+004 61167 251113,251165,251139
 4.0000e+000 251240 -7.3765e+005 -4.3374e+006 -8.1245e+004 61167 251113,251191,251165
 4.0000e+000 251217 -1.2722e+006 -4.2676e+006  1.1042e+006 61167 251087,251191,251113
 4.0000e+000 251415 -9.9271e+005 -3.4567e+006  7.7370e+005 60827 251288,251340,251314
 4.0000e+000 251392 -1.5009e+006 -1.7165e+006 -1.5738e+004 60827 251288,251366,251340
 4.0000e+000 251567 -2.1164e+005 -2.7084e+006  3.3308e+005 60487 251466,251518,251492
 4.0000e+000 251544 -3.1245e+005 -2.1996e+006 -1.4225e+004 60487 251440,251518,251466
 4.0000e+000 251719 -3.1264e+005 -5.2468e+006 -3.5498e+004 59983 251592,251644,251618
 4.0000e+000 251696 -5.5147e+005 -4.2393e+006 -3.9728e+004 59983 251592,251670,251644
 4.0000e+000 251920  5.0398e+004 -1.6474e+006 -3.0339e+004 59807 251770,251848,251796
 4.0000e+000 251897  4.7169e+004 -1.5499e+006 -6.0104e+004 59807 251744,251848,251770
 4.0000e+000 251874  6.0902e+004 -1.8075e+006 -1.5988e+005 59807 251796,251848,251822
 4.0000e+000 252023 -3.6434e+005 -3.0364e+006 -3.6862e+004 59517 251945,251997,251971
 4.0000e+000 252175  4.6791e+005 -4.9517e+006 -2.5244e+005 59269 252074,252126,252100
 4.0000e+000 252152 -4.0827e+005 -6.5649e+005  3.4435e+005 59269 252048,252126,252074
 4.0000e+000 252278 -4.3867e+005 -3.1851e+006  3.6341e+005 58979 252200,252252,252226
 4.0000e+000 252381 -1.4920e+006 -2.0587e+006  2.0254e+005 58689 252303,252355,252329
 4.0000e+000 252533 -2.4354e+005 -2.4380e+006  2.7255e+005 58249 252432,252484,252458
 4.0000e+000 252510 -1.8875e+005 -2.3731e+006  1.4059e+005 58249 252406,252484,252432
 4.0000e+000 252734 -6.2800e+005 -2.1634e+006  2.5454e+005 57902 252584,252662,252610
 4.0000e+000 252711  1.3104e+005 -2.9229e+006 -4.3160e+004 57902 252558,252662,252584
 4.0000e+000 252688 -5.6145e+005 -1.7565e+006  1.7950e+005 57902 252610,252662,252636
 4.0000e+000 252886 -4.0424e+005 -2.6295e+006 -1.8345e+005 57540 252785,252837,252811
 4.0000e+000 252863 -2.7829e+005 -2.7765e+006 -1.8923e+005 57540 252759,252837,252785
 4.0000e+000 253038 -4.4952e+005 -3.2929e+006  4.0421e+005 57086 252937,252989,252963
 4.0000e+000 253015 -2.4768e+005 -2.1189e+006  2.3992e+005 57086 252911,252989,252937
 4.0000e+000 253239 -4.3456e+005 -3.2190e+006  1.2226e+005 56796 253063,253141,253115
 4.0000e+000 253216  1.5451e+005 -3.3769e+006  3.7587e+005 56796 253063,253167,253141
 4.0000e+000 253193 -6.3096e+005 -3.7473e+006  2.7366e+005 56796 253063,253115,253089
 4.0000e+000 253342 -5.7647e+005 -3.3510e+006 -5.6979e+004 56349 253264,253316,253290
 4.0000e+000 253543 -5.9691e+005 -3.4971e+006 -3.5151e+005 56009 253367,253419,253393
 4.0000e+000 253520 -9.2340e+005 -3.2534e+006  1.0832e+005 56009 253367,253445,253419
 4.0000e+000 253497 -1.0498e+006 -2.7340e+006 -1.2893e+005 56009 253367,253471,253445
 4.0000e+000 253695 -4.4108e+005 -2.8252e+006  1.1344e+005 55733 253594,253646,253620
 4.0000e+000 253672 -2.1574e+005 -2.9148e+006  2.2419e+005 55733 253568,253646,253594
 4.0000e+000 253798 -4.6152e+005 -1.6516e+006 -1.1559e+005 55557 253720,253772,253746
 4.0000e+000 253950 -5.3608e+005 -2.6884e+006 -6.7941e+004 55153 253849,253901,253875
 4.0000e+000 253927 -5.9693e+003 -3.0902e+006 -5.7271e+005 55153 253823,253901,253849
 4.0000e+000 254151 -9.8005e+005 -3.1789e+006  2.0055e+005 54863 253975,254053,254001
 4.0000e+000 254128 -6.8589e+005 -3.1260e+006 -1.4797e+005 54863 253975,254079,254053
 4.0000e+000 254105 -4.7447e+005 -2.6553e+006 -1.2277e+005 54863 254001,254053,254027
 4.0000e+000 254303 -1.1781e+005 -3.7284e+006 -2.0086e+005 54373 254176,254228,254202
 4.0000e+000 254280 -5.7691e+005 -3.7632e+006 -2.4629e+004 54373 254176,254254,254228
 4.0000e+000 254455 -6.7357e+005 -3.2967e+006 -1.5509e+005 53975 254354,254406,254380
 4.0000e+000 254432 -7.0801e+005 -2.5354e+006 -2.1180e+004 53975 254328,254406,254354
 4.0000e+000 254607 -5.7273e+005 -2.8741e+006 -3.0955e+005 53585 254480,254532,254506
 4.0000e+000 254584 -3.1258e+005 -3.0064e+006 -3.9400e+005 53585 254480,254558,254532
 4.0000e+000 254808 -7.0352e+005 -2.3959e+006 -5.1175e+004 53245 254658,254736,254684
 4.0000e+000 254785 -7.8589e+005 -1.9943e+006 -1.8816e+005 53245 254632,254736,254658
 4.0000e+000 254762 -4.8204e+005 -1.9255e+006 -2.6894e+005 53245 254684,254736,254710
 4.0000e+000 254911 -4.4034e+005 -3.2679e+006 -3.3692e+005 52955 254833,254885,254859
 4.0000e+000 255063 -6.5211e+005 -3.1534e+006 -1.5227e+005 52551 254962,255014,254988
 4.0000e+000 255040 -5.0025e+005 -3.4834e+006 -2.6795e+005 52551 254936,255014,254962
 4.0000e+000 255264 -1.2158e+006 -1.9900e+006 -1.7790e+005 52261 255114,255166,255140
 4.0000e+000 255241 -9.4255e+005 -3.3916e+006  1.3970e+005 52261 255114,255192,255166
 4.0000e+000 255218 -1.2414e+006 -4.3212e+006 -6.6784e+005 52261 255088,255192,255114
 4.0000e+000 255416 -1.4820e+005 -2.7899e+006  6.6906e+005 51971 255289,255341,255315
 4.0000e+000 255393 -4.1692e+005 -2.7095e+006  1.0637e+004 51971 255289,255367,255341
 4.0000e+000 255568 -4.4713e+005 -2.5539e+006 -1.9384e+005 51681 255441,255493,255467
 4.0000e+000 255545 -4.6733e+004 -4.3606e+006  7.8615e+004 51681 255441,255519,255493
 4.0000e+000 255769 -4.2723e+005 -2.7548e+006  2.5535e+005 51291 255619,255697,255671
 4.0000e+000 255746 -4.0200e+005 -2.2530e+006 -1.7323e+005 51291 255593,255697,255619
 4.0000e+000 255723 -5.0706e+005 -3.3953e+006  6.7963e+004 51291 255619,255671,255645
 4.0000e+000 255921 -5.4473e+005 -2.1417e+006  4.4955e+005 50951 255820,255872,255846
 4.0000e+000 255898 -5.6195e+005 -2.2735e+006  2.5631e+005 50951 255794,255872,255820
 4.0000e+000 256171 -7.6870e+005 -2.6780e+006  4.4140e+004 50547 256024,256076,256050
 4.0000e+000 256148 -6.9070e+005 -2.8613e+006  2.0325e+005 50547 255972,256076,256024
 4.0000e+000 256125 -3.1611e+005 -3.1649e+006 -2.2650e+004 50547 255946,256076,255972
 4.0000e+000 256102 -7.7001e+005 -2.6545e+006  1.5991e+005 50547 255972,256024,255998
 4.0000e+000 256323 -9.3518e+004 -3.6731e+006  7.8306e+005 50093 256196,256248,256222
 4.0000e+000 256300 -8.5308e+005 -2.2926e+006 -2.9724e+005 50093 256196,256274,256248
 4.0000e+000 256426  4.3219e+002 -7.8654e+004  5.9753e+002 49845 256348,256400,256374
 4.0000e+000 256627 -4.1241e+005 -3.1344e+006  1.5255e+005 49555 256477,256555,256503
 4.0000e+000 256604 -4.2107e+005 -3.0193e+006  1.5685e+005 49555 256451,256555,256477
 4.0000e+000 256581 -4.9531e+005 -2.7017e+006  1.9374e+005 49555 256503,256555,256529
 4.0000e+000 256828 -3.8443e+005 -2.7815e+006 -3.1373e+005 49056 256652,256730,256678
 4.0000e+000 256805 -5.1325e+005 -2.7909e+006 -2.1937e+005 49056 256652,256756,256730
 4.0000e+000 256782 -7.1058e+005 -2.8771e+006 -2.3671e+005 49056 256678,256730,256704
 4.0000e+000 256931 -8.3966e+005 -1.9864e+006 -1.9452e+005 48766 256853,256905,256879
 4.0000e+000 257083 -2.6231e+005 -3.3995e+006  5.3299e+004 48568 256982,257034,257008
 4.0000e+000 257060 -1.3138e+005 -2.8364e+006 -1.8162e+005 48568 256956,257034,256982
 4.0000e+000 257186 -2.3606e+002 -2.2846e+006  1.2513e+002 48228 257108,257160,257134
 4.0000e+000 257338 -4.1320e+005 -1.9307e+006  5.0050e+005 47888 257237,257289,257263
 4.0000e+000 257315 -4.8639e+005 -2.1833e+006  4.6153e+005 47888 257211,257289,257237
 4.0000e+000 257539 -4.0765e+005 -3.1679e+006  1.4516e+005 47548 257363,257441,257415
 4.0000e+000 257516 -5.0749e+005 -3.1161e+006  3.8000e+004 47548 257363,257467,257441
 4.0000e+000 257493 -4.2053e+005 -2.7035e+006  2.5922e+003 47548 257363,257415,257389
 4.0000e+000 257740 -2.3747e+005 -2.9464e+006  1.8936e+005 46994 257564,257642,257616
 4.0000e+000 257717 -3.7607e+005 -2.5193e+006  3.9078e+004 46994 257564,257668,257642
 4.0000e+000 257694 -6.4914e+005 -2.7900e+006 -1.4519e+005 46994 257564,257616,257590
 4.0000e+000 257843 -6.2626e+005 -3.0205e+006  2.0047e+005 46654 257765,257817,257791
 4.0000e+000 257995 -6.6197e+005 -2.9801e+006  1.7842e+005 46364 257894,257946,257920
 4.0000e+000 257972 -6.0066e+005 -3.5756e+006 -1.5577e+005 46364 257868,257946,257894
 4.0000e+000 258147 -2.6007e+005 -2.8030e+006  6.2950e+004 46024 258046,258098,258072
 4.0000e+000 258124 -5.3835e+005 -3.1309e+006 -1.2736e+005 46024 258020,258098,258046
 4.0000e+000 258250 -6.8597e+005 -2.9009e+006  3.9881e+005 45741 258172,258224,258198
 4.0000e+000 258402 -2.2256e+005 -2.8399e+006  2.5362e+005 45401 258301,258353,258327
 4.0000e+000 258379 -4.6412e+005 -2.3247e+006  2.0298e+005 45401 258275,258353,258301
 4.0000e+000 258603 -5.3844e+005 -1.7811e+006  8.0370e+004 45071 258427,258505,258479
 4.0000e+000 258580 -3.9321e+005 -3.7789e+006  3.5704e+005 45071 258427,258531,258505
 4.0000e+000 258557 -2.8868e+005 -1.9586e+006  2.1474e+005 45071 258427,258479,258453
 4.0000e+000 258755 -3.5106e+005 -2.5087e+006  5.8689e+004 44681 258654,258706,258680
 4.0000e+000 258732 -2.6514e+005 -2.7840e+006  8.2044e+004 44681 258628,258706,258654
 4.0000e+000 258907 -2.6991e+005 -2.3280e+006 -1.0268e+005 44157 258806,258858,258832
 4.0000e+000 258884 -6.8647e+005 -2.2391e+006 -1.8540e+005 44157 258780,258858,258806
 4.0000e+000 259010 -4.5616e+005 -1.8628e+006  4.2182e+004 43705 258932,258984,258958
 4.0000e+000 259113 -3.6269e+005 -3.8044e+006  2.7912e+005 43284 259035,259087,259061
 4.0000e+000 259216 -5.7230e+005 -3.3932e+006 -1.9574e+005 42954 259138,259190,259164
 4.0000e+000 259319 -8.4289e+005 -2.0323e+006  7.6858e+003 42116 259241,259293,259267
 4.0000e+000 259422 -3.8748e+005 -3.2277e+006 -2.0093e+005 41804 259344,259396,259370
 4.0000e+000 259525 -5.3671e+005 -3.5698e+006  2.3082e+005 41219 259447,259499,259473
 4.0000e+000 259628 -6.1170e+005 -2.4526e+006 -1.0464e+005 385 259550,259602,259576
 4.0000e+001 190120 -2.6852e+005 -1.7765e+006 -4.0246e+005 189630 189993,190045,190019
 4.0000e+001 190097 -6.7923e+005 -1.0419e+006 -1.7996e+005 189630 189993,190071,190045
 4.0000e+001 190319 -9.6660e+005 -1.4403e+006  3.1335e+005 189312 190169,190221,190195
 4.0000e+001 190296 -4.6385e+005 -7.4124e+005 -2.9814e+005 189312 190169,190247,190221
 4.0000e+001 190273 -5.6119e+005 -5.6626e+005  7.3927e+004 189312 190143,190247,190169
 4.0000e+001 190518 -4.7784e+005  4.8814e+004  1.5976e+004 189124 190368,190446,190420
 4.0000e+001 190495 -5.6230e+005  2.1563e+004 -4.3295e+003 189124 190342,190446,190368
 4.0000e+001 190472 -9.8884e+005 -5.2848e+004 -4.8853e+004 189124 190368,190420,190394
 4.0000e+001 190619 -4.5052e+005 -4.5862e+004 -6.1676e+003 188926 190541,190593,190567
 4.0000e+001 190771 -4.7838e+005 -8.1205e+004  2.5512e+004 188614 190670,190722,190696
 4.0000e+001 190748 -5.6580e+005  1.5882e+005  6.0869e+004 188614 190644,190722,190670
 4.0000e+001 190972 -2.0971e+005 -6.2337e+005 -2.5243e+005 188324 190848,190900,190874
 4.0000e+001 190949 -5.0785e+005 -6.8913e+005 -3.1915e+005 188324 190796,190900,190848
 4.0000e+001 190926 -5.6993e+004 -9.5359e+005 -8.9794e+004 188324 190796,190848,190822
 4.0000e+001 191124 -7.3122e+005 -1.0909e+006 -1.8806e+005 188034 191023,191075,191049
 4.0000e+001 191101 -1.2328e+005 -1.2521e+006 -1.2842e+005 188034 190997,191075,191023
 4.0000e+001 191276 -7.3581e+005 -9.2972e+004  3.9945e+004 187836 191149,191201,191175
 4.0000e+001 191253 -9.5573e+004 -1.5392e+005  6.4971e+004 187836 191149,191227,191201
 4.0000e+001 191379 -4.5700e+005 -2.6255e+005 -8.0568e+004 187546 191301,191353,191327
 4.0000e+001 191531 -1.1165e+006 -1.5958e+006 -3.4462e+005 187256 191430,191482,191456
 4.0000e+001 191508 -2.4260e+005 -1.1445e+006  7.1166e+004 187256 191404,191482,191430
 4.0000e+001 191634 -6.4317e+005 -2.5809e+005 -5.4515e+004 187058 191556,191608,191582
 4.0000e+001 191835 -2.3240e+005 -3.0767e+005 -4.0591e+004 186860 191659,191711,191685
 4.0000e+001 191812 -4.3319e+005 -1.9595e+005 -7.4727e+004 186860 191659,191737,191711
 4.0000e+001 191789 -4.0597e+005 -3.5286e+004 -4.2306e+004 186860 191659,191763,191737
 4.0000e+001 191987 -4.6235e+005 -9.1340e+005  1.5901e+005 186662 191886,191938,191912
 4.0000e+001 191964 -4.5866e+005 -5.3303e+005 -1.1032e+005 186662 191860,191938,191886
 4.0000e+001 192090 -6.3811e+005 -4.5598e+005  7.6350e+004 186486 192012,192064,192038
 4.0000e+001 192242 -5.3485e+005 -1.0014e+006  3.0641e+004 186288 192115,192167,192141
 4.0000e+001 192219 -4.6534e+005 -1.0757e+006  3.7658e+004 186288 192115,192193,192167
 4.0000e+001 192394 -3.5911e+005 -8.8527e+005 -1.4088e+005 185935 192293,192345,192319
 4.0000e+001 192371 -4.1851e+005 -9.6468e+005 -9.8862e+004 185935 192267,192345,192293
 4.0000e+001 192546 -5.3806e+005 -1.7790e+006 -2.1841e+005 185675 192419,192471,192445
 4.0000e+001 192523 -6.1000e+005 -5.1979e+005 -1.0294e+005 185675 192419,192497,192471
 4.0000e+001 192649 -2.3394e+005 -1.2685e+006 -1.2589e+005 185499 192571,192623,192597
 4.0000e+001 192801 -1.2654e+006 -5.7289e+005 -3.5851e+003 185301 192674,192726,192700
 4.0000e+001 192778 -6.1942e+005 -5.9043e+005  5.1405e+005 185301 192674,192752,192726
 4.0000e+001 193002 -4.8086e+005 -7.0741e+005 -2.3419e+005 185046 192852,192930,192878
 4.0000e+001 192979 -5.6915e+005 -1.2388e+006 -3.6626e+005 185046 192826,192930,192852
 4.0000e+001 192956 -3.5360e+004 -1.1936e+006 -1.6131e+005 185046 192878,192930,192904
 4.0000e+001 193203 -9.4263e+005 -4.0859e+005 -1.1648e+005 184798 193079,193131,193105
 4.0000e+001 193180 -4.4424e+005 -1.4816e+006 -3.3600e+005 184798 193027,193131,193079
 4.0000e+001 193157 -1.1962e+006 -1.7533e+006  7.1875e+005 184798 193027,193079,193053
 4.0000e+001 193404 -1.6167e+005 -1.8245e+006 -1.7721e+004 184600 193254,193306,193280
 4.0000e+001 193381 -1.2626e+005 -1.6648e+006 -2.8495e+004 184600 193254,193332,193306
 4.0000e+001 193358 -8.4866e+005 -4.4820e+005 -1.3617e+005 184600 193228,193332,193254
 4.0000e+001 193556 -8.1938e+005 -5.1129e+005 -6.2753e+005 184402 193429,193481,193455
 4.0000e+001 193533 -6.2425e+005 -5.6564e+005 -5.8562e+005 184402 193429,193507,193481
 4.0000e+001 193708 -1.6034e+005 -1.9767e+006 -3.2645e+005 184204 193607,193659,193633
 4.0000e+001 193685 -3.6794e+005 -1.3715e+006 -2.4846e+005 184204 193581,193659,193607
 4.0000e+001 193860 -5.4645e+005 -9.6712e+005  3.1225e+005 183908 193759,193811,193785
 4.0000e+001 193837 -2.5961e+004 -1.4326e+006  4.3500e+005 183908 193733,193811,193759
 4.0000e+001 194061 -3.6102e+005 -1.5853e+006 -6.9269e+004 183710 193911,193989,193937
 4.0000e+001 194038 -4.1225e+005 -1.2384e+006  8.4249e+004 183710 193885,193989,193911
 4.0000e+001 194015 -6.9519e+005 -6.3662e+005 -1.1379e+005 183710 193937,193989,193963
 4.0000e+001 194262 -1.5150e+006 -2.4867e+006 -1.3657e+006 183420 194086,194164,194112
 4.0000e+001 194239 -1.4090e+006 -1.0524e+006  1.0315e+006 183420 194086,194190,194164
 4.0000e+001 194216 -2.3246e+006 -9.4484e+006  2.1258e+006 183420 194112,194164,194138
 4.0000e+001 194414 -5.6028e+005 -2.3094e+006 -4.9571e+004 183222 194287,194339,194313
 4.0000e+001 194391 -5.0746e+005 -1.5420e+005 -1.7340e+005 183222 194287,194365,194339
 4.0000e+001 194517 -9.6493e+005 -3.4990e+005  1.7894e+005 183024 194439,194491,194465
 4.0000e+001 194718  1.9886e+006 -1.2088e+007  2.4388e+006 182734 194568,194620,194594
 4.0000e+001 194695 -8.0004e+005 -1.6213e+006 -1.8448e+006 182734 194542,194620,194568
 4.0000e+001 194672 -2.2446e+006 -1.3123e+006 -7.0071e+005 182734 194542,194646,194620
 4.0000e+001 194870 -5.3613e+005 -1.4624e+006  3.8449e+005 182444 194769,194821,194795
 4.0000e+001 194847 -6.9696e+005 -1.1256e+006 -6.4610e+005 182444 194743,194821,194769
 4.0000e+001 195071 -4.7469e+005 -2.9821e+006  9.7713e+005 182154 194895,194947,194921
 4.0000e+001 195048 -5.2566e+005 -1.8119e+006  1.2534e+005 182154 194895,194999,194947
 4.0000e+001 195025 -4.5595e+005 -8.4364e+005  2.4592e+005 182154 194947,194999,194973
 4.0000e+001 195223 -4.9709e+005 -1.5596e+006 -1.4615e+005 181814 195096,195148,195122
 4.0000e+001 195200 -3.9935e+005 -1.2481e+006 -3.0601e+005 181814 195096,195174,195148
 4.0000e+001 195375 -4.9108e+004 -6.1958e+005 -6.9480e+004 181524 195248,195300,195274
 4.0000e+001 195352  7.2117e+004 -1.9116e+006  1.7646e+005 181524 195248,195326,195300
 4.0000e+001 195527 -7.2873e+004 -5.6349e+005  3.5794e+005 181326 195426,195478,195452
 4.0000e+001 195504 -6.2940e+005 -1.6205e+006  7.7353e+005 181326 195400,195478,195426
 4.0000e+001 195679  1.0602e+005 -1.0040e+007 -2.0119e+005 180936 195578,195630,195604
 4.0000e+001 195656 -9.1225e+005 -2.6974e+006  5.7724e+004 180936 195552,195630,195578
 4.0000e+001 195831 -4.6061e+005 -3.7799e+005 -1.7923e+005 180646 195704,195756,195730
 4.0000e+001 195808 -7.3435e+005 -2.4701e+004  1.4826e+004 180646 195704,195782,195756
 4.0000e+001 196032 -3.7713e+005 -1.7773e+006  7.1217e+005 180306 195882,195960,195934
 4.0000e+001 196009 -6.9525e+005 -4.5739e+005 -4.2821e+005 180306 195856,195960,195882
 4.0000e+001 195986  3.4022e+004 -2.8296e+006 -4.4968e+005 180306 195882,195934,195908
 4.0000e+001 196233 -5.6401e+005 -5.5223e+004 -9.2870e+005 179944 196057,196109,196083
 4.0000e+001 196210 -7.6907e+005 -1.2895e+006  1.0544e+005 179944 196057,196135,196109
 4.0000e+001 196187 -1.4030e+006  3.0438e+006 -9.1920e+005 179944 196057,196161,196135
 4.0000e+001 196385 -7.6206e+005 -8.1841e+005 -6.7402e+005 179604 196258,196310,196284
 4.0000e+001 196362 -8.9648e+005 -9.5063e+005 -1.0352e+006 179604 196258,196336,196310
 4.0000e+001 196586 -3.0908e+005 -7.0937e+005 -1.6827e+005 179114 196410,196488,196436
 4.0000e+001 196563  1.1343e+005 -2.0946e+006 -2.5974e+005 179114 196410,196514,196488
 4.0000e+001 196540 -6.3218e+003 -6.6206e+005 -6.6559e+004 179114 196436,196488,196462
 4.0000e+001 196738 -4.9132e+004 -1.9416e+006 -2.0657e+005 178674 196611,196663,196637
 4.0000e+001 196715 -7.5584e+005 -1.0802e+006 -3.1387e+005 178674 196611,196689,196663
 4.0000e+001 196939  9.0299e+005 -6.6539e+006 -9.3484e+005 178334 196789,196867,196841
 4.0000e+001 196916 -1.2655e+006 -6.6466e+006  1.2667e+006 178334 196763,196867,196789
 4.0000e+001 196893 -1.8439e+006 -4.4234e+006 -3.3224e+006 178334 196789,196841,196815
 4.0000e+001 197091 -2.6595e+005 -4.0510e+006 -1.5952e+005 177930 196990,197042,197016
 4.0000e+001 197068  6.4667e+004 -2.6322e+006 -1.0487e+005 177930 196964,197042,196990
 4.0000e+001 197194 -2.7134e+002 -2.4654e+005 -4.0249e+002 177732 197116,197168,197142
 4.0000e+001 197346 -2.0036e+005 -6.6336e+006  3.9292e+004 177534 197219,197271,197245
 4.0000e+001 197323 -2.8350e+004 -7.0703e+006  2.6894e+005 177534 197219,197297,197271
 4.0000e+001 197547 -1.5519e+005 -2.9968e+006 -4.4790e+005 177130 197397,197449,197423
 4.0000e+001 197524 -3.9082e+005 -3.0343e+006 -6.0548e+005 177130 197397,197475,197449
 4.0000e+001 197501 -3.0113e+005 -6.9506e+006 -8.9960e+005 177130 197371,197475,197397
 4.0000e+001 197748 -5.5441e+005 -7.1630e+006  5.2566e+004 176790 197598,197676,197624
 4.0000e+001 197725 -8.1997e+005 -4.2819e+006  8.1651e+004 176790 197572,197676,197598
 4.0000e+001 197702 -6.6453e+005 -5.0308e+006  5.3610e+005 176790 197624,197676,197650
 4.0000e+001 197900 -1.2027e+005 -5.0843e+006 -1.0052e+006 176300 197773,197825,197799
 4.0000e+001 197877 -1.8662e+005 -5.0127e+006 -9.8528e+005 176300 197773,197851,197825
 4.0000e+001 198052 -1.0343e+006 -7.4795e+006 -1.3038e+006 176010 197925,197977,197951
 4.0000e+001 198029 -1.1320e+006 -4.9707e+006 -1.1209e+006 176010 197925,198003,197977
 4.0000e+001 198204 -1.3385e+006 -3.5896e+006 -1.6673e+006 175670 198103,198155,198129
 4.0000e+001 198181 -2.0273e+006 -4.8365e+006 -7.7881e+005 175670 198077,198155,198103
 4.0000e+001 198405  2.6374e+004 -5.8472e+006 -5.3676e+005 175266 198255,198307,198281
 4.0000e+001 198382  2.2764e+005 -5.9348e+006 -6.1598e+005 175266 198229,198307,198255
 4.0000e+001 198359 -8.5979e+005 -4.3252e+006 -1.8249e+006 175266 198229,198333,198307
 4.0000e+001 198606 -8.0272e+004 -5.4101e+005 -2.4199e+004 174876 198430,198508,198482
 4.0000e+001 198583 -3.8534e+005 -5.8216e+005 -3.6645e+005 174876 198430,198534,198508
 4.0000e+001 198560 -8.7391e+004 -2.7522e+005 -1.2247e+005 174876 198430,198482,198456
 4.0000e+001 198758 -4.3889e+001 -2.9360e+002 -1.5151e+002 174536 198657,198709,198683
 4.0000e+001 198735 -2.4813e+002 -1.3399e+003 -3.1944e+002 174536 198631,198709,198657
 4.0000e+001 199008 -4.0938e+005 -8.0985e+006 -1.4175e+005 174132 198835,198913,198887
 4.0000e+001 198985  9.7187e+003 -3.2685e+006  2.9777e+005 174132 198809,198913,198835
 4.0000e+001 198962 -2.0218e+005 -3.6091e+006 -1.4929e+006 174132 198783,198913,198809
 4.0000e+001 198939  3.6302e+005 -8.9946e+006 -2.2279e+005 174132 198835,198887,198861
 4.0000e+001 199160 -1.1348e+006 -1.9943e+006 -8.8192e+005 173842 199059,199111,199085
 4.0000e+001 199137 -9.3926e+005 -1.4848e+006 -7.3888e+005 173842 199033,199111,199059
 4.0000e+001 199361 -1.1110e+005 -1.1855e+007  1.3442e+006 173438 199237,199289,199263
 4.0000e+001 199338 -1.3048e+006 -8.0288e+006  1.7650e+006 173438 199211,199289,199237
 4.0000e+001 199315 -9.4908e+005 -9.5272e+006  4.6193e+005 173438 199185,199289,199211
 4.0000e+001 199513  2.0018e+005 -1.3962e+007  2.5126e+006 173190 199386,199438,199412
 4.0000e+001 199490  3.7488e+005 -9.4863e+006 -4.7226e+005 173190 199386,199464,199438
 4.0000e+001 199665 -5.6960e+005 -2.0480e+006  3.0667e+005 172750 199564,199616,199590
 4.0000e+001 199642 -1.0003e+006 -1.0380e+006  3.9479e+004 172750 199538,199616,199564
 4.0000e+001 199817 -8.8227e+005 -1.1519e+007 -4.1523e+006 172524 199690,199742,199716
 4.0000e+001 199794 -4.9839e+006 -4.8232e+006 -2.5994e+006 172524 199690,199768,199742
 4.0000e+001 199969 -2.0150e+004 -6.9409e+006 -3.7889e+005 172348 199842,199894,199868
 4.0000e+001 199946  6.6962e+005 -6.8510e+006  2.1039e+005 172348 199842,199920,199894
 4.0000e+001 200121  3.2029e+005 -8.6814e+006 -1.2818e+006 172008 199994,200046,200020
 4.0000e+001 200098 -6.6265e+005 -3.8613e+006 -4.2374e+005 172008 199994,200072,200046
 4.0000e+001 200273 -4.7473e+005 -4.8559e+006  4.1153e+005 171668 200172,200224,200198
 4.0000e+001 200250 -3.6822e+005 -4.7794e+006  5.7101e+005 171668 200146,200224,200172
 4.0000e+001 200474 -4.7523e+005 -8.3276e+006 -1.4043e+006 171264 200350,200402,200376
 4.0000e+001 200451 -3.1579e+005 -7.3905e+006 -1.0579e+006 171264 200324,200402,200350
 4.0000e+001 200428 -1.3879e+006 -5.6819e+006  1.1818e+006 171264 200298,200402,200324
 4.0000e+001 200626  6.9363e+004 -7.8534e+006 -2.9651e+005 170832 200525,200577,200551
 4.0000e+001 200603 -2.1000e+005 -4.8720e+006 -2.5876e+005 170832 200499,200577,200525
 4.0000e+001 200827  4.9123e+005 -9.9681e+006  1.1911e+006 170492 200677,200729,200703
 4.0000e+001 200804 -1.6241e+006 -4.1378e+006 -3.2673e+006 170492 200651,200729,200677
 4.0000e+001 200781 -3.3045e+006 -3.4131e+006 -1.9829e+006 170492 200651,200755,200729
 4.0000e+001 201077  8.3171e+005 -6.3798e+006  2.2348e+005 170088 200878,200956,200904
 4.0000e+001 201054 -3.7568e+005 -4.8962e+006 -1.4497e+006 170088 200852,200956,200878
 4.0000e+001 201031  4.8999e+005 -4.1354e+006  4.6252e+006 170088 200904,200956,200930
 4.0000e+001 201008  4.5041e+006 -1.0008e+007  2.1008e+006 170088 200852,200982,200956
 4.0000e+001 201278  2.9783e+005 -2.3282e+006  4.0445e+005 169798 201102,201154,201128
 4.0000e+001 201255 -1.4085e+006 -8.2769e+006 -7.6958e+005 169798 201102,201206,201154
 4.0000e+001 201232 -1.0010e+006 -2.7187e+006  9.5801e+005 169798 201154,201206,201180
 4.0000e+001 201430 -1.1368e+006 -1.4952e+007 -2.3664e+006 169337 201303,201355,201329
 4.0000e+001 201407 -5.9363e+005 -5.4158e+006 -4.9544e+005 169337 201303,201381,201355
 4.0000e+001 201631 -8.9749e+005 -1.0583e+007 -6.5563e+005 168883 201481,201559,201507
 4.0000e+001 201608 -4.2705e+004 -7.7785e+006  1.1566e+006 168883 201455,201559,201481
 4.0000e+001 201585 -4.7607e+005 -9.2791e+006 -3.2022e+005 168883 201507,201559,201533
 4.0000e+001 201832 -5.9622e+003 -1.2007e+007  4.7267e+005 168479 201682,201734,201708
 4.0000e+001 201809 -2.4232e+006 -9.1098e+006 -2.0539e+006 168479 201656,201734,201682
 4.0000e+001 201786 -1.9495e+006 -7.1998e+006 -4.4885e+005 168479 201656,201760,201734
 4.0000e+001 202033 -1.3406e+005 -4.2226e+006  7.1311e+005 167825 201883,201935,201909
 4.0000e+001 202010 -1.0850e+006 -5.1531e+006 -9.5746e+005 167825 201857,201935,201883
 4.0000e+001 201987  7.6931e+005 -1.3021e+007  2.1759e+005 167825 201857,201961,201935
 4.0000e+001 202234 -5.7247e+005 -6.0155e+006 -1.7613e+006 167435 202058,202136,202084
 4.0000e+001 202211 -9.8231e+005 -8.4042e+006  1.0770e+006 167435 202058,202162,202136
 4.0000e+001 202188 -6.3879e+005 -2.8050e+006  4.8859e+005 167435 202084,202136,202110
 4.0000e+001 202386  2.9240e+005 -7.1270e+006 -1.0035e+005 167002 202285,202337,202311
 4.0000e+001 202363 -4.4992e+005 -2.6563e+006  2.3971e+005 167002 202259,202337,202285
 4.0000e+001 202538  3.7880e+004 -5.8761e+006 -1.8066e+005 166662 202411,202463,202437
 4.0000e+001 202515 -6.6398e+005 -3.8668e+006  2.8186e+005 166662 202411,202489,202463
 4.0000e+001 202690  1.8618e+005 -7.4752e+006 -1.2402e+006 166322 202589,202641,202615
 4.0000e+001 202667  3.9870e+005 -7.3959e+006 -1.1822e+006 166322 202563,202641,202589
 4.0000e+001 202891 -6.9729e+005 -1.4989e+006  4.9940e+005 165918 202715,202767,202741
 4.0000e+001 202868 -1.2387e+006 -3.9512e+006 -9.9405e+004 165918 202715,202793,202767
 4.0000e+001 202845 -1.0098e+005 -4.0841e+006 -2.0113e+005 165918 202715,202819,202793
 4.0000e+001 203092 -1.6001e+006 -7.2249e+006 -1.6564e+006 165628 202916,202968,202942
 4.0000e+001 203069  1.3442e+004 -1.2080e+007 -1.6441e+006 165628 202916,202994,202968
 4.0000e+001 203046 -1.9284e+006 -1.1703e+007 -2.0496e+006 165628 202916,203020,202994
 4.0000e+001 203293 -6.7241e+006 -7.1015e+006 -1.4370e+006 165266 203143,203195,203169
 4.0000e+001 203270 -2.7722e+006 -9.0237e+006 -3.5209e+005 165266 203143,203221,203195
 4.0000e+001 203247 -1.0184e+006 -1.1278e+007 -2.8445e+006 165266 203117,203221,203143
 4.0000e+001 203445 -3.2373e+005 -4.9032e+006  1.4455e+005 164826 203318,203370,203344
 4.0000e+001 203422  2.6383e+003 -4.5129e+006 -1.4225e+005 164826 203318,203396,203370
 4.0000e+001 203597 -7.5396e+005 -5.6244e+006 -4.4278e+005 164386 203470,203522,203496
 4.0000e+001 203574 -1.9784e+005 -3.8117e+006 -5.1072e+004 164386 203470,203548,203522
 4.0000e+001 203798 -1.8530e+004 -5.6615e+006  8.5788e+005 163996 203622,203674,203648
 4.0000e+001 203775 -1.1685e+006 -6.4292e+005 -2.4270e+005 163996 203622,203726,203674
 4.0000e+001 203752 -2.2076e+006 -2.7378e+006  2.8994e+006 163996 203674,203726,203700
 4.0000e+001 203901 -1.2147e+004 -3.1106e+006 -1.0390e+006 163770 203823,203875,203849
 4.0000e+001 204053 -1.0889e+006 -3.7277e+006  7.0378e+005 163474 203952,204004,203978
 4.0000e+001 204030 -1.9140e+005 -4.7338e+006 -1.4126e+006 163474 203926,204004,203952
 4.0000e+001 204205 -6.7517e+005 -4.1536e+006 -9.0063e+005 163034 204104,204156,204130
 4.0000e+001 204182 -1.2494e+006 -8.7586e+006 -4.9719e+006 163034 204078,204156,204104
 4.0000e+001 204357 -3.3986e+005 -5.4642e+006  7.9433e+005 162624 204256,204308,204282
 4.0000e+001 204334  5.1051e+004 -8.4051e+005  1.6993e+004 162624 204230,204308,204256
 4.0000e+001 204509 -1.5444e+004 -1.1613e+005  4.5029e+004 162200 204382,204434,204408
 4.0000e+001 204486 -1.6567e+004 -7.9436e+004  3.1998e+004 162200 204382,204460,204434
 4.0000e+001 204710 -1.2251e+005 -1.9199e+006 -4.7264e+004 161810 204560,204638,204586
 4.0000e+001 204687  3.3935e+004 -2.8931e+006 -1.0237e+006 161810 204534,204638,204560
 4.0000e+001 204664 -3.5429e+005 -1.9436e+006 -4.2496e+005 161810 204586,204638,204612
 4.0000e+001 204862 -1.1425e+006 -5.6841e+006 -2.0764e+006 161406 204735,204787,204761
 4.0000e+001 204839 -2.4868e+006 -4.9448e+006 -2.3272e+006 161406 204735,204813,204787
 4.0000e+001 205014  1.6726e+003 -6.3554e+004  9.1828e+003 161180 204887,204939,204913
 4.0000e+001 204991 -5.2740e+003 -3.3021e+004 -4.7018e+003 161180 204887,204965,204939
 4.0000e+001 205215  5.3290e+005 -1.3966e+006 -2.1765e+005 160726 205039,205091,205065
 4.0000e+001 205192 -6.3143e+005 -5.9385e+006 -5.7390e+005 160726 205039,205143,205091
 4.0000e+001 205169 -5.7958e+004 -7.4952e+005 -4.1867e+004 160726 205091,205143,205117
 4.0000e+001 205416  6.1542e+004 -2.3043e+006  8.4439e+005 160272 205292,205344,205318
 4.0000e+001 205393 -4.2377e+005 -4.7270e+005  5.1558e+005 160272 205240,205344,205292
 4.0000e+001 205370 -2.8294e+005 -2.3199e+005  8.5736e+004 160272 205240,205292,205266
 4.0000e+001 205568 -4.1835e+003 -9.0882e+004  4.5568e+003 159932 205441,205493,205467
 4.0000e+001 205545 -1.0365e+004 -7.3276e+004  1.1932e+004 159932 205441,205519,205493
 4.0000e+001 205720 -1.4429e+004 -8.9298e+004  4.0887e+004 159542 205593,205645,205619
 4.0000e+001 205697 -3.0811e+004 -1.2670e+005  5.4413e+004 159542 205593,205671,205645
 4.0000e+001 205872  1.5408e+004 -2.8050e+004 -9.3366e+003 159252 205745,205797,205771
 4.0000e+001 205849 -1.8893e+003 -9.0040e+004  2.8138e+003 159252 205745,205823,205797
 4.0000e+001 206024 -2.9313e+006 -3.7490e+006 -1.4410e+006 159004 205923,205975,205949
 4.0000e+001 206001 -8.5312e+005 -2.8943e+006 -5.6449e+004 159004 205897,205975,205923
 4.0000e+001 206127 -1.3616e+006 -1.1268e+006 -1.5248e+003 158364 206049,206101,206075
 4.0000e+001 206328  1.4349e+004 -4.7114e+004  3.2157e+004 157960 206178,206256,206204
 4.0000e+001 206305  2.3891e+004 -7.4834e+004 -1.5495e+004 157960 206152,206256,206178
 4.0000e+001 206282 -2.1009e+004 -3.4524e+004  1.9120e+004 157960 206204,206256,206230
 4.0000e+001 206529 -5.6459e+005 -1.1198e+007  3.8308e+005 157648 206405,206457,206431
 4.0000e+001 206506 -4.3984e+006 -7.2326e+006 -1.1260e+006 157648 206379,206457,206405
 4.0000e+001 206483 -1.7433e+006 -5.4929e+006  5.0011e+005 157648 206353,206457,206379
 4.0000e+001 206730  9.9926e+005 -9.6457e+006 -1.6826e+003 157208 206554,206606,206580
 4.0000e+001 206707  7.5764e+005 -1.0716e+007  1.4705e+006 157208 206554,206632,206606
 4.0000e+001 206684 -5.6776e+006 -1.2651e+006 -2.3309e+006 157208 206554,206658,206632
 4.0000e+001 206882 -5.0920e+003 -2.4008e+004 -5.0296e+003 157010 206755,206807,206781
 4.0000e+001 206859  2.3313e+003 -6.5217e+004  1.1484e+004 157010 206755,206833,206807
 4.0000e+001 207034 -1.2543e+005 -3.8108e+006 -7.9629e+004 156620 206907,206959,206933
 4.0000e+001 207011  1.0996e+005 -6.5343e+006  5.5279e+004 156620 206907,206985,206959
 4.0000e+001 207186 -3.1766e+003 -2.1202e+006  8.3226e+004 156330 207085,207137,207111
 4.0000e+001 207163 -2.7848e+005 -2.2816e+006 -8.6206e+005 156330 207059,207137,207085
 4.0000e+001 207387 -8.7378e+005 -5.5757e+006  1.8622e+006 155890 207211,207289,207237
 4.0000e+001 207364 -7.5191e+005 -5.7437e+006 -1.1921e+006 155890 207211,207315,207289
 4.0000e+001 207341 -1.3530e+006 -5.2084e+006  2.0542e+006 155890 207237,207289,207263
 4.0000e+001 207588  9.4962e+005 -2.6926e+007  7.6360e+006 155436 207438,207490,207464
 4.0000e+001 207565 -1.8512e+005 -2.1127e+007 -9.6628e+005 155436 207412,207490,207438
 4.0000e+001 207542 -1.9625e+006 -1.2354e+007 -1.1887e+006 155436 207412,207516,207490
 4.0000e+001 207789  2.4504e+006 -4.0952e+007 -2.9329e+006 155260 207639,207691,207665
 4.0000e+001 207766 -4.6545e+006 -1.4102e+007  5.3644e+006 155260 207613,207691,207639
 4.0000e+001 207743 -8.0099e+005 -1.1063e+007 -1.9077e+005 155260 207613,207717,207691
 4.0000e+001 207990  2.4898e+002 -5.6407e+003  9.8704e+002 154920 207840,207918,207892
 4.0000e+001 207967  2.4926e+002 -6.3334e+003 -1.7020e+003 154920 207814,207918,207840
 4.0000e+001 207944 -5.8896e+002 -1.6217e+003 -1.1818e+003 154920 207840,207892,207866
 4.0000e+001 208191 -4.7071e+005 -9.9289e+006 -1.9496e+006 154630 208015,208093,208041
 4.0000e+001 208168  7.8193e+003 -5.8288e+006 -1.6925e+006 154630 208015,208119,208093
 4.0000e+001 208145 -2.8331e+006 -5.0839e+006 -3.7957e+006 154630 208041,208093,208067
 4.0000e+001 208343  7.3552e-002  2.2787e-004  4.0939e-003 154240 208216,208268,208242
 4.0000e+001 208320 -1.4063e-001 -4.3568e-004 -7.8275e-003 154240 208216,208294,208268
 4.0000e+001 208495  3.2072e+006 -3.0491e+007 -7.5338e+006 153950 208394,208446,208420
 4.0000e+001 208472 -2.3701e+006 -1.3284e+007  4.2726e+006 153950 208368,208446,208394
 4.0000e+001 208647 -1.4233e+006 -1.4402e+007  9.1879e+006 153603 208520,208572,208546
 4.0000e+001 208624 -5.4843e+006 -5.4128e+006 -4.7509e+006 153603 208520,208598,208572
 4.0000e+001 208848 -3.7314e+005 -3.3696e+006  1.2990e+006 153149 208698,208776,208724
 4.0000e+001 208825  5.0566e+005 -7.4797e+006 -7.7293e+005 153149 208672,208776,208698
 4.0000e+001 208802 -1.3747e+006 -1.9824e+006  8.9007e+005 153149 208724,208776,208750
 4.0000e+001 209000 -1.2029e+006 -1.0521e+007 -3.6192e+005 152859 208873,208925,208899
 4.0000e+001 208977 -7.7141e+004 -1.6655e+007  5.8018e+005 152859 208873,208951,208925
 4.0000e+001 209152  8.3145e+005 -1.4469e+007 -3.5555e+005 152569 209051,209103,209077
 4.0000e+001 209129  6.2419e+005 -1.4917e+007 -6.3213e+005 152569 209025,209103,209051
 4.0000e+001 209304 -3.1909e-001 -4.4371e-001 -3.7627e-001 152065 209177,209229,209203
 4.0000e+001 209281  7.2938e-001  1.0142e+000  8.6009e-001 152065 209177,209255,209229
 4.0000e+001 209456  6.6627e+005 -1.1864e+007 -9.4273e+004 151775 209355,209407,209381
 4.0000e+001 209433  1.3207e+006 -1.7001e+007 -1.5659e+005 151775 209329,209407,209355
 4.0000e+001 209608 -7.6952e+005 -1.5619e+007 -4.6824e+005 151371 209481,209533,209507
 4.0000e+001 209585  7.9952e+005 -2.0400e+007  9.1698e+005 151371 209481,209559,209533
 4.0000e+001 209760 -5.3374e+005 -5.9484e+006 -1.7290e+005 150981 209659,209711,209685
 4.0000e+001 209737 -1.1494e+006 -7.6017e+006 -4.4537e+006 150981 209633,209711,209659
 4.0000e+001 209912  2.8593e+006 -4.1645e+007 -3.4654e+006 150619 209811,209863,209837
 4.0000e+001 209889 -3.4168e+006 -1.9036e+007  4.3279e+006 150619 209785,209863,209811
 4.0000e+001 210064 -1.0692e+006 -1.7250e+006 -9.7768e+005 150279 209937,209989,209963
 4.0000e+001 210041  5.8036e+005 -1.4488e+007 -3.5339e+006 150279 209937,210015,209989
 4.0000e+001 210265 -9.8953e+005 -1.6861e+007  6.3339e+005 149989 210115,210167,210141
 4.0000e+001 210242 -5.2271e+005 -1.8345e+007 -1.0226e+006 149989 210115,210193,210167
 4.0000e+001 210219  5.8802e+005 -1.9660e+007 -3.0602e+005 149989 210089,210193,210115
 4.0000e+001 210417 -5.7478e+006 -4.0330e+006 -9.8978e+004 149599 210316,210368,210342
 4.0000e+001 210394 -3.1115e+006 -1.2943e+007 -1.3164e+006 149599 210290,210368,210316
 4.0000e+001 210618 -3.9804e+006 -1.4064e+007  4.9306e+006 149095 210468,210520,210494
 4.0000e+001 210595 -3.8327e+006 -1.3645e+007  6.6399e+005 149095 210442,210520,210468
 4.0000e+001 210572 -2.4321e+006 -2.7112e+007  2.5317e+006 149095 210442,210546,210520
 4.0000e+001 210819  1.3228e+002 -4.7365e+002  1.1973e+002 148748 210695,210747,210721
 4.0000e+001 210796 -8.3570e+001 -2.2481e+003  2.1946e+002 148748 210669,210747,210695
 4.0000e+001 210773 -1.1234e+003 -1.1460e+003  1.2008e+003 148748 210643,210747,210669
 4.0000e+001 210971  6.4357e+000 -3.1640e+002  5.3928e+001 148408 210870,210922,210896
 4.0000e+001 210948  1.7223e+001 -4.8450e+002  8.9224e+001 148408 210844,210922,210870
 4.0000e+001 211123 -7.5621e+005 -1.2212e+007  1.2057e+006 148118 210996,211048,211022
 4.0000e+001 211100  1.9004e+005 -1.5083e+007  5.5599e+006 148118 210996,211074,211048
 4.0000e+001 211275 -3.3733e+006 -1.0043e+007  4.9385e+005 147778 211148,211200,211174
 4.0000e+001 211252 -1.0686e+005 -2.4481e+007  9.8412e+006 147778 211148,211226,211200
 4.0000e+001 211427 -2.0459e+006 -7.0349e+006  2.7638e+006 147324 211326,211378,211352
 4.0000e+001 211404  1.0698e+006 -1.4032e+007  6.3161e+005 147324 211300,211378,211326
 4.0000e+001 211628  3.5285e+001 -3.6069e+003  1.2305e+002 147012 211452,211504,211478
 4.0000e+001 211605 -2.1306e+002 -4.6015e+003  2.3777e+002 147012 211452,211556,211504
 4.0000e+001 211582 -1.4892e+002 -5.4505e+003  5.9839e+002 147012 211504,211556,211530
 4.0000e+001 211829 -3.6198e+006 -6.7085e+006  2.9466e+006 146636 211679,211757,211731
 4.0000e+001 211806  4.5085e+006 -2.2125e+007 -1.4391e+006 146636 211653,211757,211679
 4.0000e+001 211783  1.3578e+006 -7.3263e+006  4.5146e+006 146636 211679,211731,211705
 4.0000e+001 211981  8.4716e-001  4.1328e-002 -5.3129e-001 146246 211880,211932,211906
 4.0000e+001 211958 -8.1375e-001 -1.0286e+000 -2.0028e-001 146246 211854,211932,211880
 4.0000e+001 212133 -7.8267e+002 -7.9484e+002 -6.9314e+002 145956 212006,212058,212032
 4.0000e+001 212110 -2.4716e+002 -2.2008e+003  8.2281e+001 145956 212006,212084,212058
 4.0000e+001 212285 -2.2986e+002  7.3923e+001 -3.6809e+001 145544 212184,212236,212210
 4.0000e+001 212262 -1.7761e+002 -7.4298e+000  1.7188e+001 145544 212158,212236,212184
 4.0000e+001 212486  1.3946e+006 -1.5886e+007  2.1371e+006 144990 212362,212414,212388
 4.0000e+001 212463  4.4062e+004 -1.0823e+007  4.6124e+006 144990 212310,212414,212362
 4.0000e+001 212440 -3.2889e+006 -2.5800e+006  2.1264e+006 144990 212310,212362,212336
 4.0000e+001 212638 -5.0580e+002 -1.6587e+005  3.5110e+004 144600 212537,212589,212563
 4.0000e+001 212615 -3.9934e+003 -1.6787e+005  5.8505e+004 144600 212511,212589,212537
 4.0000e+001 212839 -4.5023e+004 -7.3159e+005 -1.1302e+005 144210 212689,212741,212715
 4.0000e+001 212816  1.3186e+003 -8.8346e+005  2.7606e+004 144210 212663,212741,212689
 4.0000e+001 212793  4.5183e+004 -5.9809e+005 -2.0238e+004 144210 212663,212767,212741
 4.0000e+001 212991 -7.5657e+002 -1.0690e+003  7.4344e+002 143920 212890,212942,212916
 4.0000e+001 212968  7.4354e+002 -5.9939e+003  6.6250e+002 143920 212864,212942,212890
 4.0000e+001 213143 -4.5864e+001  2.3586e+002 -3.5136e+001 143480 213016,213068,213042
 4.0000e+001 213120 -6.7212e+001  8.6829e+001  1.0639e+002 143480 213016,213094,213068
 4.0000e+001 213295 -2.6296e+006 -8.4837e+006  5.9054e+006 142990 213194,213246,213220
 4.0000e+001 213272 -3.5443e+006 -2.8828e+006  1.9833e+006 142990 213168,213246,213194
 4.0000e+001 213447 -3.3650e+005 -3.6244e+006  5.4197e+005 142600 213320,213372,213346
 4.0000e+001 213424 -6.3105e+005 -2.1548e+006 -6.2206e+005 142600 213320,213398,213372
 4.0000e+001 213599 -9.1017e+004 -3.6253e+005 -1.8990e+005 142260 213472,213524,213498
 4.0000e+001 213576 -3.7894e+004 -4.3089e+005  9.4035e+004 142260 213472,213550,213524
 4.0000e+001 213751 -6.5616e+005 -1.1827e+006 -2.5229e+005 141870 213624,213676,213650
 4.0000e+001 213728 -9.3381e+005 -6.5150e+005 -1.0919e+006 141870 213624,213702,213676
 4.0000e+001 213903 -1.2722e+006 -2.5077e+006 -1.7758e+006 141530 213776,213828,213802
 4.0000e+001 213880 -5.7622e+005 -2.7930e+006 -1.1855e+006 141530 213776,213854,213828
 4.0000e+001 214055 -3.7290e+001 -1.5976e+003 -1.3108e+002 141218 213928,213980,213954
 4.0000e+001 214032  6.6396e+002 -2.9859e+003  7.8479e+001 141218 213928,214006,213980
 4.0000e+001 214207  3.0812e+002 -6.0184e+002 -2.8301e+002 140928 214080,214132,214106
 4.0000e+001 214184  9.4496e+002 -4.2606e+002 -4.7189e+002 140928 214080,214158,214132
 4.0000e+001 214359 -3.7963e+005 -2.9566e+005 -4.0352e+005 140538 214232,214284,214258
 4.0000e+001 214336  2.0949e+005 -1.1038e+006  2.3341e+005 140538 214232,214310,214284
 4.0000e+001 214560 -3.7280e+004 -2.8204e+006  2.4214e+004 140248 214384,214462,214410
 4.0000e+001 214537  2.0265e+005 -1.2098e+006 -7.1730e+004 140248 214384,214488,214462
 4.0000e+001 214514 -2.9541e+005 -1.7293e+006 -3.9639e+005 140248 214410,214462,214436
 4.0000e+001 214712 -7.5776e+005 -8.7110e+006  1.8765e+006 140000 214611,214663,214637
 4.0000e+001 214689 -9.9915e+005 -4.7485e+006  1.3485e+006 140000 214585,214663,214611
 4.0000e+001 214913 -5.5827e+005 -2.0373e+006 -1.2868e+006 139596 214737,214815,214763
 4.0000e+001 214890 -5.2650e+005 -3.9097e+005 -2.0985e+005 139596 214737,214841,214815
 4.0000e+001 214867  4.8833e+005 -4.4657e+006 -7.8783e+005 139596 214763,214815,214789
 4.0000e+001 215016 -1.3210e+003 -2.1713e+002 -3.0704e+002 139420 214938,214990,214964
 4.0000e+001 215168 -1.6472e+006 -1.0642e+007  4.0280e+006 139130 215067,215119,215093
 4.0000e+001 215145 -9.0710e+005 -1.0804e+007  2.5528e+006 139130 215041,215119,215067
 4.0000e+001 215320 -1.3096e+006 -4.4791e+006  2.0706e+006 138790 215219,215271,215245
 4.0000e+001 215297 -2.1063e+005 -1.2008e+007  3.7975e+006 138790 215193,215271,215219
 4.0000e+001 215472 -2.4036e+004 -2.1710e+005  6.7575e+004 138514 215345,215397,215371
 4.0000e+001 215449  1.3079e+004 -2.2717e+005  7.5997e+004 138514 215345,215423,215397
 4.0000e+001 215624 -3.8855e+004 -1.0272e+007  8.9061e+005 138174 215497,215549,215523
 4.0000e+001 215601  6.7457e+004 -8.1560e+006  5.4457e+005 138174 215497,215575,215549
 4.0000e+001 215776 -3.7175e+005 -1.9781e+006  1.1430e+006 137734 215649,215701,215675
 4.0000e+001 215753 -9.6723e+004 -1.2964e+006 -1.8968e+005 137734 215649,215727,215701
 4.0000e+001 215977 -3.9027e+005 -2.0387e+007  5.4274e+006 137344 215801,215879,215827
 4.0000e+001 215954 -1.3058e+006 -8.9018e+006 -3.2400e+006 137344 215801,215905,215879
 4.0000e+001 215931 -3.1929e+004 -2.7953e+007 -4.5725e+005 137344 215827,215879,215853
 4.0000e+001 216129 -4.7146e+005 -6.7302e+006 -4.0777e+005 136940 216028,216080,216054
 4.0000e+001 216106 -7.6193e+005 -7.3875e+006 -6.8947e+005 136940 216002,216080,216028
 4.0000e+001 216330 -3.7838e+005 -9.0093e+006  1.3292e+006 136600 216180,216232,216206
 4.0000e+001 216307 -2.8071e+005 -9.1224e+006  1.9675e+006 136600 216154,216232,216180
 4.0000e+001 216284 -1.7504e+006 -6.4170e+006  7.7230e+005 136600 216154,216258,216232
 4.0000e+001 216482  1.0032e+006 -7.0117e+006  7.6218e+005 136260 216381,216433,216407
 4.0000e+001 216459  5.1459e+005 -8.1078e+006  3.4902e+005 136260 216355,216433,216381
 4.0000e+001 216634 -9.0585e+005 -8.2519e+006  2.5248e+006 135970 216533,216585,216559
 4.0000e+001 216611 -5.0114e+005 -1.0814e+007  2.8501e+006 135970 216507,216585,216533
 4.0000e+001 216835 -9.4329e+005 -3.9054e+006 -1.4610e+006 135608 216685,216763,216711
 4.0000e+001 216812 -2.3956e+005 -2.5666e+006  2.8328e+005 135608 216659,216763,216685
 4.0000e+001 216789 -6.3658e+005 -1.1377e+007  2.0844e+005 135608 216711,216763,216737
 4.0000e+001 217036 -1.4934e+006 -2.5816e+006  8.6727e+005 135312 216912,216964,216938
 4.0000e+001 217013 -1.0520e+006 -5.7359e+006  2.8442e+006 135312 216886,216964,216912
 4.0000e+001 216990  7.3049e+005 -9.7124e+006  1.9432e+006 135312 216860,216964,216886
 4.0000e+001 217237 -4.1507e+004 -3.9493e+005  1.5600e+005 134908 217061,217139,217113
 4.0000e+001 217214 -1.2698e+004 -3.7237e+005  9.1940e+004 134908 217061,217165,217139
 4.0000e+001 217191  4.4809e+004 -5.9224e+005  2.2009e+005 134908 217061,217113,217087
 4.0000e+001 217438 -2.2259e+006 -2.5343e+007  1.5057e+006 134568 217288,217366,217314
 4.0000e+001 217415  2.3309e+006 -3.6717e+007  1.4511e+006 134568 217262,217366,217288
 4.0000e+001 217392 -1.9489e+005 -2.3558e+007 -3.7939e+005 134568 217314,217366,217340
 4.0000e+001 217590 -2.0236e+004 -2.1813e+005  2.0159e+004 134106 217463,217515,217489
 4.0000e+001 217567 -3.3759e+004 -2.8053e+005  1.1179e+005 134106 217463,217541,217515
 4.0000e+001 217791 -2.1364e+006 -3.3497e+007 -8.8682e+006 133816 217641,217693,217667
 4.0000e+001 217768  3.8000e+006 -3.7963e+007  4.0506e+006 133816 217641,217719,217693
 4.0000e+001 217745 -7.6003e+006 -3.8024e+006  5.3593e+006 133816 217615,217719,217641
 4.0000e+001 217992 -3.0747e+006 -5.4242e+006  4.1601e+006 133355 217842,217920,217894
 4.0000e+001 217969  9.4669e+005 -1.6013e+007 -9.5038e+005 133355 217816,217920,217842
 4.0000e+001 217946  2.9422e+004 -3.0541e+006  8.1648e+005 133355 217842,217894,217868
 4.0000e+001 218193 -4.4597e+005 -7.7296e+006 -3.8899e+006 132851 218017,218095,218069
 4.0000e+001 218170 -2.8522e+006 -1.0942e+007  7.2908e+006 132851 218017,218121,218095
 4.0000e+001 218147 -4.0354e+006 -5.9166e+006 -3.0007e+006 132851 218017,218069,218043
 4.0000e+001 218345 -2.3980e+005 -2.8188e+006  7.6550e+005 132511 218244,218296,218270
 4.0000e+001 218322 -2.1455e+005 -3.2564e+006  8.4719e+005 132511 218218,218296,218244
 4.0000e+001 218497  8.6534e+004 -3.6288e+007 -2.5566e+006 132235 218396,218448,218422
 4.0000e+001 218474 -2.2253e+006 -1.0990e+007  2.0200e+005 132235 218370,218448,218396
 4.0000e+001 218698 -5.7747e+005 -1.4011e+007 -1.0083e+005 131945 218574,218626,218600
 4.0000e+001 218675 -2.4673e+006 -2.2302e+007  2.1242e+005 131945 218522,218626,218574
 4.0000e+001 218652 -1.4674e+006 -1.7269e+007 -1.6260e+006 131945 218522,218574,218548
 4.0000e+001 218850 -5.5865e+005 -2.3623e+007 -1.6846e+006 131655 218723,218775,218749
 4.0000e+001 218827 -1.3848e+005 -1.4410e+007 -1.0405e+006 131655 218723,218801,218775
 4.0000e+001 218953 -3.2184e+005 -4.9295e+006  6.9204e+005 131215 218875,218927,218901
 4.0000e+001 219105 -2.9798e+005 -7.4680e+006 -1.8528e+006 130875 218978,219030,219004
 4.0000e+001 219082 -6.0823e+005 -2.3762e+006 -4.9680e+005 130875 218978,219056,219030
 4.0000e+001 219306 -1.1223e+005 -5.6134e+006 -6.5381e+005 130429 219156,219234,219208
 4.0000e+001 219283 -5.7417e+005 -2.4345e+006 -9.7515e+003 130429 219130,219234,219156
 4.0000e+001 219260 -2.6317e+006 -6.4425e+006  1.7433e+006 130429 219156,219208,219182
 4.0000e+001 219507 -1.2970e+004 -1.4644e+006  5.2552e+004 130025 219383,219435,219409
 4.0000e+001 219484  2.0571e+004 -1.4860e+006  1.1040e+005 130025 219331,219435,219383
 4.0000e+001 219461 -1.6595e+005 -7.1623e+005 -2.0238e+005 130025 219331,219383,219357
 4.0000e+001 219659 -1.4548e+006 -7.4226e+006  6.4679e+005 129685 219558,219610,219584
 4.0000e+001 219636  8.7548e+004 -1.2619e+007 -5.9489e+006 129685 219532,219610,219558
 4.0000e+001 219860  8.3765e+004 -4.0078e+006  1.0207e+006 129395 219710,219788,219762
 4.0000e+001 219837 -1.0942e+006 -2.7405e+006  4.2345e+005 129395 219684,219788,219710
 4.0000e+001 219814  7.8391e+005 -6.4271e+006 -7.8908e+005 129395 219710,219762,219736
 4.0000e+001 220061  2.5319e+005 -4.6815e+006  3.3536e+005 128991 219937,219989,219963
 4.0000e+001 220038 -1.3934e+004 -4.4119e+006  2.8678e+005 128991 219885,219989,219937
 4.0000e+001 220015 -6.1799e+004 -4.9108e+006  5.5790e+005 128991 219885,219937,219911
 4.0000e+001 220262 -5.0327e+005 -3.2074e+006  1.7835e+005 128701 220086,220164,220112
 4.0000e+001 220239 -5.4574e+005 -3.8940e+006  4.8163e+005 128701 220086,220190,220164
 4.0000e+001 220216 -2.7355e+005 -3.3188e+006 -9.5811e+004 128701 220112,220164,220138
 4.0000e+001 220463 -3.3234e+006 -9.6054e+006  3.6193e+006 128297 220339,220391,220365
 4.0000e+001 220440  2.5073e+006 -2.1626e+007  7.6411e+005 128297 220313,220391,220339
 4.0000e+001 220417 -1.8798e+005 -2.5950e+007 -5.7414e+006 128297 220287,220391,220313
 4.0000e+001 220615 -1.3840e+006 -4.0839e+006 -1.1118e+006 128007 220488,220540,220514
 4.0000e+001 220592  1.2519e+006 -1.3252e+007  2.5348e+005 128007 220488,220566,220540
 4.0000e+001 220767 -2.4955e+004 -4.2216e+006  2.4176e+005 127567 220640,220692,220666
 4.0000e+001 220744 -5.6006e+004 -2.3847e+006  9.8557e+004 127567 220640,220718,220692
 4.0000e+001 220919 -7.2173e+005 -1.9397e+007 -2.2858e+006 127163 220792,220844,220818
 4.0000e+001 220896  1.7250e+006 -2.2859e+007  1.9425e+006 127163 220792,220870,220844
 4.0000e+001 221071 -1.0934e+006 -3.5618e+006  1.2355e+006 126915 220970,221022,220996
 4.0000e+001 221048 -6.1069e+005 -4.7386e+006  9.0615e+005 126915 220944,221022,220970
 4.0000e+001 221272 -1.8254e+006 -4.1815e+006  2.8929e+006 126461 221122,221174,221148
 4.0000e+001 221249 -4.8775e+006 -5.4437e+006  1.1913e+006 126461 221122,221200,221174
 4.0000e+001 221226  1.2233e+006 -1.5123e+007 -3.0716e+006 126461 221096,221200,221122
 4.0000e+001 221375  4.6744e+001 -1.1986e+005 -1.4766e+002 126213 221297,221349,221323
 4.0000e+001 221478 -4.6586e+002 -4.4721e+004 -8.6644e+001 125766 221400,221452,221426
 4.0000e+001 221679 -1.1068e+005 -2.9639e+006  2.7396e+005 125212 221503,221555,221529
 4.0000e+001 221656 -1.9185e+005 -3.8581e+006  2.8258e+004 125212 221503,221581,221555
 4.0000e+001 221633  3.4720e+005 -7.1881e+006  1.6019e+006 125212 221503,221607,221581
 4.0000e+001 221929  1.6866e-002 -9.4398e-002 -6.9773e-002 124872 221782,221834,221808
 4.0000e+001 221906  7.7675e-001 -1.7702e-001  2.1540e-001 124872 221756,221834,221782
 4.0000e+001 221883  2.7037e-001 -1.0400e-001  3.5315e-001 124872 221704,221834,221756
 4.0000e+001 221860 -6.9756e-001 -1.3244e-001 -1.9621e-001 124872 221704,221756,221730
 4.0000e+001 222130 -6.9789e+005 -1.1120e+007 -1.3544e+006 124582 221980,222058,222006
 4.0000e+001 222107 -2.4710e+006 -1.1056e+007 -1.1480e+006 124582 221954,222058,221980
 4.0000e+001 222084 -2.0076e+006 -1.2573e+007 -2.1808e+006 124582 222006,222058,222032
 4.0000e+001 222282 -2.7190e+006 -1.3381e+007 -4.0173e+006 124192 222181,222233,222207
 4.0000e+001 222259 -1.2414e+006 -1.1938e+007 -2.5861e+006 124192 222155,222233,222181
 4.0000e+001 222483 -1.6745e+005 -3.5175e+006 -1.2544e+006 123702 222333,222385,222359
 4.0000e+001 222460 -2.5948e+005 -2.6170e+006 -1.4623e+004 123702 222333,222411,222385
 4.0000e+001 222437 -2.3497e+005 -1.0559e+006 -2.9724e+005 123702 222307,222411,222333
 4.0000e+001 222635 -6.0152e+005 -1.0069e+006 -5.2379e+005 123312 222508,222560,222534
 4.0000e+001 222612  3.5832e+005 -4.9298e+006 -3.8152e+005 123312 222508,222586,222560
 4.0000e+001 222787 -5.6155e+004 -2.6189e+006 -9.7114e+004 122858 222686,222738,222712
 4.0000e+001 222764 -2.0321e+005 -2.7808e+006 -4.9598e+005 122858 222660,222738,222686
 4.0000e+001 222939 -2.2057e+005 -1.0530e+006 -2.6115e+004 122568 222812,222864,222838
 4.0000e+001 222916 -2.6881e+005 -8.3441e+005  3.1091e+005 122568 222812,222890,222864
 4.0000e+001 223091 -1.6719e+005 -2.6319e+006 -5.7806e+005 122392 222964,223016,222990
 4.0000e+001 223068  2.8602e+005 -3.0430e+006 -1.4956e+005 122392 222964,223042,223016
 4.0000e+001 223292 -2.1716e+005 -8.7921e+006 -1.0529e+006 121852 223142,223220,223194
 4.0000e+001 223269 -1.0128e+006 -8.5871e+006 -9.7959e+005 121852 223116,223220,223142
 4.0000e+001 223246 -1.9979e+005 -8.6872e+006 -1.3178e+006 121852 223142,223194,223168
 4.0000e+001 223493 -1.0619e+006 -8.6945e+006  9.1423e+004 121406 223343,223395,223369
 4.0000e+001 223470 -2.5957e+006 -7.0350e+006 -1.4755e+006 121406 223343,223421,223395
 4.0000e+001 223447 -9.5614e+005 -4.8839e+006  1.5788e+006 121406 223317,223421,223343
 4.0000e+001 223645  3.5617e+005 -1.0674e+007  1.0247e+006 121002 223544,223596,223570
 4.0000e+001 223622 -1.1528e+006 -6.0301e+006  1.2663e+006 121002 223518,223596,223544
 4.0000e+001 223846 -3.0657e+005 -9.5177e+006 -1.4102e+004 120662 223670,223748,223696
 4.0000e+001 223823  6.3423e+005 -5.6517e+006 -7.8098e+004 120662 223670,223774,223748
 4.0000e+001 223800 -1.3943e+006 -4.1044e+006 -1.6653e+006 120662 223696,223748,223722
 4.0000e+001 224047 -5.7619e+005 -5.2910e+006  1.5229e+006 120222 223897,223949,223923
 4.0000e+001 224024  8.1544e+005 -7.3517e+006 -8.7786e+005 120222 223871,223949,223897
 4.0000e+001 224001 -1.0903e+006 -4.6897e+006 -1.4079e+006 120222 223871,223975,223949
 4.0000e+001 224248  5.9234e+005 -4.7156e+006 -1.2917e+006 119875 224124,224176,224150
 4.0000e+001 224225 -1.0245e+006 -9.5888e+006 -2.4066e+006 119875 224098,224176,224124
 4.0000e+001 224202 -5.6500e+005 -1.8848e+006  1.9802e+005 119875 224072,224176,224098
 4.0000e+001 224449 -2.3887e+005 -6.0361e+006 -5.8403e+005 119677 224325,224377,224351
 4.0000e+001 224426 -6.2192e+005 -7.5714e+006 -4.0923e+005 119677 224299,224377,224325
 4.0000e+001 224403 -5.6799e+004 -1.9668e+006 -7.9719e+004 119677 224273,224377,224299
 4.0000e+001 224552 -5.5645e+005 -2.0318e+006 -3.9816e+005 119273 224474,224526,224500
 4.0000e+001 224704 -4.4618e+005 -9.7977e+006 -9.4052e+005 118983 224603,224655,224629
 4.0000e+001 224681  1.4628e+003 -1.1180e+007 -1.7499e+006 118983 224577,224655,224603
 4.0000e+001 224856 -7.5736e+005 -7.6215e+006 -6.4022e+005 118529 224755,224807,224781
 4.0000e+001 224833  1.3430e+005 -1.2963e+007 -1.8761e+006 118529 224729,224807,224755
 4.0000e+001 225008 -1.0212e+006 -1.0185e+007  1.2816e+005 118353 224881,224933,224907
 4.0000e+001 224985 -4.5535e+005 -1.0892e+006 -9.3860e+004 118353 224881,224959,224933
 4.0000e+001 225209 -4.3768e+005 -6.2976e+006 -6.2142e+005 117949 225059,225137,225111
 4.0000e+001 225186 -3.3555e+005 -6.4550e+006 -1.0089e+006 117949 225033,225137,225059
 4.0000e+001 225163  7.1847e+004 -7.3292e+006 -2.2033e+005 117949 225059,225111,225085
 4.0000e+001 225410 -1.5643e+004 -7.0520e+006  7.4010e+005 117559 225260,225338,225312
 4.0000e+001 225387 -1.0552e+006 -7.4616e+006  2.3225e+005 117559 225234,225338,225260
 4.0000e+001 225364 -5.8754e+005 -4.9595e+006 -1.7077e+006 117559 225260,225312,225286
 4.0000e+001 225611 -2.0212e+006 -1.1579e+007 -5.3503e+006 117361 225461,225513,225487
 4.0000e+001 225588  6.4485e+005 -1.2060e+007  1.2911e+006 117361 225461,225539,225513
 4.0000e+001 225565 -2.2395e+006 -7.7511e+006  4.0151e+006 117361 225435,225539,225461
 4.0000e+001 225812  3.0760e+005 -6.2213e+006 -4.5215e+005 116900 225636,225714,225662
 4.0000e+001 225789  7.8876e+005 -6.2142e+006 -6.4075e+005 116900 225636,225740,225714
 4.0000e+001 225766 -2.2918e+004 -6.3137e+006 -3.8035e+005 116900 225662,225714,225688
 4.0000e+001 225964 -1.8336e+005 -4.3674e+006 -2.2673e+005 116560 225837,225889,225863
 4.0000e+001 225941  1.3203e+005 -5.8452e+006  6.3712e+003 116560 225837,225915,225889
 4.0000e+001 226165  3.9614e+005 -6.9057e+006 -2.1054e+005 116106 226015,226093,226041
 4.0000e+001 226142 -6.9138e+005 -8.3559e+006 -4.1252e+006 116106 225989,226093,226015
 4.0000e+001 226119 -3.4401e+006 -2.3431e+006  1.3844e+006 116106 226041,226093,226067
 4.0000e+001 226268 -1.7385e+006 -7.9051e+006  5.5749e+004 115716 226190,226242,226216
 4.0000e+001 226420 -4.8387e+005 -8.5935e+006  2.0428e+006 115376 226293,226345,226319
 4.0000e+001 226397 -8.3102e+005 -8.6885e+006  2.0865e+006 115376 226293,226371,226345
 4.0000e+001 226621 -4.7865e+005 -1.7038e+006  2.5193e+005 114972 226497,226549,226523
 4.0000e+001 226598 -5.2215e+005 -9.1841e+006 -6.8965e+005 114972 226445,226549,226497
 4.0000e+001 226575  7.2844e+004 -4.3686e+006  5.9399e+005 114972 226445,226497,226471
 4.0000e+001 226773 -9.0200e+005 -2.6699e+006 -1.0957e+006 114670 226646,226698,226672
 4.0000e+001 226750  5.3455e+005 -6.4968e+006  4.2865e+005 114670 226646,226724,226698
 4.0000e+001 226974  4.2584e+004 -1.9742e+006 -4.2324e+005 114082 226798,226850,226824
 4.0000e+001 226951  1.0133e+005 -2.7642e+006 -1.3846e+005 114082 226798,226902,226850
 4.0000e+001 226928  2.6749e+004 -3.7197e+006 -3.9513e+005 114082 226850,226902,226876
 4.0000e+001 227175 -8.5061e+005 -4.2691e+006 -9.5457e+005 113678 226999,227051,227025
 4.0000e+001 227152 -1.9355e+006 -6.2112e+006 -2.6562e+006 113678 226999,227077,227051
 4.0000e+001 227129  1.6975e+005 -1.5438e+007 -4.4628e+006 113678 226999,227103,227077
 4.0000e+001 227425 -1.9177e+005 -8.5024e+006 -2.6991e+006 113274 227226,227278,227252
 4.0000e+001 227402  1.4697e+005 -8.4507e+006 -3.1148e+006 113274 227226,227330,227278
 4.0000e+001 227379 -9.7264e+005 -1.1074e+007 -4.1392e+006 113274 227200,227330,227226
 4.0000e+001 227356 -2.7338e+006 -2.7988e+006 -2.3611e+006 113274 227278,227330,227304
 4.0000e+001 227626  4.4834e+005 -6.2590e+006 -1.5659e+006 112934 227502,227554,227528
 4.0000e+001 227603  6.6528e+004 -4.1572e+006  2.6386e+005 112934 227450,227554,227502
 4.0000e+001 227580 -2.0199e+006 -2.5469e+006 -5.3679e+005 112934 227450,227502,227476
 4.0000e+001 227876 -1.2371e+005 -1.7809e+006 -1.8614e+005 112437 227677,227755,227703
 4.0000e+001 227853 -9.0777e+005 -2.1017e+006  7.7149e+005 112437 227677,227781,227755
 4.0000e+001 227830 -2.3747e+005 -9.9475e+005  2.7615e+005 112437 227703,227755,227729
 4.0000e+001 227807 -2.6231e+005 -5.2128e+006 -3.0241e+005 112437 227651,227781,227677
 4.0000e+001 228126 -7.1528e+005 -5.4474e+006  1.5254e+005 112041 227927,228005,227953
 4.0000e+001 228103 -5.9952e+005 -6.6725e+006 -5.7159e+005 112041 227927,228031,228005
 4.0000e+001 228080 -6.3817e+005 -6.1055e+006  1.8531e+005 112041 227953,228005,227979
 4.0000e+001 228057 -1.4261e+006 -4.8293e+006 -1.0861e+006 112041 227901,228031,227927
 4.0000e+001 228327 -1.3631e+006 -5.1738e+006 -1.1820e+006 111693 228151,228203,228177
 4.0000e+001 228304 -1.0238e+006 -2.8335e+006 -1.5592e+006 111693 228151,228229,228203
 4.0000e+001 228281  2.9332e+005 -5.3391e+006  2.7313e+005 111693 228151,228255,228229
 4.0000e+001 228479 -3.2432e+006 -8.1610e+006 -4.6832e+006 111253 228352,228404,228378
 4.0000e+001 228456 -2.3641e+006 -5.1938e+006 -1.0818e+006 111253 228352,228430,228404
 4.0000e+001 228582 -2.4654e+006 -5.4317e+006 -4.7804e+005 110906 228504,228556,228530
 4.0000e+001 228783  4.0056e+004 -1.6392e+006  1.3060e+005 110416 228633,228711,228659
 4.0000e+001 228760  6.0457e+004 -1.6095e+006  1.5754e+005 110416 228607,228711,228633
 4.0000e+001 228737 -9.9559e+004 -2.8882e+006  1.6829e+005 110416 228659,228711,228685
 4.0000e+001 228935 -3.6995e+004 -4.8503e+006 -2.7373e+005 110012 228808,228860,228834
 4.0000e+001 228912 -8.3302e+005 -9.3225e+006 -1.0273e+006 110012 228808,228886,228860
 4.0000e+001 229087 -1.3536e+006 -3.7140e+006 -1.7402e+006 109672 228960,229012,228986
 4.0000e+001 229064 -5.8198e+005 -8.3855e+006 -1.5017e+005 109672 228960,229038,229012
 4.0000e+001 229190  3.1903e+004 -7.2219e+005 -2.9471e+004 109332 229112,229164,229138
 4.0000e+001 229391 -1.6787e+003 -4.7058e+005 -1.3746e+005 109156 229267,229319,229293
 4.0000e+001 229368 -1.6360e+005 -1.1809e+006 -2.1990e+005 109156 229215,229319,229267
 4.0000e+001 229345  1.1918e+004 -2.8772e+005 -5.9662e+004 109156 229215,229267,229241
 4.0000e+001 229543 -2.7738e+004 -9.2427e+006  9.7367e+005 108752 229416,229468,229442
 4.0000e+001 229520 -3.2905e+003 -9.8732e+006  1.2136e+006 108752 229416,229494,229468
 4.0000e+001 229744 -2.0992e+005 -7.6763e+006 -1.5793e+003 108198 229594,229646,229620
 4.0000e+001 229721 -7.3519e+005 -7.9113e+006  1.1942e+006 108198 229594,229672,229646
 4.0000e+001 229698 -1.3710e+005 -9.8230e+006  1.2694e+005 108198 229568,229672,229594
 4.0000e+001 229847 -1.0399e+005 -1.0336e+006 -3.1016e+005 107758 229769,229821,229795
 4.0000e+001 230048 -9.1723e+005 -3.2897e+006 -7.7206e+005 107468 229898,229950,229924
 4.0000e+001 230025 -5.2281e+005 -2.9350e+006 -2.2010e+005 107468 229872,229950,229898
 4.0000e+001 230002 -9.6224e+005 -3.1527e+006 -5.3424e+004 107468 229872,229976,229950
 4.0000e+001 230298  8.2657e+004 -1.8753e+006  5.1693e+005 107121 230099,230203,230177
 4.0000e+001 230275 -1.5901e+005 -1.5362e+006  3.9132e+005 107121 230073,230203,230099
 4.0000e+001 230252  2.6383e+005 -2.3429e+006 -9.7264e+005 107121 230099,230177,230151
 4.0000e+001 230229 -4.5447e+005 -2.3204e+006 -1.0272e+006 107121 230099,230151,230125
 4.0000e+001 230450  1.4515e+005 -1.6117e+006 -1.8193e+005 106823 230349,230401,230375
 4.0000e+001 230427 -1.0876e+005 -2.9885e+005  1.0466e+005 106823 230323,230401,230349
 4.0000e+001 230602 -7.9950e+005 -1.1211e+007 -3.5121e+006 106533 230501,230553,230527
 4.0000e+001 230579 -1.4463e+006 -1.0670e+007 -8.2349e+005 106533 230475,230553,230501
 4.0000e+001 230803 -2.1452e+005 -1.1649e+006 -2.3713e+005 106029 230679,230731,230705
 4.0000e+001 230780 -1.9837e+005 -1.1853e+006  1.5043e+005 106029 230653,230731,230679
 4.0000e+001 230757  2.8715e+005 -3.2567e+006  1.2095e+004 106029 230627,230731,230653
 4.0000e+001 231004 -2.1962e+005 -3.1727e+006  1.7593e+005 105689 230854,230906,230880
 4.0000e+001 230981  2.2239e+005 -3.9777e+006 -7.3076e+005 105689 230828,230906,230854
 4.0000e+001 230958 -7.0201e+005 -3.0634e+006 -1.4665e+006 105689 230828,230932,230906
 4.0000e+001 231156 -1.3281e+006 -4.1525e+006  1.4332e+006 105377 231055,231107,231081
 4.0000e+001 231133  4.8302e+005 -1.1668e+007 -6.3959e+005 105377 231029,231107,231055
 4.0000e+001 231406 -8.7275e+005 -8.2425e+006  9.5214e+003 104858 231207,231259,231233
 4.0000e+001 231383 -2.2540e+006 -7.9216e+006 -8.1062e+005 104858 231207,231311,231259
 4.0000e+001 231360 -1.2412e+006 -1.2611e+007 -1.8668e+006 104858 231259,231311,231285
 4.0000e+001 231337 -2.3976e+005 -1.1231e+007 -1.3522e+006 104858 231181,231311,231207
 4.0000e+001 231558 -1.4608e+006 -8.8083e+006  5.4867e+006 104418 231457,231509,231483
 4.0000e+001 231535 -3.0965e+005 -9.4465e+006 -4.1069e+006 104418 231431,231509,231457
 4.0000e+001 231710 -1.0201e+006 -1.3534e+006 -4.1138e+005 103978 231583,231635,231609
 4.0000e+001 231687 -1.0586e+006 -8.3348e+005 -4.3789e+005 103978 231583,231661,231635
 4.0000e+001 231862 -1.0985e+004 -1.4489e+006 -1.2273e+005 103588 231761,231813,231787
 4.0000e+001 231839  1.8359e+004 -1.3558e+006 -1.0012e+005 103588 231735,231813,231761
 4.0000e+001 232014 -2.2594e+006 -6.8134e+006 -2.1398e+006 103248 231887,231939,231913
 4.0000e+001 231991 -4.8148e+005 -1.7021e+007 -5.5680e+006 103248 231887,231965,231939
 4.0000e+001 232215 -1.6024e+005 -2.9197e+006  4.9255e+005 102844 232039,232117,232065
 4.0000e+001 232192  7.9560e+004 -3.3995e+006 -1.6460e+005 102844 232039,232143,232117
 4.0000e+001 232169 -2.7392e+005 -1.7610e+006 -3.0767e+005 102844 232065,232117,232091
 4.0000e+001 232416 -3.7793e+006 -9.7550e+006 -2.8519e+006 102554 232240,232318,232292
 4.0000e+001 232393  1.0096e+006 -1.4463e+007 -1.4783e+004 102554 232240,232344,232318
 4.0000e+001 232370 -4.0897e+006 -4.0647e+006 -1.0672e+006 102554 232240,232292,232266
 4.0000e+001 232568 -4.0697e+004 -3.8427e+006 -3.5632e+004 102100 232441,232493,232467
 4.0000e+001 232545 -5.3393e+005 -3.9390e+006 -6.0784e+004 102100 232441,232519,232493
 4.0000e+001 232769 -1.2364e+005 -1.3040e+006 -1.7694e+005 101596 232645,232697,232671
 4.0000e+001 232746 -8.6030e+004 -1.1419e+006 -2.4542e+005 101596 232593,232697,232645
 4.0000e+001 232723  1.5293e+005 -2.9429e+006 -2.8128e+005 101596 232593,232645,232619
 4.0000e+001 232921 -3.1634e+001 -8.4817e+002 -1.0142e+001 101420 232794,232846,232820
 4.0000e+001 232898  2.4108e+001 -3.7056e+002  8.1716e+000 101420 232794,232872,232846
 4.0000e+001 233073 -1.2995e+006 -2.2548e+006 -7.3983e+005 101023 232946,232998,232972
 4.0000e+001 233050  6.3256e+005 -5.4996e+006  1.7269e+006 101023 232946,233024,232998
 4.0000e+001 233225 -3.1757e+005 -2.8122e+006  3.0022e+003 100661 233098,233150,233124
 4.0000e+001 233202  2.7750e+005 -5.8467e+006  2.0397e+005 100661 233098,233176,233150
 4.0000e+001 233426 -1.5148e+006 -7.2811e+006 -2.1941e+006 100265 233276,233328,233302
 4.0000e+001 233403 -1.4538e+006 -6.3892e+006  8.7466e+004 100265 233276,233354,233328
 4.0000e+001 233380 -1.6259e+006 -1.0734e+007 -8.5942e+005 100265 233250,233354,233276
 4.0000e+001 233578 -2.0347e+005 -1.8812e+005  1.7222e+004 100032 233451,233503,233477
 4.0000e+001 233555 -2.3240e+005 -1.9574e+005  5.8413e+004 100032 233451,233529,233503
 4.0000e+001 233681 -3.3751e+005 -5.4120e+004  4.9441e+004 99742 233603,233655,233629
 4.0000e+001 233784 -3.9585e+005 -2.8909e+006  1.6328e+004 99402 233706,233758,233732
 4.0000e+001 233936 -8.2599e+005 -2.3628e+006  2.1739e+005 99062 233835,233887,233861
 4.0000e+001 233913 -6.1452e+005 -1.4896e+006  1.1576e+005 99062 233809,233887,233835
 4.0000e+001 234088 -3.5581e+005 -4.4697e+006  1.0031e+006 98772 233987,234039,234013
 4.0000e+001 234065 -2.4485e+005 -4.4409e+006  1.0145e+006 98772 233961,234039,233987
 4.0000e+001 234240 -5.1202e+003 -2.6031e+005  3.8042e+004 98160 234139,234191,234165
 4.0000e+001 234217 -7.7774e+003 -2.7092e+005  3.7718e+004 98160 234113,234191,234139
 4.0000e+001 234441  4.8808e+001 -5.2564e+002 -2.4878e+002 97820 234317,234369,234343
 4.0000e+001 234418 -1.2144e+002 -1.2038e+003 -3.9767e+002 97820 234291,234369,234317
 4.0000e+001 234395  2.5250e+001 -4.6598e+003 -9.4389e+002 97820 234265,234369,234291
 4.0000e+001 234593 -3.9137e+005 -1.4087e+006 -2.4632e+005 97366 234466,234518,234492
 4.0000e+001 234570  1.0332e+005 -3.1406e+006 -3.6062e+005 97366 234466,234544,234518
 4.0000e+001 234794 -8.3099e+005 -1.2086e+006 -8.4996e+005 96976 234618,234670,234644
 4.0000e+001 234771 -1.0160e+005 -2.4831e+006 -7.3509e+005 96976 234618,234722,234670
 4.0000e+001 234748 -2.5079e+005 -2.2539e+006 -1.0488e+006 96976 234670,234722,234696
 4.0000e+001 234946 -7.6348e+005 -2.6601e+006  1.1815e+006 96568 234845,234897,234871
 4.0000e+001 234923 -4.9999e+005 -1.4383e+006  1.0842e+006 96568 234819,234897,234845
 4.0000e+001 235196 -1.3281e+005 -1.1592e+006  7.7831e+004 96216 234997,235075,235049
 4.0000e+001 235173 -2.7569e+005 -4.1245e+006  1.3059e+006 96216 234997,235101,235075
 4.0000e+001 235150 -7.6590e+005 -2.7426e+006  6.7378e+005 96216 234997,235049,235023
 4.0000e+001 235127 -8.3046e+004 -5.0819e+006 -1.0079e+006 96216 234971,235101,234997
 4.0000e+001 235348 -1.0350e+006 -2.9893e+006 -2.9248e+005 95863 235247,235299,235273
 4.0000e+001 235325 -1.0782e+006 -1.4847e+006 -8.1495e+005 95863 235221,235299,235247
 4.0000e+001 235500 -1.2013e+006 -2.7881e+006 -2.0127e+006 95339 235373,235425,235399
 4.0000e+001 235477 -2.5819e+005 -5.6675e+006  3.0736e+006 95339 235373,235451,235425
 4.0000e+001 235701  1.8870e+004 -3.7559e+006  1.0402e+006 95023 235525,235577,235551
 4.0000e+001 235678 -5.4782e+004 -2.6391e+006  1.5525e+005 95023 235525,235629,235577
 4.0000e+001 235655 -3.0258e+003 -3.5224e+006  3.1547e+005 95023 235577,235629,235603
 4.0000e+001 235853  8.5492e+005 -9.5745e+006  1.0792e+006 94671 235726,235778,235752
 4.0000e+001 235830 -3.0264e+005 -7.3301e+006 -6.0555e+005 94671 235726,235804,235778
 4.0000e+001 236005 -1.1663e+006 -7.1464e+006 -9.1534e+005 94261 235904,235956,235930
 4.0000e+001 235982 -1.3607e+006 -8.2177e+006 -1.9104e+006 94261 235878,235956,235904
 4.0000e+001 236206 -6.0758e+005 -5.9972e+005  1.1842e+006 93853 236056,236134,236082
 4.0000e+001 236183 -1.1059e+006 -7.5921e+005  4.3771e+005 93853 236030,236134,236056
 4.0000e+001 236160 -9.4820e+005 -1.0051e+006  9.6259e+005 93853 236082,236134,236108
 4.0000e+001 236407 -6.4354e+005 -6.0972e+006  1.4923e+005 93557 236257,236309,236283
 4.0000e+001 236384 -1.7709e+006 -6.7806e+006 -1.7193e+006 93557 236231,236309,236257
 4.0000e+001 236361 -5.9581e+005 -1.1146e+007 -2.7339e+005 93557 236231,236335,236309
 4.0000e+001 236559 -7.9187e+003 -9.6802e+004  2.7705e+004 93149 236432,236484,236458
 4.0000e+001 236536 -1.2679e+004 -8.0099e+004  1.6177e+004 93149 236432,236510,236484
 4.0000e+001 236711 -5.0903e+004 -7.5907e+004  6.2382e+004 92853 236584,236636,236610
 4.0000e+001 236688 -5.4160e+004 -7.7983e+004  6.4111e+004 92853 236584,236662,236636
 4.0000e+001 236912 -2.5322e+005 -3.6913e+006  1.4440e+006 92501 236736,236788,236762
 4.0000e+001 236889 -4.7776e+005 -2.0622e+006  5.2463e+005 92501 236736,236840,236788
 4.0000e+001 236866 -6.8879e+005 -2.9128e+006  5.6782e+005 92501 236788,236840,236814
 4.0000e+001 237113 -3.3413e+005 -4.3056e+006  4.0656e+005 92291 236963,237041,237015
 4.0000e+001 237090 -1.2506e+005 -2.8618e+006  3.5630e+005 92291 236937,237041,236963
 4.0000e+001 237067 -2.1049e+005 -3.9846e+006  9.1547e+005 92291 236963,237015,236989
 4.0000e+001 237265  1.2099e+005 -1.1342e+006 -5.0110e+005 91871 237138,237190,237164
 4.0000e+001 237242 -6.3244e+005 -2.8298e+006 -1.0887e+006 91871 237138,237216,237190
 4.0000e+001 237368 -3.5269e+002 -1.7081e+006  2.4577e+002 91581 237290,237342,237316
 4.0000e+001 237520 -1.6489e+004 -5.7228e+004 -1.5193e+003 91184 237419,237471,237445
 4.0000e+001 237497 -6.5961e+004 -1.8219e+005 -1.0931e+005 91184 237393,237471,237419
 4.0000e+001 237672 -2.1113e+005 -1.8649e+006  5.1996e+004 90894 237545,237597,237571
 4.0000e+001 237649 -7.3372e+004 -3.9601e+006  9.9768e+005 90894 237545,237623,237597
 4.0000e+001 237873 -1.2830e+006 -4.8797e+006  9.2616e+005 90490 237749,237801,237775
 4.0000e+001 237850 -6.8563e+005 -4.4343e+006  1.4380e+006 90490 237723,237801,237749
 4.0000e+001 237827 -9.2455e+005 -4.5014e+006 -5.9953e+005 90490 237697,237801,237723
 4.0000e+001 238074 -7.5599e+005 -6.2187e+006  3.5249e+005 90100 237898,237976,237950
 4.0000e+001 238051 -1.7122e+006 -6.3920e+006  3.4178e+005 90100 237898,238002,237976
 4.0000e+001 238028 -5.8767e+005 -5.8344e+006  2.2651e+005 90100 237898,237950,237924
 4.0000e+001 238275 -2.4846e+005 -3.0962e+006  9.2010e+005 89696 238125,238177,238151
 4.0000e+001 238252 -3.2133e+005 -2.2309e+006 -8.1935e+005 89696 238099,238177,238125
 4.0000e+001 238229 -4.1786e+005 -2.7348e+006 -7.2079e+005 89696 238099,238203,238177
 4.0000e+001 238427  1.3161e+004 -4.1214e+004 -1.7100e+004 89206 238326,238378,238352
 4.0000e+001 238404 -1.4156e+004 -2.3972e+005 -4.3794e+004 89206 238300,238378,238326
 4.0000e+001 238579 -1.2685e+006 -4.7377e+006  2.0860e+006 88908 238452,238504,238478
 4.0000e+001 238556 -2.8626e+005 -3.6499e+006  1.4709e+005 88908 238452,238530,238504
 4.0000e+001 238682 -4.7158e+001 -4.5301e+005 -1.2026e+002 88568 238604,238656,238630
 4.0000e+001 238883  1.3847e+005 -6.3359e+006  1.7611e+006 88278 238733,238811,238785
 4.0000e+001 238860 -7.2430e+005 -3.8856e+006  1.5692e+006 88278 238707,238811,238733
 4.0000e+001 238837 -2.3272e+005 -6.6599e+006  1.2447e+006 88278 238733,238785,238759
 4.0000e+001 239035 -1.4200e+006 -4.5750e+006 -4.1559e+005 87988 238908,238960,238934
 4.0000e+001 239012 -1.5316e+006 -2.5546e+006  1.8712e+005 87988 238908,238986,238960
 4.0000e+001 239138 -8.0509e+004 -8.8419e+005  1.9150e+004 87648 239060,239112,239086
 4.0000e+001 239339 -1.1752e+006 -3.2817e+006 -1.9684e+006 87358 239163,239215,239189
 4.0000e+001 239316 -1.1905e+006 -2.2548e+006 -5.6463e+005 87358 239163,239241,239215
 4.0000e+001 239293 -8.8357e+005 -1.2186e+006 -1.0313e+006 87358 239163,239267,239241
 4.0000e+001 239589  4.1226e+002 -6.5069e+002 -4.6299e+001 86961 239390,239468,239416
 4.0000e+001 239566 -8.2345e+002 -1.0684e+003 -3.3280e+002 86961 239390,239494,239468
 4.0000e+001 239543  5.5778e+002 -4.4618e+002  6.9506e+001 86961 239416,239468,239442
 4.0000e+001 239520 -1.0638e+003 -2.0697e+003 -6.9801e+002 86961 239364,239494,239390
 4.0000e+001 239741 -1.1630e+006 -3.8962e+006 -4.2145e+005 86621 239640,239692,239666
 4.0000e+001 239718 -3.6401e+005 -5.0610e+006 -1.2179e+006 86621 239614,239692,239640
 4.0000e+001 239893 -5.3054e+005 -5.8081e+006  1.5622e+006 86217 239792,239844,239818
 4.0000e+001 239870 -6.3144e+005 -4.9113e+006  1.1180e+006 86217 239766,239844,239792
 4.0000e+001 240045 -8.3246e+005 -4.5002e+006  7.0282e+005 85827 239918,239970,239944
 4.0000e+001 240022 -2.0574e+005 -4.3279e+006  2.4888e+005 85827 239918,239996,239970
 4.0000e+001 240197 -8.1345e+005 -8.3274e+006  9.6060e+005 85437 240096,240148,240122
 4.0000e+001 240174 -1.7488e+006 -2.4750e+006 -5.4234e+005 85437 240070,240148,240096
 4.0000e+001 240349 -1.5978e+005 -1.6951e+006  6.1045e+005 85147 240222,240274,240248
 4.0000e+001 240326 -2.3605e+005 -1.0036e+006 -4.7190e+004 85147 240222,240300,240274
 4.0000e+001 240501 -3.6366e+005 -1.4931e+006  6.3498e+005 84807 240374,240426,240400
 4.0000e+001 240478 -1.5482e+006 -1.8970e+006  9.1231e+005 84807 240374,240452,240426
 4.0000e+001 240653  1.6913e+002 -4.6921e+002 -7.4269e+001 84303 240552,240604,240578
 4.0000e+001 240630 -1.6863e+002 -1.9509e+003 -1.2636e+002 84303 240526,240604,240552
 4.0000e+001 240854 -2.0829e+005 -1.2208e+007 -5.3700e+006 83929 240704,240756,240730
 4.0000e+001 240831  1.6901e+006 -9.9978e+006  2.3724e+006 83929 240704,240782,240756
 4.0000e+001 240808 -3.3934e+006  1.6998e+006  2.8150e+006 83929 240678,240782,240704
 4.0000e+001 241055 -3.3184e+004 -2.4509e+004 -1.4381e+004 83539 240879,240957,240931
 4.0000e+001 241032 -1.4523e+005 -2.3338e+004 -5.1309e+004 83539 240879,240983,240957
 4.0000e+001 241009 -2.5561e+004 -1.3971e+004 -1.9634e+004 83539 240879,240931,240905
 4.0000e+001 241207  7.0989e+004 -2.0016e+006  2.4881e+005 83079 241106,241158,241132
 4.0000e+001 241184 -1.1566e+005 -9.2092e+005  3.3231e+005 83079 241080,241158,241106
 4.0000e+001 241408  1.1059e+006 -4.3084e+006  3.6167e+005 82665 241232,241284,241258
 4.0000e+001 241385 -1.5982e+006 -1.2946e+007 -3.7454e+006 82665 241232,241336,241284
 4.0000e+001 241362 -3.9660e+006  4.3855e+006  6.6235e+006 82665 241284,241336,241310
 4.0000e+001 241658 -1.8971e+005 -4.1983e+006  4.6069e+005 82375 241485,241563,241511
 4.0000e+001 241635  5.8513e+004 -2.7636e+006  3.1701e+005 82375 241433,241563,241485
 4.0000e+001 241612 -6.2876e+004 -3.2029e+006  3.7662e+005 82375 241433,241485,241459
 4.0000e+001 241589 -5.5764e+005 -4.8285e+006  7.4935e+005 82375 241511,241563,241537
 4.0000e+001 241810 -7.4674e+005 -3.2966e+006 -2.2503e+005 82035 241683,241735,241709
 4.0000e+001 241787 -1.0515e+006 -3.9097e+006  5.4585e+005 82035 241683,241761,241735
 4.0000e+001 241962 -7.7353e+005 -3.4241e+006  3.7856e+005 81695 241861,241913,241887
 4.0000e+001 241939 -4.0522e+005 -3.9756e+006 -6.6169e+005 81695 241835,241913,241861
 4.0000e+001 242114 -9.9703e+005 -6.5642e+006  2.3722e+006 81355 242013,242065,242039
 4.0000e+001 242091 -3.0165e+005 -4.4059e+006  1.3563e+006 81355 241987,242065,242013
 4.0000e+001 242266 -9.0348e+004 -4.8748e+005 -1.2417e+005 80951 242139,242191,242165
 4.0000e+001 242243 -2.0341e+005 -9.4077e+005 -1.2657e+005 80951 242139,242217,242191
 4.0000e+001 242467 -3.9103e+005 -4.9821e+006  5.8176e+005 80311 242291,242369,242343
 4.0000e+001 242444  2.6461e+004 -3.2351e+006  4.7689e+005 80311 242291,242395,242369
 4.0000e+001 242421 -4.4407e+005 -2.7573e+006  1.2001e+005 80311 242291,242343,242317
 4.0000e+001 242619 -1.5938e+006 -3.7816e+006  5.7684e+005 80021 242492,242544,242518
 4.0000e+001 242596 -1.4709e+006 -3.4145e+006  1.7286e+006 80021 242492,242570,242544
 4.0000e+001 242869 -3.3050e+005 -1.1638e+006  2.3385e+005 79631 242644,242722,242696
 4.0000e+001 242846 -1.0584e+005 -1.5165e+006  2.5720e+005 79631 242644,242774,242722
 4.0000e+001 242823 -1.5712e+005 -1.7731e+006  2.1083e+005 79631 242722,242774,242748
 4.0000e+001 242800 -3.5762e+005 -1.5145e+006  4.5404e+005 79631 242644,242696,242670
 4.0000e+001 243070  1.9318e+004 -1.6517e+007  3.3122e+006 79341 242920,242972,242946
 4.0000e+001 243047 -7.4809e+005 -9.6757e+006 -9.7937e+004 79341 242920,242998,242972
 4.0000e+001 243024 -1.1795e+006 -6.5086e+006  2.7712e+006 79341 242894,242998,242920
 4.0000e+001 243222 -3.1225e+005 -3.8768e+006  1.4586e+006 78801 243121,243173,243147
 4.0000e+001 243199 -7.6953e+005 -5.4530e+006  1.8558e+006 78801 243095,243173,243121
 4.0000e+001 243423 -8.5822e+005 -4.5598e+006 -5.8281e+005 78511 243273,243325,243299
 4.0000e+001 243400  6.9505e+005 -9.1406e+006  1.8029e+006 78511 243273,243351,243325
 4.0000e+001 243377 -5.7746e+003 -9.4132e+006  2.3570e+005 78511 243247,243351,243273
 4.0000e+001 243624 -3.3828e+005 -3.8745e+006 -9.6870e+005 78107 243474,243552,243526
 4.0000e+001 243601 -2.9207e+005 -3.6090e+006 -9.6898e+005 78107 243448,243552,243474
 4.0000e+001 243578 -6.8887e+005 -5.0637e+006 -2.0818e+006 78107 243474,243526,243500
 4.0000e+001 243776 -7.1256e+005 -4.0444e+006 -8.9141e+005 77653 243649,243701,243675
 4.0000e+001 243753 -1.6424e+006 -7.3543e+006 -4.1226e+005 77653 243649,243727,243701
 4.0000e+001 243977 -4.7830e+005 -5.9780e+006  1.1516e+004 77093 243801,243853,243827
 4.0000e+001 243954 -1.0100e+005 -4.8076e+006  6.5974e+005 77093 243801,243879,243853
 4.0000e+001 243931  1.5005e+005 -3.4091e+006  1.3609e+005 77093 243801,243905,243879
 4.0000e+001 244080 -1.3555e+006 -4.9809e+006  3.9583e+005 76791 244002,244054,244028
 4.0000e+001 244232 -3.1652e+005 -4.4966e+006 -2.5001e+004 76311 244131,244183,244157
 4.0000e+001 244209 -1.8828e+005 -9.0054e+006  5.2097e+005 76311 244105,244183,244131
 4.0000e+001 244433 -1.7042e+006 -1.8561e+007  3.6653e+006 75903 244283,244335,244309
 4.0000e+001 244410 -1.0110e+006 -1.4125e+007  4.1723e+005 75903 244283,244361,244335
 4.0000e+001 244387 -2.9533e+006 -1.1185e+007  2.5806e+006 75903 244257,244361,244283
 4.0000e+001 244585  5.5040e+004 -1.8002e+007  1.8633e+006 75419 244458,244510,244484
 4.0000e+001 244562 -7.2800e+005 -1.2432e+007  6.4782e+005 75419 244458,244536,244510
 4.0000e+001 244737 -4.0384e+005 -2.0556e+006 -1.6436e+005 75215 244636,244688,244662
 4.0000e+001 244714 -3.4927e+005 -3.9169e+006 -1.8261e+005 75215 244610,244688,244636
 4.0000e+001 244889 -9.9288e+005 -5.3286e+006 -4.7925e+005 74857 244788,244840,244814
 4.0000e+001 244866 -2.8940e+005 -2.6175e+006 -2.5936e+005 74857 244762,244840,244788
 4.0000e+001 245041  4.1931e+004 -2.0662e+005 -1.4544e+005 74653 244940,244992,244966
 4.0000e+001 245018 -2.3287e+004 -4.4723e+004  7.6167e+004 74653 244914,244992,244940
 4.0000e+001 245144 -4.2920e+005 -9.1526e+006 -1.6607e+006 74359 245066,245118,245092
 4.0000e+001 245296 -1.1761e+005 -1.7801e+006 -5.5352e+005 74007 245169,245221,245195
 4.0000e+001 245273 -6.4546e+005 -3.0567e+006 -9.5332e+005 74007 245169,245247,245221
 4.0000e+001 245448 -9.2916e+005 -8.7925e+006  2.1023e+006 73711 245321,245373,245347
 4.0000e+001 245425 -2.6370e+005 -8.5678e+006 -3.7465e+006 73711 245321,245399,245373
 4.0000e+001 245600  5.7563e+005 -1.4014e+007 -1.1719e+006 73301 245499,245551,245525
 4.0000e+001 245577 -1.8482e+006 -1.0281e+007  1.8103e+006 73301 245473,245551,245499
 4.0000e+001 245752 -2.2017e+006 -3.2079e+006 -1.9338e+006 72995 245625,245677,245651
 4.0000e+001 245729  8.2404e+005 -1.3282e+007 -1.7495e+006 72995 245625,245703,245677
 4.0000e+001 245953 -2.7852e+006 -1.3735e+007  1.7346e+006 72585 245777,245829,245803
 4.0000e+001 245930 -1.3375e+006 -1.6721e+007  4.0918e+006 72585 245777,245855,245829
 4.0000e+001 245907 -6.6563e+005 -1.1773e+007  2.3688e+006 72585 245777,245881,245855
 4.0000e+001 246154 -3.9362e+005 -6.9606e+006  1.2676e+006 72127 246030,246082,246056
 4.0000e+001 246131 -1.2947e+006 -9.7580e+006  6.4989e+005 72127 245978,246082,246030
 4.0000e+001 246108 -7.8737e+004 -9.5873e+006 -2.9492e+004 72127 245978,246030,246004
 4.0000e+001 246257 -9.3730e+005 -2.0915e+006 -4.1254e+005 71737 246179,246231,246205
 4.0000e+001 246360  3.4002e+004 -3.1165e+006  3.7499e+005 71447 246282,246334,246308
 4.0000e+001 246512 -2.7208e+005 -2.8507e+006  9.8262e+005 71157 246385,246437,246411
 4.0000e+001 246489 -1.8256e+004 -2.3335e+006  1.0099e+005 71157 246385,246463,246437
 4.0000e+001 246664 -1.5173e+005 -2.8354e+006 -3.3994e+005 70753 246537,246589,246563
 4.0000e+001 246641 -5.9810e+005 -1.6333e+006 -1.5098e+005 70753 246537,246615,246589
 4.0000e+001 246865 -2.2769e+006 -1.2017e+007  7.3917e+006 70249 246715,246767,246741
 4.0000e+001 246842 -2.8627e+006 -1.0795e+007 -1.3730e+005 70249 246715,246793,246767
 4.0000e+001 246819 -6.5353e+005 -1.5006e+007 -2.7424e+006 70249 246689,246793,246715
 4.0000e+001 247066 -4.3425e+004 -2.2800e+006  3.2851e+005 70023 246916,246994,246942
 4.0000e+001 247043  7.4678e+003 -2.4309e+006  2.6488e+005 70023 246890,246994,246916
 4.0000e+001 247020 -1.3935e+004 -2.1657e+006  3.3643e+005 70023 246942,246994,246968
 4.0000e+001 247267 -4.3813e+005 -4.9815e+006 -6.7197e+005 69633 247091,247143,247117
 4.0000e+001 247244 -1.2211e+005 -3.6789e+006 -4.7490e+005 69633 247091,247169,247143
 4.0000e+001 247221 -8.6350e+004 -3.1096e+006 -4.1311e+005 69633 247091,247195,247169
 4.0000e+001 247419 -9.2335e+005 -5.4424e+006  4.9349e+005 69457 247318,247370,247344
 4.0000e+001 247396 -1.1753e+006 -2.8923e+006  6.8999e+005 69457 247292,247370,247318
 4.0000e+001 247522 -2.9407e+002 -7.9136e+002  4.7351e+002 69209 247444,247496,247470
 4.0000e+001 247625 -1.4935e+006 -1.5088e+006 -7.6059e+005 68919 247547,247599,247573
 4.0000e+001 247777  2.2126e+005 -6.5472e+006 -2.6822e+005 68579 247650,247702,247676
 4.0000e+001 247754 -2.2480e+005 -2.1138e+006 -6.7152e+004 68579 247650,247728,247702
 4.0000e+001 247929  1.3430e+005 -4.2191e+006  1.9550e+006 68289 247802,247854,247828
 4.0000e+001 247906 -2.0537e+005 -1.7236e+006 -2.7852e+005 68289 247802,247880,247854
 4.0000e+001 248081 -3.3960e+005 -4.9970e+006  1.2073e+006 67949 247980,248032,248006
 4.0000e+001 248058 -4.6710e+005 -1.1474e+006  4.5608e+004 67949 247954,248032,247980
 4.0000e+001 248233 -1.5032e+006 -5.9759e+006 -7.1478e+005 67616 248132,248184,248158
 4.0000e+001 248210 -5.4971e+005 -5.7941e+006 -3.2894e+005 67616 248106,248184,248132
 4.0000e+001 248434 -1.1794e+005 -4.1802e+006 -1.1107e+005 67212 248284,248336,248310
 4.0000e+001 248411 -4.1195e+004 -4.2396e+006 -3.7688e+005 67212 248258,248336,248284
 4.0000e+001 248388 -1.4952e+006 -2.4278e+006 -6.0307e+005 67212 248258,248362,248336
 4.0000e+001 248586 -5.3977e+004 -5.0921e+006  4.5581e+005 66872 248485,248537,248511
 4.0000e+001 248563 -7.5211e+005 -1.6706e+006 -2.2500e+005 66872 248459,248537,248485
 4.0000e+001 248738 -3.2979e+005 -5.4424e+006  1.4332e+005 66510 248637,248689,248663
 4.0000e+001 248715 -4.5574e+005 -7.7374e+006  1.6111e+005 66510 248611,248689,248637
 4.0000e+001 248890 -2.5908e+004 -6.4071e+005  1.2831e+005 66220 248789,248841,248815
 4.0000e+001 248867 -7.1120e+004 -8.2009e+005 -2.0683e+005 66220 248763,248841,248789
 4.0000e+001 249091 -1.0666e+006 -1.0589e+007  3.2871e+006 65759 248915,248967,248941
 4.0000e+001 249068 -8.4099e+005 -9.6568e+006  3.3143e+006 65759 248915,248993,248967
 4.0000e+001 249045 -4.7072e+005 -6.7485e+006  1.2865e+006 65759 248915,249019,248993
 4.0000e+001 249243 -1.6418e+003 -8.0385e+006  1.5792e+006 65419 249142,249194,249168
 4.0000e+001 249220  5.9872e+003 -3.2936e+006  2.0354e+005 65419 249116,249194,249142
 4.0000e+001 249395 -4.1174e+005 -3.1341e+006 -5.2743e+005 65079 249268,249320,249294
 4.0000e+001 249372 -4.5111e+005 -3.8104e+006 -6.6893e+005 65079 249268,249346,249320
 4.0000e+001 249547 -1.1341e+005 -1.2222e+006  2.3227e+005 64739 249420,249472,249446
 4.0000e+001 249524 -6.6821e+004 -1.0479e+006 -1.6243e+005 64739 249420,249498,249472
 4.0000e+001 249650 -1.4210e+006 -6.0891e+006 -2.5751e+006 64342 249572,249624,249598
 4.0000e+001 249851 -4.9522e+005 -4.9941e+006 -4.7431e+005 63938 249701,249779,249753
 4.0000e+001 249828 -1.6315e+005 -5.1796e+006  1.1192e+006 63938 249675,249779,249701
 4.0000e+001 249805 -5.2110e+005 -7.3252e+006 -3.0610e+005 63938 249701,249753,249727
 4.0000e+001 250052 -5.9387e+005 -4.5920e+006 -1.0172e+006 63341 249876,249954,249902
 4.0000e+001 250029 -1.2936e+006 -5.6153e+006 -3.9177e+005 63341 249876,249980,249954
 4.0000e+001 250006  8.8835e+005 -6.8544e+006  8.4522e+005 63341 249902,249954,249928
 4.0000e+001 250253 -7.2092e+004 -3.8580e+006 -4.9281e+005 63058 250077,250129,250103
 4.0000e+001 250230 -5.5912e+005 -3.4145e+006 -2.0165e+004 63058 250077,250155,250129
 4.0000e+001 250207 -1.7663e+005 -3.0009e+006 -5.8997e+005 63058 250077,250181,250155
 4.0000e+001 250454 -8.6261e+005 -7.0658e+006  1.1470e+006 62832 250304,250382,250330
 4.0000e+001 250431  1.6631e+005 -8.7889e+006 -2.3039e+006 62832 250278,250382,250304
 4.0000e+001 250408 -2.0496e+006 -4.5934e+006  2.5265e+005 62832 250330,250382,250356
 4.0000e+001 250606 -1.2384e+004 -1.7547e+007  3.7816e+005 62428 250479,250531,250505
 4.0000e+001 250583 -5.9973e+005 -1.3461e+007 -4.6852e+005 62428 250479,250557,250531
 4.0000e+001 250758  7.3614e+004 -7.4036e+006  7.3694e+005 62202 250631,250683,250657
 4.0000e+001 250735 -1.4464e+005 -7.6901e+006  1.1012e+006 62202 250631,250709,250683
 4.0000e+001 250861 -1.2024e+006 -2.6814e+006 -1.6823e+005 61954 250783,250835,250809
 4.0000e+001 251062 -2.4893e+006 -1.1805e+007 -8.7281e+004 61557 250912,250990,250938
 4.0000e+001 251039  1.1611e+005 -1.4351e+007 -2.5897e+004 61557 250886,250990,250912
 4.0000e+001 251016 -1.1064e+006 -1.1885e+007 -2.0248e+006 61557 250938,250990,250964
 4.0000e+001 251263 -9.7777e+005 -7.2853e+006 -2.5366e+005 61167 251113,251165,251139
 4.0000e+001 251240 -4.2742e+005 -7.1041e+006 -5.4371e+005 61167 251113,251191,251165
 4.0000e+001 251217 -1.2060e+006 -6.8996e+006  1.6975e+006 61167 251087,251191,251113
 4.0000e+001 251415 -1.2343e+006 -2.8004e+006  7.3773e+005 60827 251288,251340,251314
 4.0000e+001 251392 -4.2474e+005 -1.7610e+006  1.0086e+005 60827 251288,251366,251340
 4.0000e+001 251567  1.7253e+005 -4.8741e+006  2.3360e+005 60487 251466,251518,251492
 4.0000e+001 251544  1.1715e+005 -3.6832e+006 -2.8520e+005 60487 251440,251518,251466
 4.0000e+001 251719  3.4183e+004 -1.0030e+007 -1.2239e+005 59983 251592,251644,251618
 4.0000e+001 251696 -7.4085e+005 -7.8596e+006 -5.6904e+003 59983 251592,251670,251644
 4.0000e+001 251920 -9.4864e+004 -2.2708e+006 -4.2447e+003 59807 251770,251848,251796
 4.0000e+001 251897 -4.8909e+004 -1.7531e+006 -7.3443e+004 59807 251744,251848,251770
 4.0000e+001 251874 -9.1373e+004 -2.1867e+006  3.8132e+004 59807 251796,251848,251822
 4.0000e+001 252023  1.6940e+005 -4.7129e+006 -7.7665e+004 59517 251945,251997,251971
 4.0000e+001 252175  1.5793e+006 -1.3688e+007 -2.8781e+005 59269 252074,252126,252100
 4.0000e+001 252152 -1.9259e+005 -8.4633e+006  1.6265e+005 59269 252048,252126,252074
 4.0000e+001 252278 -4.7991e+005 -2.0762e+006  9.3191e+005 58979 252200,252252,252226
 4.0000e+001 252381 -2.4654e+006 -2.3679e+006  1.0779e+006 58689 252303,252355,252329
 4.0000e+001 252533 -9.6602e+005 -4.3092e+006 -6.6394e+005 58249 252432,252484,252458
 4.0000e+001 252510 -1.1777e+006 -5.8452e+006 -1.1475e+006 58249 252406,252484,252432
 4.0000e+001 252734 -2.4196e+005 -4.4100e+006 -1.4349e+005 57902 252584,252662,252610
 4.0000e+001 252711  4.6507e+005 -4.7434e+006 -2.2311e+005 57902 252558,252662,252584
 4.0000e+001 252688 -1.6403e+005 -3.6359e+006 -4.2976e+005 57902 252610,252662,252636
 4.0000e+001 252886  7.6692e+004 -5.1818e+006 -3.4293e+005 57540 252785,252837,252811
 4.0000e+001 252863  3.0965e+005 -4.3264e+006 -1.7663e+004 57540 252759,252837,252785
 4.0000e+001 253038 -5.8576e+005 -6.2353e+006  1.4878e+006 57086 252937,252989,252963
 4.0000e+001 253015 -2.0536e+005 -2.3138e+006  1.7014e+005 57086 252911,252989,252937
 4.0000e+001 253239 -1.5573e+006 -5.5013e+006 -2.0264e+006 56796 253063,253141,253115
 4.0000e+001 253216  1.5160e+005 -6.7487e+006 -3.4335e+005 56796 253063,253167,253141
 4.0000e+001 253193 -1.0413e+006 -6.2865e+006 -2.3322e+006 56796 253063,253115,253089
 4.0000e+001 253342 -5.8348e+005 -1.7407e+007  1.4108e+004 56349 253264,253316,253290
 4.0000e+001 253543 -9.0495e+005 -8.7750e+006 -7.2362e+005 56009 253367,253419,253393
 4.0000e+001 253520 -4.2824e+005 -4.9877e+006 -5.8720e+005 56009 253367,253445,253419
 4.0000e+001 253497 -1.1851e+005 -6.6813e+006  2.1208e+005 56009 253367,253471,253445
 4.0000e+001 253695 -4.0492e+005 -1.9533e+006  4.0222e+005 55733 253594,253646,253620
 4.0000e+001 253672 -1.1693e+006 -7.3496e+005  1.3150e+005 55733 253568,253646,253594
 4.0000e+001 253798 -5.1807e+005 -2.0893e+006 -2.9944e+005 55557 253720,253772,253746
 4.0000e+001 253950 -6.4944e+005 -4.1012e+006  8.9071e+004 55153 253849,253901,253875
 4.0000e+001 253927 -7.9974e+004 -4.7304e+006 -6.5886e+005 55153 253823,253901,253849
 4.0000e+001 254151 -1.1996e+006 -4.8729e+006  5.4047e+005 54863 253975,254053,254001
 4.0000e+001 254128 -6.2603e+005 -4.8288e+006 -1.4239e+005 54863 253975,254079,254053
 4.0000e+001 254105 -5.9674e+005 -4.3373e+006  1.9471e+005 54863 254001,254053,254027
 4.0000e+001 254303  2.6363e+004 -2.1354e+006  2.0785e+005 54373 254176,254228,254202
 4.0000e+001 254280  4.0295e+004 -2.2076e+006  2.2000e+005 54373 254176,254254,254228
 4.0000e+001 254455 -3.5999e+004 -5.7483e+006 -3.8280e+005 53975 254354,254406,254380
 4.0000e+001 254432 -5.7327e+005 -1.3303e+006  2.5243e+005 53975 254328,254406,254354
 4.0000e+001 254607 -1.6155e+005 -5.5681e+006 -4.2760e+005 53585 254480,254532,254506
 4.0000e+001 254584 -4.4984e+005 -5.1359e+006 -3.9136e+005 53585 254480,254558,254532
 4.0000e+001 254808 -8.3804e+005 -3.8433e+006 -1.5380e+005 53245 254658,254736,254684
 4.0000e+001 254785 -1.1323e+006 -1.5626e+006 -7.6116e+005 53245 254632,254736,254658
 4.0000e+001 254762 -4.6046e+005 -2.5285e+006 -3.5172e+005 53245 254684,254736,254710
 4.0000e+001 254911 -2.8955e+005 -4.0410e+006  4.6625e+005 52955 254833,254885,254859
 4.0000e+001 255063 -5.9608e+005 -6.6454e+006 -1.4683e+005 52551 254962,255014,254988
 4.0000e+001 255040 -6.4659e+005 -6.9712e+006 -2.9686e+005 52551 254936,255014,254962
 4.0000e+001 255264 -4.2088e+005 -7.4919e+005  6.4347e+005 52261 255114,255166,255140
 4.0000e+001 255241 -1.4658e+006 -2.3078e+006  1.4190e+006 52261 255114,255192,255166
 4.0000e+001 255218  4.9174e+005 -4.5350e+006 -6.6776e+005 52261 255088,255192,255114
 4.0000e+001 255416 -5.1068e+005 -5.4302e+006  1.5520e+006 51971 255289,255341,255315
 4.0000e+001 255393 -1.2184e+005 -4.9255e+006 -3.6183e+005 51971 255289,255367,255341
 4.0000e+001 255568 -1.1380e+006 -7.2982e+005 -3.3660e+005 51681 255441,255493,255467
 4.0000e+001 255545 -8.1615e+004 -7.6311e+006  8.9629e+005 51681 255441,255519,255493
 4.0000e+001 255769 -2.1149e+005 -3.1181e+006 -8.2578e+004 51291 255619,255697,255671
 4.0000e+001 255746 -1.9292e+005 -2.8314e+006 -3.2232e+005 51291 255593,255697,255619
 4.0000e+001 255723 -2.3070e+005 -5.0762e+006 -5.6723e+005 51291 255619,255671,255645
 4.0000e+001 255921 -4.3224e+005 -2.9136e+006  7.4603e+005 50951 255820,255872,255846
 4.0000e+001 255898 -1.0515e+005 -1.8358e+006  8.8771e+004 50951 255794,255872,255820
 4.0000e+001 256171 -1.1321e+006 -4.7404e+006  4.2761e+004 50547 256024,256076,256050
 4.0000e+001 256148 -8.9758e+005 -4.6743e+006  3.6618e+005 50547 255972,256076,256024
 4.0000e+001 256125 -2.3990e+005 -5.2597e+006 -6.4391e+004 50547 255946,256076,255972
 4.0000e+001 256102 -9.1925e+005 -4.2375e+006  2.3215e+005 50547 255972,256024,255998
 4.0000e+001 256323  3.9891e+005 -5.8549e+006  1.0439e+006 50093 256196,256248,256222
 4.0000e+001 256300 -1.1187e+006 -2.9001e+006 -1.2889e+006 50093 256196,256274,256248
 4.0000e+001 256426  4.4742e+002 -2.3074e+003  6.0961e+002 49845 256348,256400,256374
 4.0000e+001 256627 -7.2186e+004 -5.1801e+006  8.1216e+004 49555 256477,256555,256503
 4.0000e+001 256604 -2.1453e+005 -3.4645e+006  1.3022e+005 49555 256451,256555,256477
 4.0000e+001 256581 -3.9415e+005 -4.5224e+006  2.7196e+005 49555 256503,256555,256529
 4.0000e+001 256828 -8.9177e+005 -2.8675e+006 -2.2459e+005 49056 256652,256730,256678
 4.0000e+001 256805 -3.0027e+005 -3.1595e+006 -6.4877e+005 49056 256652,256756,256730
 4.0000e+001 256782 -6.9046e+005 -2.1569e+006 -7.1201e+005 49056 256678,256730,256704
 4.0000e+001 256931 -7.3847e+004 -2.0219e+005  5.5011e+004 48766 256853,256905,256879
 4.0000e+001 257083 -9.8386e+005 -4.6226e+006 -7.4391e+005 48568 256982,257034,257008
 4.0000e+001 257060 -7.7096e+005 -3.7834e+006 -6.3639e+005 48568 256956,257034,256982
 4.0000e+001 257186 -5.7959e+003 -3.0195e+006  3.2856e+003 48228 257108,257160,257134
 4.0000e+001 257338 -4.4129e+005 -1.5031e+006  5.5198e+005 47888 257237,257289,257263
 4.0000e+001 257315 -3.9912e+005 -1.8760e+006  7.5752e+005 47888 257211,257289,257237
 4.0000e+001 257539 -2.9710e+005 -4.7841e+006  2.2355e+005 47548 257363,257441,257415
 4.0000e+001 257516 -6.4713e+005 -4.4343e+006 -4.1644e+005 47548 257363,257467,257441
 4.0000e+001 257493 -5.5348e+005 -3.5298e+006 -1.0267e+005 47548 257363,257415,257389
 4.0000e+001 257740 -2.0683e+005 -4.7714e+006  4.6529e+005 46994 257564,257642,257616
 4.0000e+001 257717 -4.4395e+005 -3.8297e+006  1.1657e+005 46994 257564,257668,257642
 4.0000e+001 257694 -7.5703e+005 -5.0153e+006  2.6258e+004 46994 257564,257616,257590
 4.0000e+001 257843 -1.1796e+006 -2.3862e+006 -3.1602e+005 46654 257765,257817,257791
 4.0000e+001 257995 -6.8745e+005 -3.7794e+006  2.4866e+005 46364 257894,257946,257920
 4.0000e+001 257972 -7.3522e+005 -4.3396e+006 -7.3426e+004 46364 257868,257946,257894
 4.0000e+001 258147 -1.1541e+005 -3.8622e+006  1.8445e+005 46024 258046,258098,258072
 4.0000e+001 258124 -3.6222e+005 -3.2485e+006  3.7901e+005 46024 258020,258098,258046
 4.0000e+001 258250 -6.6797e+005 -2.7044e+006  9.4718e+005 45741 258172,258224,258198
 4.0000e+001 258402 -3.3923e+005 -2.7389e+006  2.2937e+005 45401 258301,258353,258327
 4.0000e+001 258379 -4.7254e+005 -2.1279e+006  2.4526e+005 45401 258275,258353,258301
 4.0000e+001 258603 -7.5833e+005 -2.4272e+006 -2.1368e+004 45071 258427,258505,258479
 4.0000e+001 258580 -1.1876e+005 -5.8246e+006  2.9920e+005 45071 258427,258531,258505
 4.0000e+001 258557 -2.0854e+005 -3.2005e+006  2.5519e+005 45071 258427,258479,258453
 4.0000e+001 258755 -1.8912e+005 -4.4427e+006 -3.6808e+005 44681 258654,258706,258680
 4.0000e+001 258732 -2.1181e+005 -4.2845e+006 -3.6699e+005 44681 258628,258706,258654
 4.0000e+001 258907 -8.1073e+005 -7.8368e+005 -3.5243e+004 44157 258806,258858,258832
 4.0000e+001 258884 -2.3454e+005 -1.2973e+006 -4.6269e+004 44157 258780,258858,258806
 4.0000e+001 259010 -7.2069e+005 -4.2577e+005  5.8710e+004 43705 258932,258984,258958
 4.0000e+001 259113 -4.6546e+005 -3.1347e+006  1.7469e+005 43284 259035,259087,259061
 4.0000e+001 259216 -6.2781e+005 -3.0048e+006 -1.3176e+005 42954 259138,259190,259164
 4.0000e+001 259319 -9.2631e+005 -2.1254e+006  3.9533e+004 42116 259241,259293,259267
 4.0000e+001 259422 -3.4753e+005 -3.2189e+006 -1.4440e+005 41804 259344,259396,259370
 4.0000e+001 259525 -6.2262e+005 -5.9184e+006  8.1728e+005 41219 259447,259499,259473
 4.0000e+001 259628 -8.3804e+005 -3.3337e+006 -4.0378e+005 385 259550,259602,259576
 4.2000e+001 190120 -2.7089e+005 -2.6976e+006 -5.0043e+005 189630 189993,190045,190019
 4.2000e+001 190097 -7.3837e+005 -1.8781e+006 -2.5015e+005 189630 189993,190071,190045
 4.2000e+001 190319 -1.1385e+006 -2.1859e+006  2.9319e+005 189312 190169,190221,190195
 4.2000e+001 190296 -5.5546e+005 -1.2600e+006 -5.2316e+005 189312 190169,190247,190221
 4.2000e+001 190273 -5.6235e+005 -9.5129e+005  6.7613e+004 189312 190143,190247,190169
 4.2000e+001 190518 -4.5990e+005 -2.0757e+005 -4.9640e+004 189124 190368,190446,190420
 4.2000e+001 190495 -5.8389e+005 -8.7734e+004  4.2186e+004 189124 190342,190446,190368
 4.2000e+001 190472 -9.0828e+005 -2.8530e+005 -1.4497e+005 189124 190368,190420,190394
 4.2000e+001 190619 -4.5425e+005 -2.3756e+005 -9.3362e+003 188926 190541,190593,190567
 4.2000e+001 190771 -4.9266e+005 -2.7095e+005  5.8369e+003 188614 190670,190722,190696
 4.2000e+001 190748 -4.9991e+005  4.4839e+004  8.8212e+004 188614 190644,190722,190670
 4.2000e+001 190972 -2.6501e+005 -8.8576e+005 -3.0856e+005 188324 190848,190900,190874
 4.2000e+001 190949 -5.5900e+005 -1.2042e+006 -5.1699e+005 188324 190796,190900,190848
 4.2000e+001 190926 -4.1799e+004 -1.2093e+006 -2.2707e+005 188324 190796,190848,190822
 4.2000e+001 191124 -6.6216e+005 -1.5270e+006 -2.0104e+005 188034 191023,191075,191049
 4.2000e+001 191101 -1.8678e+005 -1.6357e+006 -1.6684e+005 188034 190997,191075,191023
 4.2000e+001 191276 -6.9908e+005 -3.0416e+005  2.2893e+004 187836 191149,191201,191175
 4.2000e+001 191253 -1.4199e+005 -3.4656e+005  5.1333e+004 187836 191149,191227,191201
 4.2000e+001 191379 -4.5829e+005 -2.5877e+005 -8.2817e+004 187546 191301,191353,191327
 4.2000e+001 191531 -1.1531e+006 -2.7022e+006 -8.5717e+005 187256 191430,191482,191456
 4.2000e+001 191508 -3.4044e+005 -1.8174e+006  1.7461e+005 187256 191404,191482,191430
 4.2000e+001 191634 -3.2332e+005 -9.2297e+005 -1.0385e+004 187058 191556,191608,191582
 4.2000e+001 191835 -2.7604e+005 -5.8210e+005  1.0510e+005 186860 191659,191711,191685
 4.2000e+001 191812 -5.6746e+005 -4.2058e+005  5.5465e+004 186860 191659,191737,191711
 4.2000e+001 191789 -4.7392e+005 -1.1323e+005 -1.1188e+004 186860 191659,191763,191737
 4.2000e+001 191987 -3.8770e+005 -1.5318e+006  1.5405e+005 186662 191886,191938,191912
 4.2000e+001 191964 -5.0091e+005 -1.1537e+006 -1.0849e+005 186662 191860,191938,191886
 4.2000e+001 192090 -6.2933e+005 -1.1971e+006  1.3975e+005 186486 192012,192064,192038
 4.2000e+001 192242 -5.2347e+005 -2.2166e+006  2.0477e+004 186288 192115,192167,192141
 4.2000e+001 192219 -4.8412e+005 -2.0120e+006  8.4437e+004 186288 192115,192193,192167
 4.2000e+001 192394 -3.4344e+005 -1.8142e+006 -2.9104e+005 185935 192293,192345,192319
 4.2000e+001 192371 -3.0481e+005 -1.8184e+006 -3.0064e+005 185935 192267,192345,192293
 4.2000e+001 192546 -4.6124e+005 -2.6068e+006 -2.3282e+005 185675 192419,192471,192445
 4.2000e+001 192523 -5.8548e+005 -9.8694e+005 -9.6703e+004 185675 192419,192497,192471
 4.2000e+001 192649 -2.0725e+005 -2.1899e+006 -9.7671e+004 185499 192571,192623,192597
 4.2000e+001 192801 -1.2407e+006 -8.7287e+005 -5.1102e+004 185301 192674,192726,192700
 4.2000e+001 192778 -6.2141e+005 -9.4057e+005  5.8874e+005 185301 192674,192752,192726
 4.2000e+001 193002 -2.2045e+005 -1.1838e+006 -3.5578e+005 185046 192852,192930,192878
 4.2000e+001 192979 -3.7087e+005 -1.8281e+006 -3.6515e+005 185046 192826,192930,192852
 4.2000e+001 192956  1.3446e+005 -1.9866e+006 -1.4512e+005 185046 192878,192930,192904
 4.2000e+001 193203 -1.1686e+006 -7.7318e+005 -3.1190e+005 184798 193079,193131,193105
 4.2000e+001 193180 -2.8732e+005 -2.5913e+006 -7.0505e+005 184798 193027,193131,193079
 4.2000e+001 193157 -1.0669e+006 -2.9057e+006  8.1319e+005 184798 193027,193079,193053
 4.2000e+001 193404 -1.6764e+005 -2.6108e+006 -1.2750e+005 184600 193254,193306,193280
 4.2000e+001 193381 -2.1918e+005 -2.2105e+006  3.9243e+004 184600 193254,193332,193306
 4.2000e+001 193358 -9.7693e+005 -5.9214e+005 -1.6941e+005 184600 193228,193332,193254
 4.2000e+001 193556 -5.5543e+005 -1.0905e+006 -7.3083e+005 184402 193429,193481,193455
 4.2000e+001 193533 -8.2283e+005 -9.0612e+005 -8.6987e+005 184402 193429,193507,193481
 4.2000e+001 193708 -9.0333e+004 -3.0614e+006 -4.3386e+005 184204 193607,193659,193633
 4.2000e+001 193685 -5.0070e+005 -2.1287e+006 -3.4569e+005 184204 193581,193659,193607
 4.2000e+001 193860 -5.5528e+005 -1.5218e+006  2.6874e+005 183908 193759,193811,193785
 4.2000e+001 193837 -9.0919e+004 -1.7204e+006  4.1952e+005 183908 193733,193811,193759
 4.2000e+001 194061 -3.8806e+005 -1.8934e+006 -3.2473e+004 183710 193911,193989,193937
 4.2000e+001 194038 -4.6977e+005 -1.3542e+006  2.1384e+005 183710 193885,193989,193911
 4.2000e+001 194015 -6.9667e+005 -1.1956e+006 -3.5404e+004 183710 193937,193989,193963
 4.2000e+001 194262 -1.6247e+006 -3.3530e+006 -1.6170e+006 183420 194086,194164,194112
 4.2000e+001 194239 -1.4044e+006 -1.3607e+006  9.5464e+005 183420 194086,194190,194164
 4.2000e+001 194216 -2.5781e+006 -1.0941e+007  2.2074e+006 183420 194112,194164,194138
 4.2000e+001 194414 -5.5247e+005 -3.4305e+006 -5.2257e+004 183222 194287,194339,194313
 4.2000e+001 194391 -4.4422e+005 -2.6056e+005 -2.0338e+005 183222 194287,194365,194339
 4.2000e+001 194517 -1.0098e+006 -5.1258e+005  1.4585e+005 183024 194439,194491,194465
 4.2000e+001 194718  1.8825e+006 -1.4732e+007  2.6704e+006 182734 194568,194620,194594
 4.2000e+001 194695 -9.9417e+005 -2.4468e+006 -2.4193e+006 182734 194542,194620,194568
 4.2000e+001 194672 -2.8150e+006 -1.6620e+006 -9.6875e+005 182734 194542,194646,194620
 4.2000e+001 194870 -6.6904e+005 -2.2002e+006  5.7420e+005 182444 194769,194821,194795
 4.2000e+001 194847 -6.9565e+005 -1.2104e+006 -5.2361e+005 182444 194743,194821,194769
 4.2000e+001 195071 -4.4344e+005 -3.9611e+006  1.0109e+006 182154 194895,194947,194921
 4.2000e+001 195048 -3.8928e+005 -2.4139e+006  2.2327e+005 182154 194895,194999,194947
 4.2000e+001 195025 -4.0753e+005 -1.3606e+006  3.0089e+005 182154 194947,194999,194973
 4.2000e+001 195223 -1.9943e+005 -2.3650e+006 -1.5157e+005 181814 195096,195148,195122
 4.2000e+001 195200 -6.7835e+004 -2.0626e+006 -6.1380e+005 181814 195096,195174,195148
 4.2000e+001 195375 -6.6126e+004 -9.6251e+005 -1.7413e+004 181524 195248,195300,195274
 4.2000e+001 195352  3.4818e+004 -2.4691e+006  2.8164e+005 181524 195248,195326,195300
 4.2000e+001 195527 -4.8621e+004 -8.7338e+005  4.0201e+005 181326 195426,195478,195452
 4.2000e+001 195504 -4.4692e+005 -2.0940e+006  7.3481e+005 181326 195400,195478,195426
 4.2000e+001 195679  3.8622e+005 -1.2021e+007 -1.3386e+005 180936 195578,195630,195604
 4.2000e+001 195656 -1.0562e+006 -3.4790e+006  2.4825e+004 180936 195552,195630,195578
 4.2000e+001 195831 -5.4098e+005 -4.8529e+005 -2.5222e+005 180646 195704,195756,195730
 4.2000e+001 195808 -6.9128e+005 -1.0914e+005 -3.4819e+004 180646 195704,195782,195756
 4.2000e+001 196032 -4.0384e+005 -2.3488e+006  7.1120e+005 180306 195882,195960,195934
 4.2000e+001 196009 -7.5175e+005 -8.7691e+005 -5.4347e+005 180306 195856,195960,195882
 4.2000e+001 195986  4.8398e+004 -3.4518e+006 -5.1160e+005 180306 195882,195934,195908
 4.2000e+001 196233 -3.7382e+005 -2.4090e+005 -8.2092e+005 179944 196057,196109,196083
 4.2000e+001 196210 -9.5057e+005 -3.0433e+006  3.9818e+005 179944 196057,196135,196109
 4.2000e+001 196187 -1.7497e+006  3.5725e+006 -1.2199e+006 179944 196057,196161,196135
 4.2000e+001 196385 -6.7587e+005 -8.7371e+005 -4.8695e+005 179604 196258,196310,196284
 4.2000e+001 196362 -1.1406e+006 -1.6364e+006 -1.4622e+006 179604 196258,196336,196310
 4.2000e+001 196586 -5.7850e+005 -8.7684e+005 -3.6087e+005 179114 196410,196488,196436
 4.2000e+001 196563  2.0565e+005 -3.2042e+006 -5.6324e+005 179114 196410,196514,196488
 4.2000e+001 196540 -7.6284e+003 -8.1097e+005 -8.3408e+004 179114 196436,196488,196462
 4.2000e+001 196738 -1.6354e+005 -2.4255e+006 -3.3772e+005 178674 196611,196663,196637
 4.2000e+001 196715 -7.3038e+005 -1.4737e+006 -5.1238e+005 178674 196611,196689,196663
 4.2000e+001 196939  1.2720e+006 -8.2548e+006 -1.0358e+006 178334 196789,196867,196841
 4.2000e+001 196916 -1.1966e+006 -8.2562e+006  1.4954e+006 178334 196763,196867,196789
 4.2000e+001 196893 -2.1758e+006 -5.4199e+006 -4.0376e+006 178334 196789,196841,196815
 4.2000e+001 197091 -2.4394e+005 -5.1445e+006 -1.9935e+005 177930 196990,197042,197016
 4.2000e+001 197068  1.5375e+005 -3.3559e+006 -4.0698e+004 177930 196964,197042,196990
 4.2000e+001 197194  8.4491e+001 -3.8660e+005  1.1201e+002 177732 197116,197168,197142
 4.2000e+001 197346 -2.0384e+005 -7.4873e+006 -4.5529e+004 177534 197219,197271,197245
 4.2000e+001 197323  9.6170e+004 -8.2371e+006  3.4834e+005 177534 197219,197297,197271
 4.2000e+001 197547 -1.8956e+005 -3.7748e+006 -5.7734e+005 177130 197397,197449,197423
 4.2000e+001 197524 -5.7754e+005 -3.8430e+006 -7.7790e+005 177130 197397,197475,197449
 4.2000e+001 197501 -3.5471e+005 -8.8922e+006 -1.1075e+006 177130 197371,197475,197397
 4.2000e+001 197748 -3.8986e+005 -7.9945e+006  9.2365e+004 176790 197598,197676,197624
 4.2000e+001 197725 -4.7418e+005 -4.9704e+006  2.4352e+005 176790 197572,197676,197598
 4.2000e+001 197702 -5.8024e+005 -5.6908e+006  6.9874e+005 176790 197624,197676,197650
 4.2000e+001 197900 -1.3564e+005 -5.4114e+006 -9.5689e+005 176300 197773,197825,197799
 4.2000e+001 197877  5.9005e+003 -5.7163e+006 -9.7538e+005 176300 197773,197851,197825
 4.2000e+001 198052 -7.4682e+005 -8.8261e+006 -1.6412e+006 176010 197925,197977,197951
 4.2000e+001 198029 -1.0624e+006 -5.4168e+006 -1.2229e+006 176010 197925,198003,197977
 4.2000e+001 198204 -1.9052e+006 -3.8318e+006 -1.4715e+006 175670 198103,198155,198129
 4.2000e+001 198181 -2.3385e+006 -5.4106e+006 -1.2803e+006 175670 198077,198155,198103
 4.2000e+001 198405  4.7325e+005 -6.6744e+006 -9.7286e+005 175266 198255,198307,198281
 4.2000e+001 198382  2.8323e+005 -6.4820e+006 -8.0481e+005 175266 198229,198307,198255
 4.2000e+001 198359 -1.0847e+006 -4.5723e+006 -2.2176e+006 175266 198229,198333,198307
 4.2000e+001 198606 -1.4275e+004 -3.9578e+005 -3.7152e+004 174876 198430,198508,198482
 4.2000e+001 198583 -2.3493e+005 -4.2989e+005 -2.2532e+005 174876 198430,198534,198508
 4.2000e+001 198560 -8.1809e+004 -1.6053e+005 -1.0891e+005 174876 198430,198482,198456
 4.2000e+001 198758  2.6564e+003 -1.2767e+003  4.9992e+003 174536 198657,198709,198683
 4.2000e+001 198735  5.3916e+003 -1.3708e+003 -8.7075e+003 174536 198631,198709,198657
 4.2000e+001 199008 -8.7591e+005 -8.8641e+006 -4.3668e+005 174132 198835,198913,198887
 4.2000e+001 198985  1.0373e+005 -3.6635e+006  4.0400e+005 174132 198809,198913,198835
 4.2000e+001 198962 -4.8133e+005 -4.2296e+006 -2.2870e+006 174132 198783,198913,198809
 4.2000e+001 198939 -2.4835e+005 -9.0747e+006 -3.3487e+005 174132 198835,198887,198861
 4.2000e+001 199160 -1.4797e+006 -3.3152e+006 -1.1713e+006 173842 199059,199111,199085
 4.2000e+001 199137 -7.4192e+005 -1.7257e+006 -5.7856e+005 173842 199033,199111,199059
 4.2000e+001 199361 -2.8337e+005 -1.2752e+007  1.4936e+006 173438 199237,199289,199263
 4.2000e+001 199338 -1.2557e+006 -8.7493e+006  2.0369e+006 173438 199211,199289,199237
 4.2000e+001 199315 -1.0171e+006 -1.0698e+007  3.5487e+005 173438 199185,199289,199211
 4.2000e+001 199513  2.4105e+005 -1.5230e+007  2.6020e+006 173190 199386,199438,199412
 4.2000e+001 199490  4.4072e+005 -1.0793e+007 -3.6700e+005 173190 199386,199464,199438
 4.2000e+001 199665 -4.0392e+005 -2.0775e+006  2.1730e+005 172750 199564,199616,199590
 4.2000e+001 199642 -7.7792e+005 -9.5140e+005 -7.3985e+003 172750 199538,199616,199564
 4.2000e+001 199817 -6.7696e+005 -1.1569e+007 -4.1120e+006 172524 199690,199742,199716
 4.2000e+001 199794 -4.8679e+006 -4.7603e+006 -2.5169e+006 172524 199690,199768,199742
 4.2000e+001 199969 -2.3418e+004 -8.3147e+006 -4.4894e+005 172348 199842,199894,199868
 4.2000e+001 199946  7.9760e+005 -8.2021e+006  2.1808e+005 172348 199842,199920,199894
 4.2000e+001 200121  3.1897e+005 -8.7256e+006 -1.3675e+006 172008 199994,200046,200020
 4.2000e+001 200098 -7.1780e+005 -3.6596e+006 -4.8026e+005 172008 199994,200072,200046
 4.2000e+001 200273 -2.9134e+005 -5.9556e+006  6.2419e+005 171668 200172,200224,200198
 4.2000e+001 200250 -3.2375e+005 -5.3960e+006  3.7430e+005 171668 200146,200224,200172
 4.2000e+001 200474  1.2317e+005 -8.2207e+006 -1.1768e+006 171264 200350,200402,200376
 4.2000e+001 200451 -1.4946e+005 -7.7211e+006 -1.0903e+006 171264 200324,200402,200350
 4.2000e+001 200428 -7.6825e+005 -5.7777e+006  1.3661e+006 171264 200298,200402,200324
 4.2000e+001 200626  5.5992e+003 -8.1760e+006 -4.5406e+005 170832 200525,200577,200551
 4.2000e+001 200603 -2.0251e+005 -5.1206e+006 -3.6234e+005 170832 200499,200577,200525
 4.2000e+001 200827  5.2634e+005 -9.8250e+006  1.2374e+006 170492 200677,200729,200703
 4.2000e+001 200804 -1.7755e+006 -3.7283e+006 -3.4493e+006 170492 200651,200729,200677
 4.2000e+001 200781 -3.5159e+006 -3.4805e+006 -2.1281e+006 170492 200651,200755,200729
 4.2000e+001 201077  8.5062e+005 -6.6090e+006  2.4402e+005 170088 200878,200956,200904
 4.2000e+001 201054 -2.9657e+005 -4.9570e+006 -1.3870e+006 170088 200852,200956,200878
 4.2000e+001 201031  4.8934e+005 -4.3288e+006  4.7860e+006 170088 200904,200956,200930
 4.2000e+001 201008  4.5063e+006 -9.7272e+006  1.9217e+006 170088 200852,200982,200956
 4.2000e+001 201278  1.3011e+005 -1.3306e+006  3.2525e+003 169798 201102,201154,201128
 4.2000e+001 201255 -1.7739e+006 -8.4787e+006 -7.4395e+005 169798 201102,201206,201154
 4.2000e+001 201232 -1.1060e+006 -2.9230e+006  1.0865e+006 169798 201154,201206,201180
 4.2000e+001 201430 -1.0592e+006 -1.4874e+007 -2.5377e+006 169337 201303,201355,201329
 4.2000e+001 201407 -5.8116e+005 -5.2786e+006 -5.8886e+005 169337 201303,201381,201355
 4.2000e+001 201631 -8.3373e+005 -1.0609e+007 -3.5175e+005 168883 201481,201559,201507
 4.2000e+001 201608 -8.1436e+004 -8.0616e+006  1.2946e+006 168883 201455,201559,201481
 4.2000e+001 201585 -4.8013e+005 -9.0967e+006 -5.1973e+004 168883 201507,201559,201533
 4.2000e+001 201832  7.8246e+004 -1.2372e+007  5.3428e+005 168479 201682,201734,201708
 4.2000e+001 201809 -2.6250e+006 -9.4725e+006 -1.9921e+006 168479 201656,201734,201682
 4.2000e+001 201786 -2.2737e+006 -8.0702e+006 -1.0573e+006 168479 201656,201760,201734
 4.2000e+001 202033 -2.0828e+005 -4.0983e+006  6.0904e+005 167825 201883,201935,201909
 4.2000e+001 202010 -1.5438e+006 -5.2472e+006 -1.4102e+006 167825 201857,201935,201883
 4.2000e+001 201987  5.8003e+005 -1.3975e+007 -1.6852e+005 167825 201857,201961,201935
 4.2000e+001 202234 -5.5575e+005 -6.1530e+006 -1.7509e+006 167435 202058,202136,202084
 4.2000e+001 202211 -8.4731e+005 -8.7081e+006  1.2861e+006 167435 202058,202162,202136
 4.2000e+001 202188 -6.8532e+005 -2.8277e+006  5.9405e+005 167435 202084,202136,202110
 4.2000e+001 202386  3.2648e+005 -7.0416e+006 -1.4185e+005 167002 202285,202337,202311
 4.2000e+001 202363 -5.3480e+005 -1.9987e+006  2.2061e+005 167002 202259,202337,202285
 4.2000e+001 202538  6.4099e+004 -6.0712e+006 -2.6079e+005 166662 202411,202463,202437
 4.2000e+001 202515 -6.3993e+005 -2.9926e+006  2.0345e+005 166662 202411,202489,202463
 4.2000e+001 202690  1.3718e+005 -7.9417e+006 -1.7838e+006 166322 202589,202641,202615
 4.2000e+001 202667  3.0356e+005 -7.0456e+006 -1.0392e+006 166322 202563,202641,202589
 4.2000e+001 202891 -5.3113e+005 -1.4024e+006  3.6511e+005 165918 202715,202767,202741
 4.2000e+001 202868 -1.1657e+006 -4.1068e+006 -3.1322e+003 165918 202715,202793,202767
 4.2000e+001 202845 -2.2778e+005 -3.4677e+006 -4.5200e+005 165918 202715,202819,202793
 4.2000e+001 203092 -9.2890e+005 -8.1942e+006 -1.5563e+006 165628 202916,202968,202942
 4.2000e+001 203069 -9.8442e+004 -1.2720e+007 -1.2278e+006 165628 202916,202994,202968
 4.2000e+001 203046 -1.8953e+006 -1.0702e+007 -3.0203e+006 165628 202916,203020,202994
 4.2000e+001 203293 -6.9587e+006 -7.2235e+006 -1.3131e+006 165266 203143,203195,203169
 4.2000e+001 203270 -3.3000e+006 -9.2381e+006 -1.5402e+005 165266 203143,203221,203195
 4.2000e+001 203247 -1.2327e+006 -1.2362e+007 -3.5670e+006 165266 203117,203221,203143
 4.2000e+001 203445 -3.1111e+005 -4.7906e+006  2.6007e+005 164826 203318,203370,203344
 4.2000e+001 203422 -5.0242e+004 -3.9132e+006 -3.8228e+005 164826 203318,203396,203370
 4.2000e+001 203597 -8.5613e+005 -5.4201e+006 -4.9017e+005 164386 203470,203522,203496
 4.2000e+001 203574 -4.2142e+005 -3.7481e+006 -3.5555e+005 164386 203470,203548,203522
 4.2000e+001 203798 -2.1744e+004 -5.7696e+006  8.8444e+005 163996 203622,203674,203648
 4.2000e+001 203775 -1.1679e+006 -7.1724e+005 -2.2187e+005 163996 203622,203726,203674
 4.2000e+001 203752 -2.2428e+006 -2.9594e+006  2.9584e+006 163996 203674,203726,203700
 4.2000e+001 203901 -2.5383e+005 -2.7557e+006 -8.0895e+005 163770 203823,203875,203849
 4.2000e+001 204053 -6.6909e+005 -3.4830e+006  8.9375e+004 163474 203952,204004,203978
 4.2000e+001 204030 -9.4271e+004 -3.9674e+006 -1.0113e+006 163474 203926,204004,203952
 4.2000e+001 204205 -8.0229e+005 -4.3089e+006 -1.0599e+006 163034 204104,204156,204130
 4.2000e+001 204182 -1.4748e+006 -9.0089e+006 -5.2572e+006 163034 204078,204156,204104
 4.2000e+001 204357 -6.5395e+005 -5.6030e+006  8.9771e+005 162624 204256,204308,204282
 4.2000e+001 204334 -2.0161e+005 -8.6825e+005  1.8985e+005 162624 204230,204308,204256
 4.2000e+001 204509 -1.4981e+004 -1.0334e+005  4.1559e+004 162200 204382,204434,204408
 4.2000e+001 204486 -1.5583e+004 -7.0707e+004  2.9330e+004 162200 204382,204460,204434
 4.2000e+001 204710 -1.2697e+005 -1.8839e+006  2.5072e+004 161810 204560,204638,204586
 4.2000e+001 204687  4.8463e+004 -3.0884e+006 -1.1819e+006 161810 204534,204638,204560
 4.2000e+001 204664 -3.2973e+005 -1.7287e+006 -3.6269e+005 161810 204586,204638,204612
 4.2000e+001 204862 -1.1726e+006 -5.8456e+006 -2.1837e+006 161406 204735,204787,204761
 4.2000e+001 204839 -2.4218e+006 -5.0507e+006 -2.4662e+006 161406 204735,204813,204787
 4.2000e+001 205014  1.5059e+003 -7.3012e+004  1.3623e+004 161180 204887,204939,204913
 4.2000e+001 204991 -5.9336e+003 -3.6680e+004 -5.0041e+003 161180 204887,204965,204939
 4.2000e+001 205215  5.3935e+005 -1.3222e+006 -2.4763e+005 160726 205039,205091,205065
 4.2000e+001 205192 -5.7916e+005 -5.6918e+006 -5.5217e+005 160726 205039,205143,205091
 4.2000e+001 205169 -5.4851e+004 -7.0971e+005 -3.9725e+004 160726 205091,205143,205117
 4.2000e+001 205416  5.6536e+004 -1.3442e+006  4.6503e+005 160272 205292,205344,205318
 4.2000e+001 205393 -2.2959e+005 -2.5918e+005  2.8013e+005 160272 205240,205344,205292
 4.2000e+001 205370 -1.5672e+005 -1.3203e+005  4.4642e+004 160272 205240,205292,205266
 4.2000e+001 205568 -4.5096e+003 -1.0385e+005  1.0554e+004 159932 205441,205493,205467
 4.2000e+001 205545 -5.2875e+003 -8.4295e+004  1.3411e+004 159932 205441,205519,205493
 4.2000e+001 205720 -1.4058e+004 -8.5528e+004  3.9600e+004 159542 205593,205645,205619
 4.2000e+001 205697 -3.0260e+004 -1.2176e+005  5.3147e+004 159542 205593,205671,205645
 4.2000e+001 205872  1.0405e+004 -3.1387e+004 -2.0307e+002 159252 205745,205797,205771
 4.2000e+001 205849 -7.8650e+003 -1.0353e+005  3.0154e+003 159252 205745,205823,205797
 4.2000e+001 206024 -2.4355e+006 -3.7680e+006 -1.3105e+006 159004 205923,205975,205949
 4.2000e+001 206001 -7.4339e+005 -3.1203e+006 -1.8051e+005 159004 205897,205975,205923
 4.2000e+001 206127 -1.8148e+006 -1.5114e+006 -1.3208e+003 158364 206049,206101,206075
 4.2000e+001 206328  1.7144e+004 -4.7880e+004  3.5017e+004 157960 206178,206256,206204
 4.2000e+001 206305  2.7596e+004 -7.9973e+004 -2.1767e+004 157960 206152,206256,206178
 4.2000e+001 206282 -2.3167e+004 -3.5313e+004  2.0239e+004 157960 206204,206256,206230
 4.2000e+001 206529 -7.2397e+005 -1.1575e+007  4.9106e+005 157648 206405,206457,206431
 4.2000e+001 206506 -4.6753e+006 -7.2940e+006 -1.0401e+006 157648 206379,206457,206405
 4.2000e+001 206483 -2.0107e+006 -5.5195e+006  6.2636e+005 157648 206353,206457,206379
 4.2000e+001 206730  9.0577e+005 -7.9420e+006  9.9547e+003 157208 206554,206606,206580
 4.2000e+001 206707  6.3802e+005 -8.8258e+006  1.3071e+006 157208 206554,206632,206606
 4.2000e+001 206684 -5.0238e+006 -9.4358e+005 -2.1681e+006 157208 206554,206658,206632
 4.2000e+001 206882 -6.4464e+003 -2.8083e+004 -5.9610e+003 157010 206755,206807,206781
 4.2000e+001 206859  2.2509e+003 -7.1864e+004  1.3621e+004 157010 206755,206833,206807
 4.2000e+001 207034 -1.0350e+005 -3.0870e+006 -6.6779e+004 156620 206907,206959,206933
 4.2000e+001 207011  9.1865e+004 -5.3358e+006  4.4036e+004 156620 206907,206985,206959
 4.2000e+001 207186 -1.5478e+004 -2.3687e+006  9.6016e+004 156330 207085,207137,207111
 4.2000e+001 207163  8.2554e+003 -2.4617e+006 -9.2153e+005 156330 207059,207137,207085
 4.2000e+001 207387 -9.8721e+005 -5.6529e+006  1.9378e+006 155890 207211,207289,207237
 4.2000e+001 207364 -6.6376e+005 -5.7571e+006 -9.9594e+005 155890 207211,207315,207289
 4.2000e+001 207341 -1.4020e+006 -5.2553e+006  2.1536e+006 155890 207237,207289,207263
 4.2000e+001 207588  8.6321e+005 -2.6863e+007  7.6361e+006 155436 207438,207490,207464
 4.2000e+001 207565 -2.4187e+005 -2.1196e+007 -7.4457e+005 155436 207412,207490,207438
 4.2000e+001 207542 -1.9782e+006 -1.2205e+007 -1.0087e+006 155436 207412,207516,207490
 4.2000e+001 207789  2.3086e+006 -4.0486e+007 -2.6640e+006 155260 207639,207691,207665
 4.2000e+001 207766 -4.5972e+006 -1.4204e+007  5.4910e+006 155260 207613,207691,207639
 4.2000e+001 207743 -8.4858e+005 -1.1153e+007 -1.3429e+005 155260 207613,207717,207691
 4.2000e+001 207990 -2.3220e+003 -1.7793e+003  5.6278e+000 154920 207840,207918,207892
 4.2000e+001 207967 -5.5313e+003 -3.9084e+003 -4.3344e+003 154920 207814,207918,207840
 4.2000e+001 207944 -1.2515e+003 -5.9956e+002 -7.8291e+002 154920 207840,207892,207866
 4.2000e+001 208191 -4.7310e+005 -8.3653e+006 -1.7948e+006 154630 208015,208093,208041
 4.2000e+001 208168 -2.0822e+004 -4.7961e+006 -1.5340e+006 154630 208015,208119,208093
 4.2000e+001 208145 -2.5331e+006 -4.1528e+006 -3.2429e+006 154630 208041,208093,208067
 4.2000e+001 208343  7.3552e-002  2.2787e-004  4.0939e-003 154240 208216,208268,208242
 4.2000e+001 208320 -1.4063e-001 -4.3568e-004 -7.8275e-003 154240 208216,208294,208268
 4.2000e+001 208495  3.3827e+006 -2.9165e+007 -7.7505e+006 153950 208394,208446,208420
 4.2000e+001 208472 -2.1220e+006 -1.2359e+007  3.8661e+006 153950 208368,208446,208394
 4.2000e+001 208647 -1.4171e+006 -1.3037e+007  8.9835e+006 153603 208520,208572,208546
 4.2000e+001 208624 -5.4991e+006 -5.0938e+006 -4.8266e+006 153603 208520,208598,208572
 4.2000e+001 208848 -3.0304e+005 -2.7383e+006  1.0588e+006 153149 208698,208776,208724
 4.2000e+001 208825  4.1293e+005 -6.0996e+006 -6.3610e+005 153149 208672,208776,208698
 4.2000e+001 208802 -1.1207e+006 -1.6060e+006  7.2504e+005 153149 208724,208776,208750
 4.2000e+001 209000 -1.2098e+006 -1.0234e+007 -3.5553e+005 152859 208873,208925,208899
 4.2000e+001 208977 -9.9506e+004 -1.6408e+007  5.8824e+005 152859 208873,208951,208925
 4.2000e+001 209152  8.2417e+005 -1.4159e+007 -3.3271e+005 152569 209051,209103,209077
 4.2000e+001 209129  5.8102e+005 -1.4653e+007 -6.3951e+005 152569 209025,209103,209051
 4.2000e+001 209304 -3.1909e-001 -4.4371e-001 -3.7627e-001 152065 209177,209229,209203
 4.2000e+001 209281  7.2938e-001  1.0142e+000  8.6009e-001 152065 209177,209255,209229
 4.2000e+001 209456  6.8967e+005 -1.1501e+007 -7.9911e+004 151775 209355,209407,209381
 4.2000e+001 209433  1.3634e+006 -1.6818e+007 -1.5730e+005 151775 209329,209407,209355
 4.2000e+001 209608 -8.5889e+005 -1.5166e+007 -5.2830e+005 151371 209481,209533,209507
 4.2000e+001 209585  8.3417e+005 -2.0207e+007  9.0987e+005 151371 209481,209559,209533
 4.2000e+001 209760 -3.9447e+005 -5.0276e+006 -2.8477e+005 150981 209659,209711,209685
 4.2000e+001 209737 -1.1494e+006 -6.2459e+006 -3.7897e+006 150981 209633,209711,209659
 4.2000e+001 209912  2.7679e+006 -4.0896e+007 -3.3545e+006 150619 209811,209863,209837
 4.2000e+001 209889 -3.4801e+006 -1.8785e+007  4.2444e+006 150619 209785,209863,209811
 4.2000e+001 210064 -9.5818e+005 -1.3766e+006 -8.2219e+005 150279 209937,209989,209963
 4.2000e+001 210041  3.5036e+005 -1.1992e+007 -3.2652e+006 150279 209937,210015,209989
 4.2000e+001 210265 -1.3162e+006 -1.6407e+007  6.9995e+005 149989 210115,210167,210141
 4.2000e+001 210242 -6.1389e+005 -1.7976e+007 -1.0824e+006 149989 210115,210193,210167
 4.2000e+001 210219  5.4870e+005 -1.9492e+007 -3.3941e+005 149989 210089,210193,210115
 4.2000e+001 210417 -5.7334e+006 -3.4761e+006 -1.1624e+005 149599 210316,210368,210342
 4.2000e+001 210394 -3.1622e+006 -1.0867e+007 -9.2471e+005 149599 210290,210368,210316
 4.2000e+001 210618 -3.7853e+006 -1.4348e+007  4.6850e+006 149095 210468,210520,210494
 4.2000e+001 210595 -4.0480e+006 -1.4091e+007  1.1675e+006 149095 210442,210520,210468
 4.2000e+001 210572 -2.3251e+006 -2.7123e+007  2.8035e+006 149095 210442,210546,210520
 4.2000e+001 210819 -8.8710e+002 -9.1975e+002 -2.9609e+001 148748 210695,210747,210721
 4.2000e+001 210796  3.2137e+002  4.2522e+003  4.2653e+002 148748 210669,210747,210695
 4.2000e+001 210773  2.1481e+003  1.6310e+003 -1.8327e+003 148748 210643,210747,210669
 4.2000e+001 210971  1.0695e+002  6.4479e+001  7.3550e+001 148408 210870,210922,210896
 4.2000e+001 210948  1.7841e+002 -3.9871e+001  1.6696e+002 148408 210844,210922,210870
 4.2000e+001 211123 -7.0626e+005 -1.1510e+007  1.1568e+006 148118 210996,211048,211022
 4.2000e+001 211100 -7.1587e+004 -1.3952e+007  5.2065e+006 148118 210996,211074,211048
 4.2000e+001 211275 -2.8282e+006 -9.0778e+006  6.7137e+005 147778 211148,211200,211174
 4.2000e+001 211252 -1.7269e+005 -2.2356e+007  9.3814e+006 147778 211148,211226,211200
 4.2000e+001 211427 -1.5196e+006 -7.1243e+006  2.5490e+006 147324 211326,211378,211352
 4.2000e+001 211404  1.0166e+006 -1.2327e+007  1.0605e+006 147324 211300,211378,211326
 4.2000e+001 211628 -6.6806e+002 -7.1133e+001  8.4979e+002 147012 211452,211504,211478
 4.2000e+001 211605  1.6245e+002  9.8591e+002  1.0892e+001 147012 211452,211556,211504
 4.2000e+001 211582  2.5334e+002  8.2816e+002  2.0383e+002 147012 211504,211556,211530
 4.2000e+001 211829 -3.6044e+006 -6.4584e+006  2.7603e+006 146636 211679,211757,211731
 4.2000e+001 211806  3.8947e+006 -1.9755e+007 -8.2523e+005 146636 211653,211757,211679
 4.2000e+001 211783  1.1282e+006 -7.3524e+006  4.6561e+006 146636 211679,211731,211705
 4.2000e+001 211981  1.7739e+003 -1.4934e+003  5.5162e+002 146246 211880,211932,211906
 4.2000e+001 211958  7.8708e+002 -9.0603e+001 -2.1246e+002 146246 211854,211932,211880
 4.2000e+001 212133 -4.5833e+002  3.3115e+002 -1.7303e+002 145956 212006,212058,212032
 4.2000e+001 212110  1.3821e+002 -4.4140e+001 -4.0827e+000 145956 212006,212084,212058
 4.2000e+001 212285 -1.1885e+003  3.0204e+003  1.8408e+000 145544 212184,212236,212210
 4.2000e+001 212262 -1.2507e+003  4.6467e+002  1.3690e+002 145544 212158,212236,212184
 4.2000e+001 212486  8.7945e+005 -1.5984e+007  2.5827e+006 144990 212362,212414,212388
 4.2000e+001 212463  8.2493e+004 -1.1484e+007  4.8596e+006 144990 212310,212414,212362
 4.2000e+001 212440 -3.4674e+006 -2.6776e+006  2.2729e+006 144990 212310,212362,212336
 4.2000e+001 212638  2.6279e+004 -7.8159e+004  6.0853e+003 144600 212537,212589,212563
 4.2000e+001 212615  1.9145e+004 -8.4078e+004  4.7857e+004 144600 212511,212589,212537
 4.2000e+001 212839 -3.8633e+004 -6.6779e+005 -9.4202e+004 144210 212689,212741,212715
 4.2000e+001 212816  2.7004e+003 -8.0678e+005  3.9573e+004 144210 212663,212741,212689
 4.2000e+001 212793  4.0523e+004 -5.5551e+005 -1.0284e+004 144210 212663,212767,212741
 4.2000e+001 212991  1.0066e+003 -1.0135e+003 -1.3129e+003 143920 212890,212942,212916
 4.2000e+001 212968  1.9160e+003 -4.6488e+001 -7.3077e+002 143920 212864,212942,212890
 4.2000e+001 213143 -4.9989e+002  7.2149e+001 -7.2162e+002 143480 213016,213068,213042
 4.2000e+001 213120  5.3361e+002 -1.6813e+002 -3.9632e+002 143480 213016,213094,213068
 4.2000e+001 213295 -2.5873e+006 -8.5913e+006  5.8305e+006 142990 213194,213246,213220
 4.2000e+001 213272 -3.3925e+006 -3.0769e+006  2.0758e+006 142990 213168,213246,213194
 4.2000e+001 213447 -5.3171e+004 -3.5758e+006  7.5297e+005 142600 213320,213372,213346
 4.2000e+001 213424 -5.5081e+005 -2.0201e+006 -5.0811e+005 142600 213320,213398,213372
 4.2000e+001 213599 -6.0933e+004 -2.1899e+005 -1.3727e+005 142260 213472,213524,213498
 4.2000e+001 213576 -3.4849e+004 -2.6303e+005  4.3953e+004 142260 213472,213550,213524
 4.2000e+001 213751 -2.7450e+005 -9.5776e+005 -4.7570e+005 141870 213624,213676,213650
 4.2000e+001 213728 -5.5260e+005 -7.8194e+005 -8.0761e+005 141870 213624,213702,213676
 4.2000e+001 213903 -1.2098e+006 -2.4554e+006 -1.7029e+006 141530 213776,213828,213802
 4.2000e+001 213880 -5.6082e+005 -2.7299e+006 -1.1374e+006 141530 213776,213854,213828
 4.2000e+001 214055 -3.6530e+002 -3.1466e+002 -3.3938e+001 141218 213928,213980,213954
 4.2000e+001 214032  5.7552e+001 -2.9518e+002 -1.6631e+002 141218 213928,214006,213980
 4.2000e+001 214207 -4.7450e+002  3.0738e+001  4.8051e+001 140928 214080,214132,214106
 4.2000e+001 214184  4.3683e+002  2.2071e+002  5.6531e+002 140928 214080,214158,214132
 4.2000e+001 214359 -2.3851e+005 -3.1325e+005 -2.9871e+005 140538 214232,214284,214258
 4.2000e+001 214336  1.2756e+005 -8.0555e+005  9.4274e+004 140538 214232,214310,214284
 4.2000e+001 214560 -3.4785e+004 -2.7405e+006  5.8577e+004 140248 214384,214462,214410
 4.2000e+001 214537  1.8411e+005 -1.2475e+006 -5.5121e+004 140248 214384,214488,214462
 4.2000e+001 214514 -2.7494e+005 -1.6940e+006 -3.6362e+005 140248 214410,214462,214436
 4.2000e+001 214712 -8.2867e+005 -8.8500e+006  2.0023e+006 140000 214611,214663,214637
 4.2000e+001 214689 -1.0398e+006 -4.9307e+006  1.4897e+006 140000 214585,214663,214611
 4.2000e+001 214913 -5.4145e+005 -1.9821e+006 -1.2547e+006 139596 214737,214815,214763
 4.2000e+001 214890 -5.1329e+005 -3.7288e+005 -2.0588e+005 139596 214737,214841,214815
 4.2000e+001 214867  4.6340e+005 -4.2025e+006 -8.0737e+005 139596 214763,214815,214789
 4.2000e+001 215016 -2.3127e+003 -6.6816e+002 -1.5651e+002 139420 214938,214990,214964
 4.2000e+001 215168 -1.9302e+006 -1.0996e+007  4.5046e+006 139130 215067,215119,215093
 4.2000e+001 215145 -1.0232e+006 -1.1222e+007  2.8071e+006 139130 215041,215119,215067
 4.2000e+001 215320 -1.4733e+006 -4.9124e+006  2.3316e+006 138790 215219,215271,215245
 4.2000e+001 215297 -4.1443e+005 -1.2323e+007  4.1516e+006 138790 215193,215271,215219
 4.2000e+001 215472 -4.9134e+004 -2.2948e+005  7.6352e+004 138514 215345,215397,215371
 4.2000e+001 215449 -7.1440e+004 -3.7479e+005  1.8989e+005 138514 215345,215423,215397
 4.2000e+001 215624 -3.1926e+004 -1.0621e+007  1.1592e+006 138174 215497,215549,215523
 4.2000e+001 215601 -8.8320e+002 -7.8026e+006  7.4556e+005 138174 215497,215575,215549
 4.2000e+001 215776 -2.3541e+005 -1.3740e+006  7.9531e+005 137734 215649,215701,215675
 4.2000e+001 215753 -2.1487e+005 -8.5684e+005 -3.2669e+005 137734 215649,215727,215701
 4.2000e+001 215977  9.5234e+004 -2.0400e+007  5.2104e+006 137344 215801,215879,215827
 4.2000e+001 215954 -1.5138e+006 -8.7417e+006 -3.5039e+006 137344 215801,215905,215879
 4.2000e+001 215931 -7.0710e+005 -2.6715e+007  2.6958e+005 137344 215827,215879,215853
 4.2000e+001 216129 -6.0136e+005 -5.5885e+006 -6.0026e+005 136940 216028,216080,216054
 4.2000e+001 216106 -9.1455e+005 -7.4131e+006 -4.7970e+005 136940 216002,216080,216028
 4.2000e+001 216330 -4.2192e+005 -9.3977e+006  1.6237e+006 136600 216180,216232,216206
 4.2000e+001 216307 -1.3384e+005 -9.4239e+006  2.0942e+006 136600 216154,216232,216180
 4.2000e+001 216284 -1.7120e+006 -6.0540e+006  5.4974e+005 136600 216154,216258,216232
 4.2000e+001 216482  9.0251e+005 -7.0933e+006  9.0312e+005 136260 216381,216433,216407
 4.2000e+001 216459  5.8267e+005 -8.0732e+006  5.8642e+005 136260 216355,216433,216381
 4.2000e+001 216634 -1.0094e+006 -8.4797e+006  2.6670e+006 135970 216533,216585,216559
 4.2000e+001 216611 -5.5717e+005 -1.1207e+007  3.0409e+006 135970 216507,216585,216533
 4.2000e+001 216835 -9.4132e+005 -3.7321e+006 -1.4402e+006 135608 216685,216763,216711
 4.2000e+001 216812 -2.3206e+005 -2.4200e+006  2.6434e+005 135608 216659,216763,216685
 4.2000e+001 216789 -6.5328e+005 -1.1246e+007  2.1439e+005 135608 216711,216763,216737
 4.2000e+001 217036 -1.5686e+006 -1.1043e+006  6.8771e+005 135312 216912,216964,216938
 4.2000e+001 217013 -1.1049e+006 -4.3485e+006  2.7940e+006 135312 216886,216964,216912
 4.2000e+001 216990  1.1226e+006 -9.3561e+006  1.6865e+006 135312 216860,216964,216886
 4.2000e+001 217237 -2.7033e+004 -3.2252e+005  1.3543e+005 134908 217061,217139,217113
 4.2000e+001 217214  5.4374e+004 -2.8058e+005  4.3018e+004 134908 217061,217165,217139
 4.2000e+001 217191  1.0087e+005 -5.1092e+005  1.8783e+005 134908 217061,217113,217087
 4.2000e+001 217438 -2.4256e+006 -2.4593e+007  1.3439e+006 134568 217288,217366,217314
 4.2000e+001 217415  2.6324e+006 -3.7210e+007  1.3074e+006 134568 217262,217366,217288
 4.2000e+001 217392 -3.6426e+005 -2.2734e+007 -5.5785e+005 134568 217314,217366,217340
 4.2000e+001 217590 -3.4325e+004 -2.5220e+005  3.3139e+004 134106 217463,217515,217489
 4.2000e+001 217567 -6.9153e+004 -3.5801e+005  1.8555e+005 134106 217463,217541,217515
 4.2000e+001 217791 -2.1044e+006 -3.2696e+007 -8.7679e+006 133816 217641,217693,217667
 4.2000e+001 217768  3.7250e+006 -3.7213e+007  3.9381e+006 133816 217641,217719,217693
 4.2000e+001 217745 -7.5423e+006 -3.8061e+006  5.3579e+006 133816 217615,217719,217641
 4.2000e+001 217992 -3.3072e+006 -5.6173e+006  4.4191e+006 133355 217842,217920,217894
 4.2000e+001 217969  1.1786e+006 -1.6325e+007 -6.3915e+005 133355 217816,217920,217842
 4.2000e+001 217946  3.0523e+004 -3.1597e+006  9.5315e+005 133355 217842,217894,217868
 4.2000e+001 218193 -4.4844e+005 -8.1571e+006 -3.5529e+006 132851 218017,218095,218069
 4.2000e+001 218170 -3.1793e+006 -1.1108e+007  7.5641e+006 132851 218017,218121,218095
 4.2000e+001 218147 -3.9127e+006 -5.9235e+006 -2.8784e+006 132851 218017,218069,218043
 4.2000e+001 218345 -2.4629e+005 -2.6474e+006  7.2743e+005 132511 218244,218296,218270
 4.2000e+001 218322 -2.0707e+005 -3.2858e+006  8.4942e+005 132511 218218,218296,218244
 4.2000e+001 218497  1.8120e+005 -3.7325e+007 -2.3121e+006 132235 218396,218448,218422
 4.2000e+001 218474 -2.2615e+006 -1.1268e+007  2.6957e+005 132235 218370,218448,218396
 4.2000e+001 218698 -6.0559e+005 -1.2561e+007 -4.6258e+005 131945 218574,218626,218600
 4.2000e+001 218675 -2.5784e+006 -2.1236e+007 -1.2726e+005 131945 218522,218626,218574
 4.2000e+001 218652 -1.1894e+006 -1.7366e+007 -1.7203e+006 131945 218522,218574,218548
 4.2000e+001 218850 -4.3236e+005 -2.4168e+007 -1.4541e+006 131655 218723,218775,218749
 4.2000e+001 218827  4.2570e+004 -1.4842e+007 -8.9007e+005 131655 218723,218801,218775
 4.2000e+001 218953 -1.8320e+005 -3.4103e+006  4.3998e+005 131215 218875,218927,218901
 4.2000e+001 219105 -2.8686e+005 -7.1907e+006 -1.8106e+006 130875 218978,219030,219004
 4.2000e+001 219082 -5.9530e+005 -2.2607e+006 -4.8519e+005 130875 218978,219056,219030
 4.2000e+001 219306 -1.5453e+005 -5.4636e+006 -6.1538e+005 130429 219156,219234,219208
 4.2000e+001 219283 -7.0041e+005 -2.2047e+006  2.0540e+004 130429 219130,219234,219156
 4.2000e+001 219260 -2.6869e+006 -6.2903e+006  1.6977e+006 130429 219156,219208,219182
 4.2000e+001 219507  6.1600e+003 -1.1768e+006  8.6935e+003 130025 219383,219435,219409
 4.2000e+001 219484  3.9115e+004 -1.2464e+006  7.9939e+004 130025 219331,219435,219383
 4.2000e+001 219461 -1.4134e+005 -6.0952e+005 -1.7545e+005 130025 219331,219383,219357
 4.2000e+001 219659 -1.4134e+006 -7.2806e+006  7.5061e+005 129685 219558,219610,219584
 4.2000e+001 219636  1.8197e+005 -1.2429e+007 -5.7942e+006 129685 219532,219610,219558
 4.2000e+001 219860  1.0220e+005 -3.9369e+006  9.9348e+005 129395 219710,219788,219762
 4.2000e+001 219837 -1.0796e+006 -2.4486e+006  4.1265e+005 129395 219684,219788,219710
 4.2000e+001 219814  7.3719e+005 -6.2094e+006 -7.0811e+005 129395 219710,219762,219736
 4.2000e+001 220061  2.6906e+005 -4.4479e+006  3.8200e+005 128991 219937,219989,219963
 4.2000e+001 220038  2.8319e+004 -4.2742e+006  3.2334e+005 128991 219885,219989,219937
 4.2000e+001 220015 -6.6666e+004 -4.9964e+006  6.1946e+005 128991 219885,219937,219911
 4.2000e+001 220262 -5.5925e+005 -2.9328e+006  2.0190e+005 128701 220086,220164,220112
 4.2000e+001 220239 -4.8133e+005 -3.8255e+006  5.7154e+005 128701 220086,220190,220164
 4.2000e+001 220216 -2.6278e+005 -3.0859e+006 -1.6740e+005 128701 220112,220164,220138
 4.2000e+001 220463 -3.5095e+006 -9.9079e+006  3.8817e+006 128297 220339,220391,220365
 4.2000e+001 220440  2.4044e+006 -2.2158e+007  9.3925e+005 128297 220313,220391,220339
 4.2000e+001 220417 -1.4711e+005 -2.6594e+007 -5.8484e+006 128297 220287,220391,220313
 4.2000e+001 220615 -1.3359e+006 -4.2208e+006 -1.0194e+006 128007 220488,220540,220514
 4.2000e+001 220592  1.2501e+006 -1.3259e+007  3.3089e+005 128007 220488,220566,220540
 4.2000e+001 220767 -2.7041e+004 -4.6329e+006  2.7135e+005 127567 220640,220692,220666
 4.2000e+001 220744 -6.4411e+004 -2.6195e+006  1.1078e+005 127567 220640,220718,220692
 4.2000e+001 220919 -7.1841e+005 -1.9922e+007 -2.2385e+006 127163 220792,220844,220818
 4.2000e+001 220896  1.7441e+006 -2.3463e+007  2.2337e+006 127163 220792,220870,220844
 4.2000e+001 221071 -1.2204e+006 -3.9194e+006  1.3741e+006 126915 220970,221022,220996
 4.2000e+001 221048 -6.9074e+005 -5.2117e+006  1.0179e+006 126915 220944,221022,220970
 4.2000e+001 221272 -2.0106e+006 -4.4621e+006  3.2033e+006 126461 221122,221174,221148
 4.2000e+001 221249 -4.9228e+006 -5.8371e+006  1.0480e+006 126461 221122,221200,221174
 4.2000e+001 221226  1.2973e+006 -1.5256e+007 -3.0641e+006 126461 221096,221200,221122
 4.2000e+001 221375  1.1991e+002 -1.1968e+005 -5.1242e+001 126213 221297,221349,221323
 4.2000e+001 221478  3.6745e+002 -3.7602e+004  3.7123e+001 125766 221400,221452,221426
 4.2000e+001 221679 -1.1395e+005 -2.7997e+006  2.6564e+005 125212 221503,221555,221529
 4.2000e+001 221656 -1.8574e+005 -3.6440e+006  2.2760e+004 125212 221503,221581,221555
 4.2000e+001 221633  3.6687e+005 -7.1693e+006  1.6901e+006 125212 221503,221607,221581
 4.2000e+001 221929 -3.9753e+002  7.2068e+002  2.7679e+001 124872 221782,221834,221808
 4.2000e+001 221906 -1.9165e+002 -3.7220e+002 -4.0863e+002 124872 221756,221834,221782
 4.2000e+001 221883 -4.6311e+002  2.0027e+002 -8.5069e+002 124872 221704,221834,221756
 4.2000e+001 221860 -5.5727e+002  1.7240e+002 -6.9523e+002 124872 221704,221756,221730
 4.2000e+001 222130 -6.6513e+005 -1.1278e+007 -1.1830e+006 124582 221980,222058,222006
 4.2000e+001 222107 -2.5404e+006 -1.1079e+007 -8.5110e+005 124582 221954,222058,221980
 4.2000e+001 222084 -2.0123e+006 -1.2482e+007 -1.9659e+006 124582 222006,222058,222032
 4.2000e+001 222282 -2.6643e+006 -1.2893e+007 -3.7785e+006 124192 222181,222233,222207
 4.2000e+001 222259 -1.1401e+006 -1.1360e+007 -2.2622e+006 124192 222155,222233,222181
 4.2000e+001 222483 -1.6971e+005 -3.9138e+006 -1.3324e+006 123702 222333,222385,222359
 4.2000e+001 222460 -2.9065e+005 -2.9506e+006 -1.9434e+004 123702 222333,222411,222385
 4.2000e+001 222437 -2.5531e+005 -1.2043e+006 -3.3478e+005 123702 222307,222411,222333
 4.2000e+001 222635 -6.6514e+005 -1.1301e+006 -5.8351e+005 123312 222508,222560,222534
 4.2000e+001 222612  4.0834e+005 -5.5038e+006 -3.7997e+005 123312 222508,222586,222560
 4.2000e+001 222787 -4.6701e+004 -2.2889e+006 -8.7403e+004 122858 222686,222738,222712
 4.2000e+001 222764 -1.8227e+005 -2.4511e+006 -4.4355e+005 122858 222660,222738,222686
 4.2000e+001 222939 -2.5748e+005 -1.6446e+006 -3.0308e+004 122568 222812,222864,222838
 4.2000e+001 222916 -2.6931e+005 -1.1948e+006  3.6760e+005 122568 222812,222890,222864
 4.2000e+001 223091 -1.8248e+005 -2.9295e+006 -6.3084e+005 122392 222964,223016,222990
 4.2000e+001 223068  3.3194e+005 -3.4016e+006 -1.3192e+005 122392 222964,223042,223016
 4.2000e+001 223292 -1.9023e+005 -7.9643e+006 -8.1040e+005 121852 223142,223220,223194
 4.2000e+001 223269 -1.0170e+006 -7.9606e+006 -8.6611e+005 121852 223116,223220,223142
 4.2000e+001 223246 -1.7072e+005 -7.8301e+006 -1.1589e+006 121852 223142,223194,223168
 4.2000e+001 223493 -1.0976e+006 -7.8938e+006  4.7857e+004 121406 223343,223395,223369
 4.2000e+001 223470 -2.6067e+006 -6.5090e+006 -1.2927e+006 121406 223343,223421,223395
 4.2000e+001 223447 -9.4578e+005 -4.4940e+006  1.4872e+006 121406 223317,223421,223343
 4.2000e+001 223645  3.5838e+005 -1.1118e+007  1.0998e+006 121002 223544,223596,223570
 4.2000e+001 223622 -1.2026e+006 -6.3274e+006  1.3467e+006 121002 223518,223596,223544
 4.2000e+001 223846 -2.9027e+005 -8.8061e+006  2.3230e+004 120662 223670,223748,223696
 4.2000e+001 223823  5.8072e+005 -5.2097e+006 -3.7592e+004 120662 223670,223774,223748
 4.2000e+001 223800 -1.3057e+006 -3.7468e+006 -1.5677e+006 120662 223696,223748,223722
 4.2000e+001 224047 -5.4102e+005 -4.8588e+006  1.3911e+006 120222 223897,223949,223923
 4.2000e+001 224024  7.7190e+005 -6.7669e+006 -7.7296e+005 120222 223871,223949,223897
 4.2000e+001 224001 -9.9517e+005 -4.3098e+006 -1.2925e+006 120222 223871,223975,223949
 4.2000e+001 224248  4.8857e+005 -4.2209e+006 -1.2858e+006 119875 224124,224176,224150
 4.2000e+001 224225 -1.0433e+006 -8.6365e+006 -2.3767e+006 119875 224098,224176,224124
 4.2000e+001 224202 -5.0747e+005 -1.6970e+006  1.6537e+005 119875 224072,224176,224098
 4.2000e+001 224449 -1.9570e+005 -5.5534e+006 -4.9723e+005 119677 224325,224377,224351
 4.2000e+001 224426 -5.4314e+005 -6.9459e+006 -3.5154e+005 119677 224299,224377,224325
 4.2000e+001 224403 -4.8282e+004 -1.7913e+006 -6.7983e+004 119677 224273,224377,224299
 4.2000e+001 224552 -5.1793e+005 -1.8308e+006 -3.8455e+005 119273 224474,224526,224500
 4.2000e+001 224704 -3.4308e+005 -8.7338e+006 -6.7973e+005 118983 224603,224655,224629
 4.2000e+001 224681  6.2135e+004 -1.0401e+007 -1.6546e+006 118983 224577,224655,224603
 4.2000e+001 224856 -7.3331e+005 -6.9047e+006 -6.3093e+005 118529 224755,224807,224781
 4.2000e+001 224833  1.4027e+005 -1.2073e+007 -1.8018e+006 118529 224729,224807,224755
 4.2000e+001 225008 -9.5172e+005 -9.6395e+006  1.1751e+005 118353 224881,224933,224907
 4.2000e+001 224985 -4.1722e+005 -9.0418e+005 -8.8525e+004 118353 224881,224959,224933
 4.2000e+001 225209 -6.7138e+005 -6.1263e+006 -7.6060e+005 117949 225059,225137,225111
 4.2000e+001 225186 -3.2848e+005 -6.3344e+006 -1.3568e+006 117949 225033,225137,225059
 4.2000e+001 225163  1.3914e+005 -7.8212e+006 -8.6332e+004 117949 225059,225111,225085
 4.2000e+001 225410 -2.3697e+004 -7.2769e+006  8.2228e+005 117559 225260,225338,225312
 4.2000e+001 225387 -1.0309e+006 -7.6704e+006  3.4079e+005 117559 225234,225338,225260
 4.2000e+001 225364 -6.0090e+005 -5.0774e+006 -1.7474e+006 117559 225260,225312,225286
 4.2000e+001 225611 -2.0797e+006 -1.1430e+007 -5.1965e+006 117361 225461,225513,225487
 4.2000e+001 225588  4.6408e+005 -1.1924e+007  1.3431e+006 117361 225461,225539,225513
 4.2000e+001 225565 -2.1544e+006 -7.9414e+006  3.8626e+006 117361 225435,225539,225461
 4.2000e+001 225812  4.7920e+005 -6.6940e+006 -5.1733e+005 116900 225636,225714,225662
 4.2000e+001 225789  8.5580e+005 -6.0767e+006 -7.9991e+005 116900 225636,225740,225714
 4.2000e+001 225766 -2.1314e+004 -6.8361e+006 -3.8734e+005 116900 225662,225714,225688
 4.2000e+001 225964 -8.4991e+004 -4.5695e+006 -2.4186e+005 116560 225837,225889,225863
 4.2000e+001 225941  1.6291e+005 -5.3483e+006 -1.4472e+005 116560 225837,225915,225889
 4.2000e+001 226165  3.5478e+005 -6.2778e+006 -2.6485e+005 116106 226015,226093,226041
 4.2000e+001 226142 -8.2176e+005 -7.4679e+006 -3.9868e+006 116106 225989,226093,226015
 4.2000e+001 226119 -3.4538e+006 -2.0598e+006  1.3887e+006 116106 226041,226093,226067
 4.2000e+001 226268 -1.9628e+006 -7.5861e+006  9.5355e+004 115716 226190,226242,226216
 4.2000e+001 226420 -5.0053e+005 -8.9590e+006  2.0698e+006 115376 226293,226345,226319
 4.2000e+001 226397 -7.5853e+005 -9.0460e+006  2.1311e+006 115376 226293,226371,226345
 4.2000e+001 226621 -4.5904e+005 -1.6468e+006  2.3733e+005 114972 226497,226549,226523
 4.2000e+001 226598 -5.3262e+005 -8.9925e+006 -6.8417e+005 114972 226445,226549,226497
 4.2000e+001 226575  2.8907e+004 -4.2254e+006  6.2025e+005 114972 226445,226497,226471
 4.2000e+001 226773 -7.9941e+005 -2.7484e+006 -1.1141e+006 114670 226646,226698,226672
 4.2000e+001 226750  4.9524e+005 -6.2978e+006  3.3180e+005 114670 226646,226724,226698
 4.2000e+001 226974  3.3820e+004 -1.7832e+006 -3.2976e+005 114082 226798,226850,226824
 4.2000e+001 226951  1.0892e+005 -2.4673e+006 -8.8928e+004 114082 226798,226902,226850
 4.2000e+001 226928  3.8283e+004 -3.3891e+006 -3.3970e+005 114082 226850,226902,226876
 4.2000e+001 227175 -7.7262e+005 -4.5475e+006 -1.3573e+006 113678 226999,227051,227025
 4.2000e+001 227152 -1.9395e+006 -7.0725e+006 -2.9501e+006 113678 226999,227077,227051
 4.2000e+001 227129  3.5944e+005 -1.4607e+007 -4.8416e+006 113678 226999,227103,227077
 4.2000e+001 227425 -5.8163e+005 -8.8545e+006 -4.2602e+006 113274 227226,227278,227252
 4.2000e+001 227402  8.0042e+004 -8.5732e+006 -2.6590e+006 113274 227226,227330,227278
 4.2000e+001 227379 -1.9664e+006 -1.0065e+007 -3.7706e+006 113274 227200,227330,227226
 4.2000e+001 227356 -2.0863e+006 -2.7654e+006 -2.2731e+006 113274 227278,227330,227304
 4.2000e+001 227626  3.8387e+005 -6.0127e+006 -1.6411e+006 112934 227502,227554,227528
 4.2000e+001 227603  8.1023e+004 -4.0246e+006  2.0642e+005 112934 227450,227554,227502
 4.2000e+001 227580 -2.0300e+006 -2.3175e+006 -5.0186e+005 112934 227450,227502,227476
 4.2000e+001 227876 -1.1957e+005 -1.4425e+006 -1.2462e+005 112437 227677,227755,227703
 4.2000e+001 227853 -9.0104e+005 -1.7658e+006  8.5295e+005 112437 227677,227781,227755
 4.2000e+001 227830 -2.0962e+005 -7.8848e+005  2.6058e+005 112437 227703,227755,227729
 4.2000e+001 227807 -2.7221e+005 -4.8321e+006 -2.0791e+005 112437 227651,227781,227677
 4.2000e+001 228126 -5.9776e+005 -5.5497e+006  1.0107e+005 112041 227927,228005,227953
 4.2000e+001 228103 -6.3285e+005 -6.3802e+006 -3.9718e+005 112041 227927,228031,228005
 4.2000e+001 228080 -4.9306e+005 -6.1840e+006  1.5444e+005 112041 227953,228005,227979
 4.2000e+001 228057 -1.6281e+006 -4.4721e+006 -1.0302e+006 112041 227901,228031,227927
 4.2000e+001 228327 -1.3256e+006 -4.8689e+006 -1.1837e+006 111693 228151,228203,228177
 4.2000e+001 228304 -1.1064e+006 -2.7452e+006 -1.4721e+006 111693 228151,228229,228203
 4.2000e+001 228281  1.7257e+005 -4.9332e+006  1.2677e+005 111693 228151,228255,228229
 4.2000e+001 228479 -3.2986e+006 -6.8807e+006 -4.4873e+006 111253 228352,228404,228378
 4.2000e+001 228456 -2.3818e+006 -4.1880e+006 -8.4954e+005 111253 228352,228430,228404
 4.2000e+001 228582 -2.2159e+006 -4.6770e+006 -3.3258e+005 110906 228504,228556,228530
 4.2000e+001 228783  3.4851e+004 -1.2039e+006  8.8131e+004 110416 228633,228711,228659
 4.2000e+001 228760  5.0532e+004 -1.2046e+006  1.1886e+005 110416 228607,228711,228633
 4.2000e+001 228737 -6.7310e+004 -2.1481e+006  1.1678e+005 110416 228659,228711,228685
 4.2000e+001 228935 -4.0059e+004 -4.6800e+006 -3.3924e+005 110012 228808,228860,228834
 4.2000e+001 228912 -8.5192e+005 -8.9941e+006 -1.1251e+006 110012 228808,228886,228860
 4.2000e+001 229087 -1.4528e+006 -3.6959e+006 -1.6828e+006 109672 228960,229012,228986
 4.2000e+001 229064 -6.5896e+005 -8.1037e+006 -1.9048e+005 109672 228960,229038,229012
 4.2000e+001 229190  3.0697e+004 -7.5079e+005 -3.1891e+004 109332 229112,229164,229138
 4.2000e+001 229391  2.8763e+004 -3.2652e+005 -8.4038e+004 109156 229267,229319,229293
 4.2000e+001 229368 -1.0520e+005 -7.8350e+005 -1.6760e+005 109156 229215,229319,229267
 4.2000e+001 229345  4.5194e+003 -1.9459e+005 -4.4791e+004 109156 229215,229267,229241
 4.2000e+001 229543  1.9835e+004 -9.4684e+006  9.6853e+005 108752 229416,229468,229442
 4.2000e+001 229520 -1.4657e+005 -9.5698e+006  1.0445e+006 108752 229416,229494,229468
 4.2000e+001 229744 -3.0985e+005 -7.5830e+006 -2.7877e+005 108198 229594,229646,229620
 4.2000e+001 229721 -5.3371e+005 -7.7672e+006  1.2191e+006 108198 229594,229672,229646
 4.2000e+001 229698 -2.3099e+005 -9.4539e+006  2.5985e+005 108198 229568,229672,229594
 4.2000e+001 229847 -4.6733e+004 -7.1187e+005 -1.8272e+005 107758 229769,229821,229795
 4.2000e+001 230048 -9.7363e+005 -3.0533e+006 -7.2826e+005 107468 229898,229950,229924
 4.2000e+001 230025 -5.0764e+005 -2.7693e+006 -3.5254e+005 107468 229872,229950,229898
 4.2000e+001 230002 -1.0227e+006 -3.0000e+006 -1.7896e+005 107468 229872,229976,229950
 4.2000e+001 230298  9.5861e+004 -1.5519e+006  4.5942e+005 107121 230099,230203,230177
 4.2000e+001 230275 -1.1326e+005 -1.0695e+006  3.6032e+005 107121 230073,230203,230099
 4.2000e+001 230252  2.4884e+005 -2.0032e+006 -9.1957e+005 107121 230099,230177,230151
 4.2000e+001 230229 -3.9499e+005 -2.0624e+006 -9.0250e+005 107121 230099,230151,230125
 4.2000e+001 230450  1.3239e+005 -1.4321e+006 -1.7325e+005 106823 230349,230401,230375
 4.2000e+001 230427 -1.0371e+005 -1.8947e+005  9.9354e+004 106823 230323,230401,230349
 4.2000e+001 230602 -8.5129e+005 -1.1800e+007 -4.2072e+006 106533 230501,230553,230527
 4.2000e+001 230579 -1.2942e+006 -1.0940e+007  1.6884e+004 106533 230475,230553,230501
 4.2000e+001 230803 -1.2237e+005 -7.9277e+005 -1.4326e+005 106029 230679,230731,230705
 4.2000e+001 230780 -1.3189e+005 -8.8184e+005  1.0605e+005 106029 230653,230731,230679
 4.2000e+001 230757  2.0859e+005 -2.4000e+006  4.7722e+002 106029 230627,230731,230653
 4.2000e+001 231004 -2.1665e+005 -2.8433e+006  1.3507e+005 105689 230854,230906,230880
 4.2000e+001 230981  1.7808e+005 -3.6981e+006 -8.1666e+005 105689 230828,230906,230854
 4.2000e+001 230958 -6.7647e+005 -2.9585e+006 -1.4148e+006 105689 230828,230932,230906
 4.2000e+001 231156 -1.1362e+006 -4.5898e+006  1.2263e+006 105377 231055,231107,231081
 4.2000e+001 231133  6.0003e+005 -1.1271e+007 -5.8334e+005 105377 231029,231107,231055
 4.2000e+001 231406 -8.2981e+005 -8.4100e+006 -1.6814e+004 104858 231207,231259,231233
 4.2000e+001 231383 -2.4460e+006 -8.1133e+006 -8.6474e+005 104858 231207,231311,231259
 4.2000e+001 231360 -1.2306e+006 -1.2796e+007 -2.0886e+006 104858 231259,231311,231285
 4.2000e+001 231337 -2.0977e+005 -1.1715e+007 -1.4397e+006 104858 231181,231311,231207
 4.2000e+001 231558 -1.6409e+006 -1.0063e+007  6.0348e+006 104418 231457,231509,231483
 4.2000e+001 231535 -4.8604e+005 -1.0711e+007 -4.9762e+006 104418 231431,231509,231457
 4.2000e+001 231710 -1.0763e+006 -1.2369e+006 -4.0242e+005 103978 231583,231635,231609
 4.2000e+001 231687 -1.0704e+006 -8.4103e+005 -4.4278e+005 103978 231583,231661,231635
 4.2000e+001 231862 -3.0474e+003 -8.7351e+005 -9.0563e+004 103588 231761,231813,231787
 4.2000e+001 231839  8.2636e+003 -8.5150e+005 -7.1450e+004 103588 231735,231813,231761
 4.2000e+001 232014 -2.1147e+006 -7.4002e+006 -2.1322e+006 103248 231887,231939,231913
 4.2000e+001 231991 -6.0697e+005 -1.7426e+007 -5.4749e+006 103248 231887,231965,231939
 4.2000e+001 232215 -1.7200e+005 -3.2039e+006  3.8252e+005 102844 232039,232117,232065
 4.2000e+001 232192  1.0213e+005 -3.0233e+006 -7.2810e+004 102844 232039,232143,232117
 4.2000e+001 232169 -3.4478e+005 -2.0096e+006 -4.4119e+005 102844 232065,232117,232091
 4.2000e+001 232416 -3.8021e+006 -1.0010e+007 -2.9527e+006 102554 232240,232318,232292
 4.2000e+001 232393  9.7303e+005 -1.5074e+007  1.2032e+005 102554 232240,232344,232318
 4.2000e+001 232370 -4.1015e+006 -3.9907e+006 -1.1073e+006 102554 232240,232292,232266
 4.2000e+001 232568 -7.0653e+003 -3.2924e+006 -1.0072e+004 102100 232441,232493,232467
 4.2000e+001 232545 -4.6164e+005 -3.3142e+006 -1.8433e+005 102100 232441,232519,232493
 4.2000e+001 232769 -1.0881e+005 -1.2001e+006 -1.5776e+005 101596 232645,232697,232671
 4.2000e+001 232746 -7.2015e+004 -1.0448e+006 -2.1512e+005 101596 232593,232697,232645
 4.2000e+001 232723  1.3879e+005 -2.6783e+006 -2.3868e+005 101596 232593,232645,232619
 4.2000e+001 232921 -1.7499e+002 -3.3282e+001 -1.9953e+001 101420 232794,232846,232820
 4.2000e+001 232898 -1.5806e+002 -7.1251e+001 -4.6912e+001 101420 232794,232872,232846
 4.2000e+001 233073 -1.1967e+006 -1.8514e+006 -8.4538e+005 101023 232946,232998,232972
 4.2000e+001 233050  6.9979e+005 -4.8871e+006  1.4542e+006 101023 232946,233024,232998
 4.2000e+001 233225 -1.6916e+005 -3.1256e+006 -3.2247e+003 100661 233098,233150,233124
 4.2000e+001 233202  1.6112e+005 -4.8716e+006  1.1812e+005 100661 233098,233176,233150
 4.2000e+001 233426 -1.6545e+006 -7.4918e+006 -2.3328e+006 100265 233276,233328,233302
 4.2000e+001 233403 -1.3193e+006 -6.4698e+006  1.2277e+005 100265 233276,233354,233328
 4.2000e+001 233380 -1.6731e+006 -1.0864e+007 -9.0829e+005 100265 233250,233354,233276
 4.2000e+001 233578 -2.4581e+004 -1.4313e+005 -1.7519e+004 100032 233451,233503,233477
 4.2000e+001 233555 -1.3189e+005 -1.6991e+005 -2.5115e+004 100032 233451,233529,233503
 4.2000e+001 233681 -3.9088e+005 -5.0468e+004  4.9326e+004 99742 233603,233655,233629
 4.2000e+001 233784 -2.1770e+005 -3.0047e+006 -4.0272e+004 99402 233706,233758,233732
 4.2000e+001 233936 -8.3709e+005 -2.1244e+006  6.9024e+004 99062 233835,233887,233861
 4.2000e+001 233913 -6.5354e+005 -1.4150e+006  1.7604e+005 99062 233809,233887,233835
 4.2000e+001 234088 -3.8280e+005 -4.8049e+006  1.1906e+006 98772 233987,234039,234013
 4.2000e+001 234065 -2.9003e+005 -4.7871e+006  1.1497e+006 98772 233961,234039,233987
 4.2000e+001 234240 -1.9267e+004 -1.9313e+005  4.5423e+004 98160 234139,234191,234165
 4.2000e+001 234217 -2.4377e+004 -1.9262e+005  1.3948e+004 98160 234113,234191,234139
 4.2000e+001 234441 -6.2009e+002 -4.0296e+002 -1.8470e+002 97820 234317,234369,234343
 4.2000e+001 234418 -7.2068e+002 -8.0880e+002 -4.0592e+002 97820 234291,234369,234317
 4.2000e+001 234395 -1.6679e+003 -1.4246e+003 -9.3666e+002 97820 234265,234369,234291
 4.2000e+001 234593 -5.2645e+005 -1.1526e+006 -2.7959e+005 97366 234466,234518,234492
 4.2000e+001 234570  2.4021e+005 -3.3606e+006 -4.9970e+005 97366 234466,234544,234518
 4.2000e+001 234794 -8.7986e+005 -1.3015e+006 -9.2692e+005 96976 234618,234670,234644
 4.2000e+001 234771 -5.0295e+004 -2.7592e+006 -7.9536e+005 96976 234618,234722,234670
 4.2000e+001 234748 -2.6268e+005 -2.5376e+006 -1.2079e+006 96976 234670,234722,234696
 4.2000e+001 234946 -7.4457e+005 -2.6723e+006  1.2122e+006 96568 234845,234897,234871
 4.2000e+001 234923 -4.8521e+005 -1.3767e+006  1.0369e+006 96568 234819,234897,234845
 4.2000e+001 235196 -1.4662e+005 -1.1898e+006  4.5327e+004 96216 234997,235075,235049
 4.2000e+001 235173 -2.4639e+005 -4.3698e+006  1.3617e+006 96216 234997,235101,235075
 4.2000e+001 235150 -7.6604e+005 -2.6996e+006  6.3960e+005 96216 234997,235049,235023
 4.2000e+001 235127 -8.5252e+004 -5.3048e+006 -8.4487e+005 96216 234971,235101,234997
 4.2000e+001 235348 -1.1131e+006 -2.9965e+006 -3.1487e+005 95863 235247,235299,235273
 4.2000e+001 235325 -1.1111e+006 -1.4528e+006 -7.7865e+005 95863 235221,235299,235247
 4.2000e+001 235500 -1.1776e+006 -2.9612e+006 -1.9615e+006 95339 235373,235425,235399
 4.2000e+001 235477 -4.6743e+005 -5.8850e+006  3.2932e+006 95339 235373,235451,235425
 4.2000e+001 235701  5.2681e+004 -4.0055e+006  1.0473e+006 95023 235525,235577,235551
 4.2000e+001 235678 -7.1167e+004 -2.9914e+006  2.4129e+005 95023 235525,235629,235577
 4.2000e+001 235655  1.0502e+004 -4.1738e+006  4.5138e+005 95023 235577,235629,235603
 4.2000e+001 235853  8.9760e+005 -9.9733e+006  1.1343e+006 94671 235726,235778,235752
 4.2000e+001 235830 -3.1857e+005 -7.6125e+006 -6.3785e+005 94671 235726,235804,235778
 4.2000e+001 236005 -1.1708e+006 -7.5405e+006 -1.0047e+006 94261 235904,235956,235930
 4.2000e+001 235982 -1.2508e+006 -8.5205e+006 -1.9232e+006 94261 235878,235956,235904
 4.2000e+001 236206 -6.1836e+005 -5.1114e+005  1.0936e+006 93853 236056,236134,236082
 4.2000e+001 236183 -1.1698e+006 -6.7965e+005  4.3628e+005 93853 236030,236134,236056
 4.2000e+001 236160 -8.4298e+005 -1.0470e+006  8.8049e+005 93853 236082,236134,236108
 4.2000e+001 236407 -6.5057e+005 -6.3179e+006  1.8897e+005 93557 236257,236309,236283
 4.2000e+001 236384 -1.7457e+006 -7.0150e+006 -1.7783e+006 93557 236231,236309,236257
 4.2000e+001 236361 -5.9955e+005 -1.1553e+007 -2.5880e+005 93557 236231,236335,236309
 4.2000e+001 236559 -2.5351e+003 -1.0865e+005  2.3762e+004 93149 236432,236484,236458
 4.2000e+001 236536  1.8685e+004 -7.3071e+004  4.5959e+004 93149 236432,236510,236484
 4.2000e+001 236711 -6.6510e+004 -1.7538e+005  7.2929e+004 92853 236584,236636,236610
 4.2000e+001 236688 -6.6412e+004 -1.5865e+005  6.9251e+004 92853 236584,236662,236636
 4.2000e+001 236912 -2.4435e+005 -3.6887e+006  1.4453e+006 92501 236736,236788,236762
 4.2000e+001 236889 -4.5192e+005 -2.0122e+006  4.9584e+005 92501 236736,236840,236788
 4.2000e+001 236866 -6.8615e+005 -2.9096e+006  5.7250e+005 92501 236788,236840,236814
 4.2000e+001 237113 -2.4473e+005 -4.5323e+006  4.3889e+005 92291 236963,237041,237015
 4.2000e+001 237090 -8.3885e+004 -2.9198e+006  2.8365e+005 92291 236937,237041,236963
 4.2000e+001 237067 -2.2335e+005 -4.2181e+006  9.7059e+005 92291 236963,237015,236989
 4.2000e+001 237265  1.5961e+005 -1.1983e+006 -4.9689e+005 91871 237138,237190,237164
 4.2000e+001 237242 -7.2946e+005 -3.2063e+006 -1.1891e+006 91871 237138,237216,237190
 4.2000e+001 237368  1.8764e+002 -1.5850e+006 -1.3332e+002 91581 237290,237342,237316
 4.2000e+001 237520 -2.1291e+004 -1.3066e+005  2.5541e+004 91184 237419,237471,237445
 4.2000e+001 237497 -5.0697e+004 -2.9588e+005 -1.1906e+005 91184 237393,237471,237419
 4.2000e+001 237672 -1.9117e+005 -1.8997e+006 -1.9780e+004 90894 237545,237597,237571
 4.2000e+001 237649 -7.8416e+004 -4.4538e+006  1.1437e+006 90894 237545,237623,237597
 4.2000e+001 237873 -1.2951e+006 -4.9729e+006  9.5716e+005 90490 237749,237801,237775
 4.2000e+001 237850 -7.0232e+005 -4.4711e+006  1.4612e+006 90490 237723,237801,237749
 4.2000e+001 237827 -9.0616e+005 -4.5315e+006 -5.8124e+005 90490 237697,237801,237723
 4.2000e+001 238074 -7.8789e+005 -6.2514e+006  4.0607e+005 90100 237898,237976,237950
 4.2000e+001 238051 -1.6215e+006 -6.4209e+006  4.2504e+005 90100 237898,238002,237976
 4.2000e+001 238028 -5.9295e+005 -5.9267e+006  2.5876e+005 90100 237898,237950,237924
 4.2000e+001 238275 -2.4939e+005 -3.0493e+006  9.9501e+005 89696 238125,238177,238151
 4.2000e+001 238252 -3.4597e+005 -2.1172e+006 -8.9271e+005 89696 238099,238177,238125
 4.2000e+001 238229 -4.9957e+005 -2.6936e+006 -7.5429e+005 89696 238099,238203,238177
 4.2000e+001 238427  2.8646e+004 -1.5195e+005 -5.0494e+004 89206 238326,238378,238352
 4.2000e+001 238404 -3.8052e+004 -3.2529e+005 -1.0218e+005 89206 238300,238378,238326
 4.2000e+001 238579 -1.2230e+006 -4.6940e+006  2.0840e+006 88908 238452,238504,238478
 4.2000e+001 238556 -2.6756e+005 -3.5945e+006  1.0039e+005 88908 238452,238530,238504
 4.2000e+001 238682  3.0745e+001 -4.6025e+005  7.2762e+001 88568 238604,238656,238630
 4.2000e+001 238883  1.6403e+005 -6.4674e+006  1.7975e+006 88278 238733,238811,238785
 4.2000e+001 238860 -7.5030e+005 -3.8781e+006  1.5916e+006 88278 238707,238811,238733
 4.2000e+001 238837 -2.3902e+005 -6.8019e+006  1.2748e+006 88278 238733,238785,238759
 4.2000e+001 239035 -1.4238e+006 -4.5106e+006 -4.1669e+005 87988 238908,238960,238934
 4.2000e+001 239012 -1.5370e+006 -2.4227e+006  2.0364e+005 87988 238908,238986,238960
 4.2000e+001 239138 -7.7410e+004 -9.1067e+005  3.2977e+004 87648 239060,239112,239086
 4.2000e+001 239339 -1.1739e+006 -3.3032e+006 -1.9792e+006 87358 239163,239215,239189
 4.2000e+001 239316 -1.1887e+006 -2.2385e+006 -5.2573e+005 87358 239163,239241,239215
 4.2000e+001 239293 -8.7207e+005 -1.1842e+006 -1.0014e+006 87358 239163,239267,239241
 4.2000e+001 239589 -1.1993e+002 -4.5814e+002  1.9086e+002 86961 239390,239468,239416
 4.2000e+001 239566 -1.6319e+003 -7.9015e+002  1.3264e+002 86961 239390,239494,239468
 4.2000e+001 239543 -4.5047e+002 -3.0916e+001 -8.9829e+001 86961 239416,239468,239442
 4.2000e+001 239520 -1.0146e+003 -1.9720e+003 -2.2053e+001 86961 239364,239494,239390
 4.2000e+001 239741 -1.1249e+006 -3.8408e+006 -4.3803e+005 86621 239640,239692,239666
 4.2000e+001 239718 -2.4976e+005 -4.8863e+006 -1.1485e+006 86621 239614,239692,239640
 4.2000e+001 239893 -5.4026e+005 -5.9164e+006  1.6054e+006 86217 239792,239844,239818
 4.2000e+001 239870 -6.4407e+005 -4.9191e+006  1.1239e+006 86217 239766,239844,239792
 4.2000e+001 240045 -8.8093e+005 -4.4189e+006  7.9831e+005 85827 239918,239970,239944
 4.2000e+001 240022 -2.1164e+005 -4.2339e+006  2.7975e+005 85827 239918,239996,239970
 4.2000e+001 240197 -8.1330e+005 -8.4294e+006  9.8522e+005 85437 240096,240148,240122
 4.2000e+001 240174 -1.7484e+006 -2.3996e+006 -5.4043e+005 85437 240070,240148,240096
 4.2000e+001 240349 -1.5732e+005 -1.7463e+006  6.4910e+005 85147 240222,240274,240248
 4.2000e+001 240326 -2.0683e+005 -9.5398e+005 -1.0306e+005 85147 240222,240300,240274
 4.2000e+001 240501 -3.8356e+005 -1.4848e+006  6.3341e+005 84807 240374,240426,240400
 4.2000e+001 240478 -1.7282e+006 -2.0219e+006  1.0294e+006 84807 240374,240452,240426
 4.2000e+001 240653 -3.2013e+002 -1.7268e+002 -4.3158e+002 84303 240552,240604,240578
 4.2000e+001 240630 -1.5865e+002 -3.6052e+002 -4.5259e+001 84303 240526,240604,240552
 4.2000e+001 240854 -2.4337e+005 -1.2500e+007 -5.5338e+006 83929 240704,240756,240730
 4.2000e+001 240831  1.7362e+006 -1.0214e+007  2.4563e+006 83929 240704,240782,240756
 4.2000e+001 240808 -3.4959e+006  1.7702e+006  2.9001e+006 83929 240678,240782,240704
 4.2000e+001 241055 -1.9739e+002 -2.1151e+004 -5.4533e+003 83539 240879,240957,240931
 4.2000e+001 241032 -4.5532e+003 -2.0942e+004 -7.1563e+003 83539 240879,240983,240957
 4.2000e+001 241009 -7.3873e+003 -4.0508e+003 -5.5304e+003 83539 240879,240931,240905
 4.2000e+001 241207  9.6575e+004 -2.0864e+006  2.1505e+005 83079 241106,241158,241132
 4.2000e+001 241184 -1.3929e+005 -8.6374e+005  2.9670e+005 83079 241080,241158,241106
 4.2000e+001 241408  1.1441e+006 -4.2540e+006  3.2772e+005 82665 241232,241284,241258
 4.2000e+001 241385 -1.6210e+006 -1.3125e+007 -3.8041e+006 82665 241232,241336,241284
 4.2000e+001 241362 -4.0279e+006  4.4778e+006  6.7268e+006 82665 241284,241336,241310
 4.2000e+001 241658 -1.8786e+005 -4.2678e+006  4.8561e+005 82375 241485,241563,241511
 4.2000e+001 241635  6.2314e+004 -2.7241e+006  2.9346e+005 82375 241433,241563,241485
 4.2000e+001 241612 -6.0831e+004 -3.1760e+006  3.4866e+005 82375 241433,241485,241459
 4.2000e+001 241589 -5.8572e+005 -4.8612e+006  7.7530e+005 82375 241511,241563,241537
 4.2000e+001 241810 -8.3256e+005 -3.3461e+006 -2.2837e+005 82035 241683,241735,241709
 4.2000e+001 241787 -1.1709e+006 -4.0183e+006  6.1654e+005 82035 241683,241761,241735
 4.2000e+001 241962 -7.5912e+005 -3.3748e+006  3.7908e+005 81695 241861,241913,241887
 4.2000e+001 241939 -3.5015e+005 -3.8958e+006 -6.2318e+005 81695 241835,241913,241861
 4.2000e+001 242114 -1.0339e+006 -6.6729e+006  2.3871e+006 81355 242013,242065,242039
 4.2000e+001 242091 -2.9627e+005 -4.3797e+006  1.3248e+006 81355 241987,242065,242013
 4.2000e+001 242266 -9.3056e+004 -4.7740e+005 -1.1728e+005 80951 242139,242191,242165
 4.2000e+001 242243 -2.2064e+005 -9.8873e+005 -1.2032e+005 80951 242139,242217,242191
 4.2000e+001 242467 -4.2070e+005 -5.0471e+006  5.7457e+005 80311 242291,242369,242343
 4.2000e+001 242444  8.7702e+003 -3.1994e+006  4.8562e+005 80311 242291,242395,242369
 4.2000e+001 242421 -4.7104e+005 -2.6614e+006  8.6126e+004 80311 242291,242343,242317
 4.2000e+001 242619 -1.6003e+006 -3.8394e+006  6.1296e+005 80021 242492,242544,242518
 4.2000e+001 242596 -1.4771e+006 -3.4621e+006  1.7503e+006 80021 242492,242570,242544
 4.2000e+001 242869 -3.0338e+005 -1.1779e+006  2.1032e+005 79631 242644,242722,242696
 4.2000e+001 242846 -7.5463e+004 -1.5303e+006  2.3307e+005 79631 242644,242774,242722
 4.2000e+001 242823 -1.4127e+005 -1.8202e+006  2.1488e+005 79631 242722,242774,242748
 4.2000e+001 242800 -3.3167e+005 -1.4951e+006  3.9685e+005 79631 242644,242696,242670
 4.2000e+001 243070  7.0354e+003 -1.6708e+007  3.3872e+006 79341 242920,242972,242946
 4.2000e+001 243047 -6.9919e+005 -9.7534e+006 -9.6812e+004 79341 242920,242998,242972
 4.2000e+001 243024 -1.1929e+006 -6.5558e+006  2.7968e+006 79341 242894,242998,242920
 4.2000e+001 243222 -3.1532e+005 -3.9272e+006  1.4927e+006 78801 243121,243173,243147
 4.2000e+001 243199 -7.5092e+005 -5.4570e+006  1.8294e+006 78801 243095,243173,243121
 4.2000e+001 243423 -9.0671e+005 -4.7739e+006 -5.8771e+005 78511 243273,243325,243299
 4.2000e+001 243400  7.0218e+005 -9.4340e+006  1.8371e+006 78511 243273,243351,243325
 4.2000e+001 243377 -5.8879e+003 -9.7104e+006  2.4348e+005 78511 243247,243351,243273
 4.2000e+001 243624 -3.6177e+005 -4.0538e+006 -1.0595e+006 78107 243474,243552,243526
 4.2000e+001 243601 -3.1866e+005 -3.8450e+006 -1.0503e+006 78107 243448,243552,243474
 4.2000e+001 243578 -6.5378e+005 -5.1389e+006 -2.0758e+006 78107 243474,243526,243500
 4.2000e+001 243776 -6.7600e+005 -4.3359e+006 -8.9753e+005 77653 243649,243701,243675
 4.2000e+001 243753 -1.5844e+006 -7.5750e+006 -4.3114e+005 77653 243649,243727,243701
 4.2000e+001 243977 -4.5832e+005 -5.9740e+006  1.2679e+004 77093 243801,243853,243827
 4.2000e+001 243954 -9.3167e+004 -4.8524e+006  6.6718e+005 77093 243801,243879,243853
 4.2000e+001 243931  1.6921e+005 -3.3389e+006  1.0220e+005 77093 243801,243905,243879
 4.2000e+001 244080 -1.3014e+006 -4.9109e+006  4.6798e+005 76791 244002,244054,244028
 4.2000e+001 244232 -2.5341e+005 -4.6728e+006  1.7919e+004 76311 244131,244183,244157
 4.2000e+001 244209 -1.5793e+005 -9.2660e+006  5.4160e+005 76311 244105,244183,244131
 4.2000e+001 244433 -1.7518e+006 -1.8822e+007  3.8448e+006 75903 244283,244335,244309
 4.2000e+001 244410 -1.0902e+006 -1.4105e+007  3.8368e+005 75903 244283,244361,244335
 4.2000e+001 244387 -2.9745e+006 -1.1308e+007  2.4350e+006 75903 244257,244361,244283
 4.2000e+001 244585  5.7842e+004 -1.8239e+007  1.8871e+006 75419 244458,244510,244484
 4.2000e+001 244562 -7.4472e+005 -1.2515e+007  6.3177e+005 75419 244458,244536,244510
 4.2000e+001 244737 -4.2255e+005 -2.1313e+006 -1.7266e+005 75215 244636,244688,244662
 4.2000e+001 244714 -3.9455e+005 -3.5027e+006 -1.9451e+005 75215 244610,244688,244636
 4.2000e+001 244889 -9.9623e+005 -5.3053e+006 -4.7444e+005 74857 244788,244840,244814
 4.2000e+001 244866 -2.8926e+005 -2.5644e+006 -2.7693e+005 74857 244762,244840,244788
 4.2000e+001 245041  4.2314e+004 -3.6368e+005 -2.3909e+005 74653 244940,244992,244966
 4.2000e+001 245018 -4.5214e+004 -8.3934e+004  1.3861e+005 74653 244914,244992,244940
 4.2000e+001 245144 -5.0280e+005 -8.9818e+006 -1.6516e+006 74359 245066,245118,245092
 4.2000e+001 245296 -1.1489e+005 -1.7641e+006 -5.4988e+005 74007 245169,245221,245195
 4.2000e+001 245273 -6.3594e+005 -3.0327e+006 -9.4335e+005 74007 245169,245247,245221
 4.2000e+001 245448 -8.8310e+005 -8.7563e+006  1.9495e+006 73711 245321,245373,245347
 4.2000e+001 245425 -2.2501e+005 -8.5320e+006 -3.5692e+006 73711 245321,245399,245373
 4.2000e+001 245600  5.8311e+005 -1.4318e+007 -1.2587e+006 73301 245499,245551,245525
 4.2000e+001 245577 -1.8914e+006 -1.0475e+007  1.8029e+006 73301 245473,245551,245499
 4.2000e+001 245752 -2.2153e+006 -3.2394e+006 -1.9560e+006 72995 245625,245677,245651
 4.2000e+001 245729  8.0288e+005 -1.3273e+007 -1.7396e+006 72995 245625,245703,245677
 4.2000e+001 245953 -2.8337e+006 -1.3542e+007  1.6879e+006 72585 245777,245829,245803
 4.2000e+001 245930 -1.3521e+006 -1.6950e+007  4.1930e+006 72585 245777,245855,245829
 4.2000e+001 245907 -6.2181e+005 -1.1490e+007  2.2850e+006 72585 245777,245881,245855
 4.2000e+001 246154 -4.2729e+005 -6.9831e+006  1.2590e+006 72127 246030,246082,246056
 4.2000e+001 246131 -1.3624e+006 -9.8986e+006  6.2287e+005 72127 245978,246082,246030
 4.2000e+001 246108 -7.7282e+004 -9.9241e+006 -7.1275e+004 72127 245978,246030,246004
 4.2000e+001 246257 -8.8120e+005 -1.9097e+006 -4.9610e+005 71737 246179,246231,246205
 4.2000e+001 246360  7.9027e+004 -3.1703e+006  3.7714e+005 71447 246282,246334,246308
 4.2000e+001 246512 -3.1257e+005 -2.8218e+006  1.0213e+006 71157 246385,246437,246411
 4.2000e+001 246489 -1.7705e+004 -2.2480e+006  4.7560e+004 71157 246385,246463,246437
 4.2000e+001 246664 -1.4747e+005 -2.7938e+006 -3.5716e+005 70753 246537,246589,246563
 4.2000e+001 246641 -5.9446e+005 -1.5725e+006 -1.7002e+005 70753 246537,246615,246589
 4.2000e+001 246865 -2.3153e+006 -1.2147e+007  7.5050e+006 70249 246715,246767,246741
 4.2000e+001 246842 -2.7909e+006 -1.0915e+007 -2.1978e+005 70249 246715,246793,246767
 4.2000e+001 246819 -6.4691e+005 -1.4965e+007 -2.6997e+006 70249 246689,246793,246715
 4.2000e+001 247066 -1.0860e+004 -2.2926e+006  2.9097e+005 70023 246916,246994,246942
 4.2000e+001 247043 -1.5986e+004 -2.3379e+006  2.6874e+005 70023 246890,246994,246916
 4.2000e+001 247020  2.1642e+004 -2.2359e+006  3.6386e+005 70023 246942,246994,246968
 4.2000e+001 247267 -4.8018e+005 -5.0352e+006 -7.3545e+005 69633 247091,247143,247117
 4.2000e+001 247244 -1.2737e+005 -3.6590e+006 -5.1032e+005 69633 247091,247169,247143
 4.2000e+001 247221 -9.7156e+004 -3.1361e+006 -4.5066e+005 69633 247091,247195,247169
 4.2000e+001 247419 -9.4016e+005 -5.4763e+006  4.3842e+005 69457 247318,247370,247344
 4.2000e+001 247396 -1.2215e+006 -2.7238e+006  6.4517e+005 69457 247292,247370,247318
 4.2000e+001 247522  1.9609e+002  1.7534e+000  1.2545e+002 69209 247444,247496,247470
 4.2000e+001 247625 -1.3992e+006 -1.4970e+006 -8.6903e+005 68919 247547,247599,247573
 4.2000e+001 247777  1.8518e+005 -6.4830e+006 -2.2799e+005 68579 247650,247702,247676
 4.2000e+001 247754 -2.1747e+005 -1.9029e+006 -6.4227e+004 68579 247650,247728,247702
 4.2000e+001 247929  1.3100e+005 -4.2330e+006  1.8909e+006 68289 247802,247854,247828
 4.2000e+001 247906 -2.1972e+005 -1.7670e+006 -3.1704e+005 68289 247802,247880,247854
 4.2000e+001 248081 -3.3058e+005 -4.8346e+006  1.1709e+006 67949 247980,248032,248006
 4.2000e+001 248058 -4.4749e+005 -1.1190e+006  4.8490e+004 67949 247954,248032,247980
 4.2000e+001 248233 -1.4651e+006 -6.1175e+006 -7.2419e+005 67616 248132,248184,248158
 4.2000e+001 248210 -5.5037e+005 -5.7410e+006 -3.0425e+005 67616 248106,248184,248132
 4.2000e+001 248434 -1.1879e+005 -4.1247e+006 -1.3493e+005 67212 248284,248336,248310
 4.2000e+001 248411 -4.8018e+004 -4.1619e+006 -3.1875e+005 67212 248258,248336,248284
 4.2000e+001 248388 -1.4981e+006 -2.1781e+006 -6.0597e+005 67212 248258,248362,248336
 4.2000e+001 248586 -7.2748e+004 -4.9374e+006  4.2475e+005 66872 248485,248537,248511
 4.2000e+001 248563 -7.4242e+005 -1.6492e+006 -2.3493e+005 66872 248459,248537,248485
 4.2000e+001 248738 -3.6377e+005 -5.5922e+006  1.5810e+005 66510 248637,248689,248663
 4.2000e+001 248715 -4.9668e+005 -7.6565e+006  1.5692e+005 66510 248611,248689,248637
 4.2000e+001 248890 -2.5218e+004 -6.3875e+005  1.2756e+005 66220 248789,248841,248815
 4.2000e+001 248867 -6.7197e+004 -8.1817e+005 -2.0950e+005 66220 248763,248841,248789
 4.2000e+001 249091 -1.0844e+006 -1.0654e+007  3.3260e+006 65759 248915,248967,248941
 4.2000e+001 249068 -8.5852e+005 -9.7202e+006  3.3505e+006 65759 248915,248993,248967
 4.2000e+001 249045 -5.0151e+005 -6.7673e+006  1.2755e+006 65759 248915,249019,248993
 4.2000e+001 249243  3.0239e+004 -8.0850e+006  1.5507e+006 65419 249142,249194,249168
 4.2000e+001 249220  5.5062e+004 -3.1337e+006  1.3880e+005 65419 249116,249194,249142
 4.2000e+001 249395 -4.0573e+005 -3.1529e+006 -5.5676e+005 65079 249268,249320,249294
 4.2000e+001 249372 -4.5388e+005 -3.8200e+006 -6.8112e+005 65079 249268,249346,249320
 4.2000e+001 249547 -1.2263e+005 -1.4023e+006  2.6061e+005 64739 249420,249472,249446
 4.2000e+001 249524 -2.7629e+004 -1.2088e+006 -1.5304e+005 64739 249420,249498,249472
 4.2000e+001 249650 -1.4408e+006 -6.0975e+006 -2.6027e+006 64342 249572,249624,249598
 4.2000e+001 249851 -5.0002e+005 -4.7649e+006 -4.2885e+005 63938 249701,249779,249753
 4.2000e+001 249828 -1.5043e+005 -4.9282e+006  1.0572e+006 63938 249675,249779,249701
 4.2000e+001 249805 -4.7048e+005 -7.3790e+006 -2.7659e+005 63938 249701,249753,249727
 4.2000e+001 250052 -5.8997e+005 -4.5361e+006 -1.0529e+006 63341 249876,249954,249902
 4.2000e+001 250029 -1.3137e+006 -5.5949e+006 -4.0686e+005 63341 249876,249980,249954
 4.2000e+001 250006  8.9138e+005 -6.8588e+006  8.6299e+005 63341 249902,249954,249928
 4.2000e+001 250253 -7.0166e+004 -3.8736e+006 -4.8797e+005 63058 250077,250129,250103
 4.2000e+001 250230 -5.5592e+005 -3.2200e+006 -1.6719e+003 63058 250077,250155,250129
 4.2000e+001 250207 -1.6796e+005 -2.8274e+006 -5.3382e+005 63058 250077,250181,250155
 4.2000e+001 250454 -8.4943e+005 -6.9866e+006  1.0950e+006 62832 250304,250382,250330
 4.2000e+001 250431  1.5027e+005 -8.6682e+006 -2.2642e+006 62832 250278,250382,250304
 4.2000e+001 250408 -1.9676e+006 -4.6242e+006  2.5061e+005 62832 250330,250382,250356
 4.2000e+001 250606 -6.9772e+004 -1.7067e+007  3.0610e+005 62428 250479,250531,250505
 4.2000e+001 250583 -5.4978e+005 -1.3647e+007 -4.0528e+005 62428 250479,250557,250531
 4.2000e+001 250758  1.1470e+005 -7.4401e+006  7.5149e+005 62202 250631,250683,250657
 4.2000e+001 250735 -1.5477e+005 -7.6178e+006  9.4142e+005 62202 250631,250709,250683
 4.2000e+001 250861 -1.1876e+006 -2.6562e+006 -1.7496e+005 61954 250783,250835,250809
 4.2000e+001 251062 -2.5552e+006 -1.1459e+007 -4.5016e+004 61557 250912,250990,250938
 4.2000e+001 251039  2.0764e+005 -1.4559e+007 -9.7278e+004 61557 250886,250990,250912
 4.2000e+001 251016 -1.1598e+006 -1.2043e+007 -2.1224e+006 61557 250938,250990,250964
 4.2000e+001 251263 -9.7234e+005 -7.3168e+006 -2.7814e+005 61167 251113,251165,251139
 4.2000e+001 251240 -4.4545e+005 -7.0594e+006 -5.6855e+005 61167 251113,251191,251165
 4.2000e+001 251217 -1.1995e+006 -6.8536e+006  1.6319e+006 61167 251087,251191,251113
 4.2000e+001 251415 -1.1945e+006 -2.6335e+006  6.6530e+005 60827 251288,251340,251314
 4.2000e+001 251392 -3.7969e+005 -1.7726e+006  1.1836e+005 60827 251288,251366,251340
 4.2000e+001 251567  1.6412e+005 -4.8367e+006  2.1912e+005 60487 251466,251518,251492
 4.2000e+001 251544  9.9246e+004 -3.6816e+006 -3.0611e+005 60487 251440,251518,251466
 4.2000e+001 251719  4.4761e+004 -9.9614e+006 -1.3785e+005 59983 251592,251644,251618
 4.2000e+001 251696 -7.1287e+005 -7.7872e+006 -3.2640e+004 59983 251592,251670,251644
 4.2000e+001 251920 -1.3006e+005 -2.3626e+006 -1.0777e+004 59807 251770,251848,251796
 4.2000e+001 251897 -7.0805e+004 -1.7356e+006 -8.9612e+004 59807 251744,251848,251770
 4.2000e+001 251874 -1.1191e+005 -2.1684e+006  5.9811e+004 59807 251796,251848,251822
 4.2000e+001 252023  2.9236e+005 -4.7877e+006 -1.0253e+005 59517 251945,251997,251971
 4.2000e+001 252175  1.5880e+006 -1.3753e+007 -2.8863e+005 59269 252074,252126,252100
 4.2000e+001 252152 -1.9133e+005 -8.5176e+006  1.6131e+005 59269 252048,252126,252074
 4.2000e+001 252278 -4.8772e+005 -1.9300e+006  8.6270e+005 58979 252200,252252,252226
 4.2000e+001 252381 -2.5341e+006 -2.2910e+006  1.0895e+006 58689 252303,252355,252329
 4.2000e+001 252533 -9.7588e+005 -4.2876e+006 -6.6265e+005 58249 252432,252484,252458
 4.2000e+001 252510 -1.1885e+006 -5.8827e+006 -1.1842e+006 58249 252406,252484,252432
 4.2000e+001 252734 -2.3025e+005 -4.3960e+006 -1.6221e+005 57902 252584,252662,252610
 4.2000e+001 252711  4.5020e+005 -4.6861e+006 -2.2228e+005 57902 252558,252662,252584
 4.2000e+001 252688 -1.5068e+005 -3.6502e+006 -4.2717e+005 57902 252610,252662,252636
 4.2000e+001 252886  1.2883e+005 -5.3533e+006 -3.7195e+005 57540 252785,252837,252811
 4.2000e+001 252863  3.5612e+005 -4.3053e+006  9.0157e+003 57540 252759,252837,252785
 4.2000e+001 253038 -6.0316e+005 -6.3903e+006  1.5401e+006 57086 252937,252989,252963
 4.2000e+001 253015 -1.9069e+005 -2.2390e+006  1.6838e+005 57086 252911,252989,252937
 4.2000e+001 253239 -1.5726e+006 -5.3451e+006 -2.1426e+006 56796 253063,253141,253115
 4.2000e+001 253216  1.4638e+005 -6.7041e+006 -3.2285e+005 56796 253063,253167,253141
 4.2000e+001 253193 -1.1599e+006 -5.8911e+006 -2.3896e+006 56796 253063,253115,253089
 4.2000e+001 253342 -5.8608e+005 -1.7500e+007  1.2821e+004 56349 253264,253316,253290
 4.2000e+001 253543 -9.1766e+005 -8.7455e+006 -6.7951e+005 56009 253367,253419,253393
 4.2000e+001 253520 -3.9478e+005 -4.9601e+006 -6.0294e+005 56009 253367,253445,253419
 4.2000e+001 253497 -7.1162e+004 -6.7447e+006  2.4139e+005 56009 253367,253471,253445
 4.2000e+001 253695 -4.0448e+005 -1.9226e+006  4.1774e+005 55733 253594,253646,253620
 4.2000e+001 253672 -1.1517e+006 -7.2973e+005  1.5391e+005 55733 253568,253646,253594
 4.2000e+001 253798 -5.1901e+005 -2.0366e+006 -3.1513e+005 55557 253720,253772,253746
 4.2000e+001 253950 -6.7220e+005 -4.1445e+006  4.6754e+004 55153 253849,253901,253875
 4.2000e+001 253927 -1.0186e+005 -4.7595e+006 -6.8467e+005 55153 253823,253901,253849
 4.2000e+001 254151 -1.1984e+006 -4.9160e+006  4.8813e+005 54863 253975,254053,254001
 4.2000e+001 254128 -6.4012e+005 -4.8379e+006 -1.6918e+005 54863 253975,254079,254053
 4.2000e+001 254105 -6.4081e+005 -4.5417e+006  2.2360e+005 54863 254001,254053,254027
 4.2000e+001 254303  1.2205e+004 -2.0711e+006  2.1636e+005 54373 254176,254228,254202
 4.2000e+001 254280  3.3948e+004 -2.2802e+006  2.5825e+005 54373 254176,254254,254228
 4.2000e+001 254455 -1.2255e+004 -5.8646e+006 -3.9387e+005 53975 254354,254406,254380
 4.2000e+001 254432 -5.5465e+005 -1.3594e+006  2.5618e+005 53975 254328,254406,254354
 4.2000e+001 254607 -1.2438e+005 -5.7367e+006 -4.0445e+005 53585 254480,254532,254506
 4.2000e+001 254584 -4.5890e+005 -5.2646e+006 -3.5697e+005 53585 254480,254558,254532
 4.2000e+001 254808 -8.2924e+005 -3.8924e+006 -1.6246e+005 53245 254658,254736,254684
 4.2000e+001 254785 -1.1261e+006 -1.5924e+006 -7.7770e+005 53245 254632,254736,254658
 4.2000e+001 254762 -4.5647e+005 -2.5181e+006 -3.3276e+005 53245 254684,254736,254710
 4.2000e+001 254911 -3.1287e+005 -3.9716e+006  4.7230e+005 52955 254833,254885,254859
 4.2000e+001 255063 -5.4948e+005 -6.8479e+006 -1.5681e+005 52551 254962,255014,254988
 4.2000e+001 255040 -6.2583e+005 -7.1098e+006 -2.8398e+005 52551 254936,255014,254962
 4.2000e+001 255264 -4.2048e+005 -7.4414e+005  6.4467e+005 52261 255114,255166,255140
 4.2000e+001 255241 -1.6387e+006 -2.2222e+006  1.4509e+006 52261 255114,255192,255166
 4.2000e+001 255218  5.8141e+005 -4.5789e+006 -7.6617e+005 52261 255088,255192,255114
 4.2000e+001 255416 -5.5107e+005 -5.6159e+006  1.5988e+006 51971 255289,255341,255315
 4.2000e+001 255393 -1.0347e+005 -5.0733e+006 -4.3082e+005 51971 255289,255367,255341
 4.2000e+001 255568 -9.8980e+005 -6.8574e+005 -3.5289e+005 51681 255441,255493,255467
 4.2000e+001 255545 -5.4544e+004 -7.6436e+006  9.4265e+005 51681 255441,255519,255493
 4.2000e+001 255769 -2.1534e+005 -3.1512e+006 -9.6106e+004 51291 255619,255697,255671
 4.2000e+001 255746 -1.9948e+005 -2.8761e+006 -3.3735e+005 51291 255593,255697,255619
 4.2000e+001 255723 -2.3518e+005 -5.1037e+006 -5.7840e+005 51291 255619,255671,255645
 4.2000e+001 255921 -4.2535e+005 -2.9500e+006  7.2924e+005 50951 255820,255872,255846
 4.2000e+001 255898 -8.5369e+004 -1.8193e+006  8.6353e+004 50951 255794,255872,255820
 4.2000e+001 256171 -1.1059e+006 -4.8848e+006  7.3236e+004 50547 256024,256076,256050
 4.2000e+001 256148 -8.8984e+005 -4.7298e+006  3.4712e+005 50547 255972,256076,256024
 4.2000e+001 256125 -2.2740e+005 -5.2708e+006 -4.9495e+004 50547 255946,256076,255972
 4.2000e+001 256102 -9.1823e+005 -4.3599e+006  2.3619e+005 50547 255972,256024,255998
 4.2000e+001 256323  4.2773e+005 -5.9684e+006  1.0358e+006 50093 256196,256248,256222
 4.2000e+001 256300 -1.1280e+006 -2.9943e+006 -1.3152e+006 50093 256196,256274,256248
 4.2000e+001 256426  2.3006e+002 -1.2625e+001  1.4865e+002 49845 256348,256400,256374
 4.2000e+001 256627 -7.6477e+004 -5.2373e+006  6.2825e+004 49555 256477,256555,256503
 4.2000e+001 256604 -2.1459e+005 -3.4877e+006  1.1578e+005 49555 256451,256555,256477
 4.2000e+001 256581 -3.8642e+005 -4.6069e+006  2.4575e+005 49555 256503,256555,256529
 4.2000e+001 256828 -8.9717e+005 -2.8429e+006 -2.1566e+005 49056 256652,256730,256678
 4.2000e+001 256805 -2.9170e+005 -3.1839e+006 -6.4828e+005 49056 256652,256756,256730
 4.2000e+001 256782 -6.8329e+005 -2.1197e+006 -7.1286e+005 49056 256678,256730,256704
 4.2000e+001 256931 -7.3892e+004 -2.0261e+005  5.4516e+004 48766 256853,256905,256879
 4.2000e+001 257083 -9.7927e+005 -4.6301e+006 -7.4897e+005 48568 256982,257034,257008
 4.2000e+001 257060 -7.7601e+005 -3.8273e+006 -6.5406e+005 48568 256956,257034,256982
 4.2000e+001 257186  2.8054e+002 -3.1108e+006 -1.3676e+002 48228 257108,257160,257134
 4.2000e+001 257338 -4.4090e+005 -1.4974e+006  5.5290e+005 47888 257237,257289,257263
 4.2000e+001 257315 -4.0002e+005 -1.8555e+006  7.5098e+005 47888 257211,257289,257237
 4.2000e+001 257539 -3.0111e+005 -4.8510e+006  2.3498e+005 47548 257363,257441,257415
 4.2000e+001 257516 -6.9051e+005 -4.4877e+006 -4.3782e+005 47548 257363,257467,257441
 4.2000e+001 257493 -5.7415e+005 -3.5841e+006 -9.0927e+004 47548 257363,257415,257389
 4.2000e+001 257740 -2.0583e+005 -4.8731e+006  4.6664e+005 46994 257564,257642,257616
 4.2000e+001 257717 -4.4207e+005 -3.8941e+006  1.0116e+005 46994 257564,257668,257642
 4.2000e+001 257694 -7.6328e+005 -5.1032e+006  2.0658e+004 46994 257564,257616,257590
 4.2000e+001 257843 -1.1998e+006 -2.3596e+006 -3.5406e+005 46654 257765,257817,257791
 4.2000e+001 257995 -6.6551e+005 -3.8397e+006  2.4660e+005 46364 257894,257946,257920
 4.2000e+001 257972 -7.3389e+005 -4.3159e+006 -2.9681e+004 46364 257868,257946,257894
 4.2000e+001 258147 -9.4977e+004 -3.9536e+006  1.5422e+005 46024 258046,258098,258072
 4.2000e+001 258124 -3.6806e+005 -3.2376e+006  3.8383e+005 46024 258020,258098,258046
 4.2000e+001 258250 -6.6806e+005 -2.6720e+006  9.4376e+005 45741 258172,258224,258198
 4.2000e+001 258402 -3.3456e+005 -2.7289e+006  2.3072e+005 45401 258301,258353,258327
 4.2000e+001 258379 -4.7799e+005 -2.0955e+006  2.4455e+005 45401 258275,258353,258301
 4.2000e+001 258603 -7.7009e+005 -2.4699e+006 -2.3446e+004 45071 258427,258505,258479
 4.2000e+001 258580 -1.0593e+005 -5.9427e+006  3.0163e+005 45071 258427,258531,258505
 4.2000e+001 258557 -2.0736e+005 -3.2782e+006  2.5923e+005 45071 258427,258479,258453
 4.2000e+001 258755 -1.9653e+005 -4.5381e+006 -3.8953e+005 44681 258654,258706,258680
 4.2000e+001 258732 -2.1654e+005 -4.3033e+006 -3.8016e+005 44681 258628,258706,258654
 4.2000e+001 258907 -8.2922e+005 -7.4766e+005 -2.8500e+004 44157 258806,258858,258832
 4.2000e+001 258884 -2.2219e+005 -1.2711e+006 -3.3581e+004 44157 258780,258858,258806
 4.2000e+001 259010 -7.1880e+005 -4.1072e+005  5.4106e+004 43705 258932,258984,258958
 4.2000e+001 259113 -4.8144e+005 -3.0335e+006  1.5815e+005 43284 259035,259087,259061
 4.2000e+001 259216 -6.3623e+005 -2.9305e+006 -1.2217e+005 42954 259138,259190,259164
 4.2000e+001 259319 -9.2371e+005 -2.1424e+006  4.4374e+004 42116 259241,259293,259267
 4.2000e+001 259422 -3.4346e+005 -3.2134e+006 -1.4474e+005 41804 259344,259396,259370
 4.2000e+001 259525 -6.2246e+005 -6.0066e+006  8.3833e+005 41219 259447,259499,259473
 4.2000e+001 259628 -8.3563e+005 -3.3840e+006 -4.1876e+005 385 259550,259602,259576
 4.4000e+001 190120 -2.9901e+005 -2.9235e+006 -4.5428e+005 189630 189993,190045,190019
 4.4000e+001 190097 -7.3298e+005 -2.1590e+006 -2.1996e+005 189630 189993,190071,190045
 4.4000e+001 190319 -1.3243e+006 -2.8079e+006  3.7926e+005 189312 190169,190221,190195
 4.4000e+001 190296 -6.4738e+005 -1.6247e+006 -6.7159e+005 189312 190169,190247,190221
 4.4000e+001 190273 -6.0055e+005 -1.2486e+006  2.2995e+004 189312 190143,190247,190169
 4.4000e+001 190518 -4.4598e+005 -3.4278e+005 -8.3704e+004 189124 190368,190446,190420
 4.4000e+001 190495 -5.9282e+005 -1.4734e+005  6.5796e+004 189124 190342,190446,190368
 4.4000e+001 190472 -8.5331e+005 -4.1681e+005 -1.5882e+005 189124 190368,190420,190394
 4.4000e+001 190619 -4.5512e+005 -3.1405e+005 -1.1406e+004 188926 190541,190593,190567
 4.4000e+001 190771 -4.9919e+005 -4.5515e+005 -1.3812e+004 188614 190670,190722,190696
 4.4000e+001 190748 -4.8748e+005 -2.3215e+004  1.0605e+005 188614 190644,190722,190670
 4.4000e+001 190972 -2.6523e+005 -9.0849e+005 -3.0769e+005 188324 190848,190900,190874
 4.4000e+001 190949 -5.4354e+005 -1.2918e+006 -5.5130e+005 188324 190796,190900,190848
 4.4000e+001 190926 -3.7617e+004 -1.2048e+006 -2.5879e+005 188324 190796,190848,190822
 4.4000e+001 191124 -6.2509e+005 -1.7246e+006 -2.0439e+005 188034 191023,191075,191049
 4.4000e+001 191101 -2.2005e+005 -1.8071e+006 -1.8161e+005 188034 190997,191075,191023
 4.4000e+001 191276 -5.9498e+005 -7.0454e+005 -4.9130e+004 187836 191149,191201,191175
 4.4000e+001 191253 -2.3190e+005 -6.8502e+005 -3.3476e+003 187836 191149,191227,191201
 4.4000e+001 191379 -4.5727e+005 -2.6250e+005 -8.2452e+004 187546 191301,191353,191327
 4.4000e+001 191531 -9.5098e+005 -3.8688e+006 -1.3991e+006 187256 191430,191482,191456
 4.4000e+001 191508 -5.0721e+005 -2.4832e+006  4.0961e+005 187256 191404,191482,191430
 4.4000e+001 191634 -3.7001e+005 -5.1302e+005  2.2575e+004 187058 191556,191608,191582
 4.4000e+001 191835 -4.4876e+005 -2.5410e+005  1.0364e+005 186860 191659,191711,191685
 4.4000e+001 191812 -5.4975e+005 -3.7533e+005  3.7407e+004 186860 191659,191737,191711
 4.4000e+001 191789 -4.6261e+005 -7.4626e+004 -1.3812e+004 186860 191659,191763,191737
 4.4000e+001 191987 -3.9329e+005 -1.6044e+006  2.8422e+005 186662 191886,191938,191912
 4.4000e+001 191964 -5.2060e+005 -9.7032e+005 -1.5749e+005 186662 191860,191938,191886
 4.4000e+001 192090 -6.8186e+005 -1.0937e+006  2.2862e+005 186486 192012,192064,192038
 4.4000e+001 192242 -4.9278e+005 -3.2880e+006 -6.8963e+003 186288 192115,192167,192141
 4.4000e+001 192219 -4.6522e+005 -2.8678e+006  1.0527e+005 186288 192115,192193,192167
 4.4000e+001 192394 -3.0189e+005 -2.7360e+006 -3.2598e+005 185935 192293,192345,192319
 4.4000e+001 192371 -3.3214e+005 -2.5468e+006 -3.7760e+005 185935 192267,192345,192293
 4.4000e+001 192546 -5.2068e+005 -2.7464e+006 -2.0089e+005 185675 192419,192471,192445
 4.4000e+001 192523 -5.6418e+005 -1.2390e+006 -3.6151e+004 185675 192419,192497,192471
 4.4000e+001 192649 -2.3517e+005 -2.0989e+006 -6.8703e+004 185499 192571,192623,192597
 4.4000e+001 192801 -1.2102e+006 -8.8357e+005 -4.0538e+004 185301 192674,192726,192700
 4.4000e+001 192778 -5.6844e+005 -9.2930e+005  5.4616e+005 185301 192674,192752,192726
 4.4000e+001 193002 -1.3727e+005 -1.6029e+006 -4.2995e+005 185046 192852,192930,192878
 4.4000e+001 192979 -3.4086e+005 -2.3728e+006 -3.5815e+005 185046 192826,192930,192852
 4.4000e+001 192956  2.2294e+005 -2.7244e+006 -1.0362e+005 185046 192878,192930,192904
 4.4000e+001 193203 -1.4097e+006 -1.1509e+006 -5.2285e+005 184798 193079,193131,193105
 4.4000e+001 193180 -9.0674e+003 -3.6695e+006 -1.1738e+006 184798 193027,193131,193079
 4.4000e+001 193157 -5.6305e+005 -3.9816e+006  1.0545e+006 184798 193027,193079,193053
 4.4000e+001 193404 -1.6931e+005 -3.1313e+006 -4.2958e+005 184600 193254,193306,193280
 4.4000e+001 193381 -3.5352e+005 -2.3781e+006 -1.4001e+003 184600 193254,193332,193306
 4.4000e+001 193358 -9.8730e+005 -4.5532e+005 -3.4144e+005 184600 193228,193332,193254
 4.4000e+001 193556 -4.5019e+005 -1.2745e+006 -7.2101e+005 184402 193429,193481,193455
 4.4000e+001 193533 -8.9308e+005 -9.6828e+005 -9.5155e+005 184402 193429,193507,193481
 4.4000e+001 193708 -2.1927e+005 -3.7845e+006 -7.2769e+005 184204 193607,193659,193633
 4.4000e+001 193685 -4.7497e+005 -2.7437e+006 -5.5920e+005 184204 193581,193659,193607
 4.4000e+001 193860 -5.2218e+005 -1.8953e+006  3.0070e+005 183908 193759,193811,193785
 4.4000e+001 193837 -9.0114e+004 -2.0142e+006  4.5412e+005 183908 193733,193811,193759
 4.4000e+001 194061 -4.0428e+005 -1.9855e+006  2.0189e+004 183710 193911,193989,193937
 4.4000e+001 194038 -4.4405e+005 -1.3885e+006  2.2186e+005 183710 193885,193989,193911
 4.4000e+001 194015 -7.2982e+005 -9.9191e+005 -3.2409e+004 183710 193937,193989,193963
 4.4000e+001 194262 -1.4187e+006 -4.0221e+006 -1.7560e+006 183420 194086,194164,194112
 4.4000e+001 194239 -1.0295e+006 -1.4150e+006  5.2312e+005 183420 194086,194190,194164
 4.4000e+001 194216 -2.3474e+006 -1.0948e+007  1.7644e+006 183420 194112,194164,194138
 4.4000e+001 194414 -4.5401e+005 -4.2946e+006  5.4558e+004 183222 194287,194339,194313
 4.4000e+001 194391 -3.9370e+005 -3.5823e+005 -2.1478e+005 183222 194287,194365,194339
 4.4000e+001 194517 -9.9866e+005 -6.7565e+005  3.4042e+004 183024 194439,194491,194465
 4.4000e+001 194718  1.9408e+006 -1.6304e+007  2.6537e+006 182734 194568,194620,194594
 4.4000e+001 194695 -1.1303e+006 -2.9605e+006 -2.9215e+006 182734 194542,194620,194568
 4.4000e+001 194672 -3.2564e+006 -1.9224e+006 -1.2370e+006 182734 194542,194646,194620
 4.4000e+001 194870 -6.3452e+005 -2.1450e+006  5.6577e+005 182444 194769,194821,194795
 4.4000e+001 194847 -6.6964e+005 -1.1711e+006 -5.5118e+005 182444 194743,194821,194769
 4.4000e+001 195071 -4.9728e+005 -4.2743e+006  1.0800e+006 182154 194895,194947,194921
 4.4000e+001 195048 -3.6042e+005 -2.2776e+006  2.4332e+005 182154 194895,194999,194947
 4.4000e+001 195025 -3.1750e+005 -1.6302e+006  3.2312e+005 182154 194947,194999,194973
 4.4000e+001 195223 -1.7637e+005 -2.3564e+006 -2.1270e+005 181814 195096,195148,195122
 4.4000e+001 195200 -6.3654e+004 -2.1038e+006 -6.2473e+005 181814 195096,195174,195148
 4.4000e+001 195375 -5.6412e+004 -1.1058e+006  5.4355e+004 181524 195248,195300,195274
 4.4000e+001 195352 -7.6942e+004 -2.1665e+006  2.9935e+005 181524 195248,195326,195300
 4.4000e+001 195527 -5.6985e+004 -9.5977e+005  4.3465e+005 181326 195426,195478,195452
 4.4000e+001 195504 -4.8377e+005 -2.2462e+006  7.8965e+005 181326 195400,195478,195426
 4.4000e+001 195679  4.0641e+005 -1.2933e+007 -2.1360e+005 180936 195578,195630,195604
 4.4000e+001 195656 -1.1168e+006 -3.8060e+006 -5.9093e+004 180936 195552,195630,195578
 4.4000e+001 195831 -5.7144e+005 -5.3046e+005 -2.8233e+005 180646 195704,195756,195730
 4.4000e+001 195808 -6.7755e+005 -1.4047e+005 -5.3137e+004 180646 195704,195782,195756
 4.4000e+001 196032 -4.6674e+005 -2.3911e+006  6.9765e+005 180306 195882,195960,195934
 4.4000e+001 196009 -7.2051e+005 -1.0504e+006 -3.2770e+005 180306 195856,195960,195882
 4.4000e+001 195986  8.3757e+004 -3.4887e+006 -5.2947e+005 180306 195882,195934,195908
 4.4000e+001 196233 -3.8395e+005 -2.3570e+005 -7.6465e+005 179944 196057,196109,196083
 4.4000e+001 196210 -9.3319e+005 -2.8988e+006  3.8190e+005 179944 196057,196135,196109
 4.4000e+001 196187 -1.6911e+006  3.3185e+006 -1.1365e+006 179944 196057,196161,196135
 4.4000e+001 196385 -6.6510e+005 -8.0804e+005 -4.0076e+005 179604 196258,196310,196284
 4.4000e+001 196362 -1.2117e+006 -1.7174e+006 -1.5356e+006 179604 196258,196336,196310
 4.4000e+001 196586 -5.8803e+005 -9.0515e+005 -3.6754e+005 179114 196410,196488,196436
 4.4000e+001 196563  2.0922e+005 -3.2834e+006 -5.7323e+005 179114 196410,196514,196488
 4.4000e+001 196540 -8.1475e+003 -8.3834e+005 -8.6437e+004 179114 196436,196488,196462
 4.4000e+001 196738 -1.8356e+005 -2.4559e+006 -3.2575e+005 178674 196611,196663,196637
 4.4000e+001 196715 -3.8030e+005 -2.2240e+006 -3.5342e+005 178674 196611,196689,196663
 4.4000e+001 196939  1.4490e+006 -9.1753e+006 -1.4008e+006 178334 196789,196867,196841
 4.4000e+001 196916 -1.3183e+006 -9.2059e+006  1.5300e+006 178334 196763,196867,196789
 4.4000e+001 196893 -2.5734e+006 -6.0118e+006 -4.6756e+006 178334 196789,196841,196815
 4.4000e+001 197091 -2.5231e+005 -5.1699e+006 -2.4604e+005 177930 196990,197042,197016
 4.4000e+001 197068  1.2554e+005 -3.4595e+006 -9.6057e+004 177930 196964,197042,196990
 4.4000e+001 197194 -3.4195e+002 -5.3863e+005 -4.7327e+002 177732 197116,197168,197142
 4.4000e+001 197346 -2.0245e+005 -7.3678e+006 -1.3863e+005 177534 197219,197271,197245
 4.4000e+001 197323  1.9698e+005 -8.4279e+006  4.2071e+005 177534 197219,197297,197271
 4.4000e+001 197547 -2.4852e+005 -4.2273e+006 -7.0869e+005 177130 197397,197449,197423
 4.4000e+001 197524 -7.0377e+005 -4.2968e+006 -1.0462e+006 177130 197397,197475,197449
 4.4000e+001 197501 -5.5813e+005 -9.5605e+006 -1.4192e+006 177130 197371,197475,197397
 4.4000e+001 197748 -3.0051e+005 -7.9129e+006  1.1188e+005 176790 197598,197676,197624
 4.4000e+001 197725 -3.5586e+005 -5.0635e+006  2.6764e+005 176790 197572,197676,197598
 4.4000e+001 197702 -4.9244e+005 -5.7628e+006  6.9224e+005 176790 197624,197676,197650
 4.4000e+001 197900 -1.3369e+005 -5.1834e+006 -8.2863e+005 176300 197773,197825,197799
 4.4000e+001 197877  1.4553e+005 -5.7556e+006 -8.6899e+005 176300 197773,197851,197825
 4.4000e+001 198052 -2.3786e+005 -1.0292e+007 -1.8311e+006 176010 197925,197977,197951
 4.4000e+001 198029 -5.3312e+005 -6.2858e+006 -1.3987e+006 176010 197925,198003,197977
 4.4000e+001 198204 -2.4150e+006 -4.2189e+006 -1.0939e+006 175670 198103,198155,198129
 4.4000e+001 198181 -2.6313e+006 -5.7629e+006 -1.3575e+006 175670 198077,198155,198103
 4.4000e+001 198405  3.2848e+005 -6.8677e+006 -1.1823e+006 175266 198255,198307,198281
 4.4000e+001 198382  1.6565e+005 -6.9711e+006 -1.2626e+006 175266 198229,198307,198255
 4.4000e+001 198359 -1.3165e+006 -5.1524e+006 -2.6039e+006 175266 198229,198333,198307
 4.4000e+001 198606 -3.8118e+003 -3.8868e+005 -4.1801e+004 174876 198430,198508,198482
 4.4000e+001 198583 -1.2214e+005 -4.0719e+005 -1.3867e+005 174876 198430,198534,198508
 4.4000e+001 198560 -9.9287e+004 -1.3149e+005 -1.1487e+005 174876 198430,198482,198456
 4.4000e+001 198758 -4.3347e+001 -1.1936e+002 -2.8812e+001 174536 198657,198709,198683
 4.4000e+001 198735 -2.2939e+001 -5.5771e+001 -7.0325e+001 174536 198631,198709,198657
 4.4000e+001 199008 -9.0698e+005 -8.8521e+006 -5.0027e+005 174132 198835,198913,198887
 4.4000e+001 198985  1.5511e+005 -3.6163e+006  3.9767e+005 174132 198809,198913,198835
 4.4000e+001 198962 -4.8837e+005 -4.2067e+006 -2.3550e+006 174132 198783,198913,198809
 4.4000e+001 198939 -3.0064e+005 -9.1484e+006 -4.3235e+005 174132 198835,198887,198861
 4.4000e+001 199160 -1.5306e+006 -3.2401e+006 -1.2335e+006 173842 199059,199111,199085
 4.4000e+001 199137 -7.0028e+005 -1.5647e+006 -5.4820e+005 173842 199033,199111,199059
 4.4000e+001 199361 -4.0741e+005 -1.2010e+007  1.4232e+006 173438 199237,199289,199263
 4.4000e+001 199338 -1.0626e+006 -8.3558e+006  2.0029e+006 173438 199211,199289,199237
 4.4000e+001 199315 -9.3298e+005 -1.0487e+007  1.7500e+005 173438 199185,199289,199211
 4.4000e+001 199513  3.3371e+005 -1.4356e+007  2.4796e+006 173190 199386,199438,199412
 4.4000e+001 199490 -1.5634e+005 -1.0310e+007 -2.1685e+005 173190 199386,199464,199438
 4.4000e+001 199665 -4.0462e+005 -2.0419e+006  2.1802e+005 172750 199564,199616,199590
 4.4000e+001 199642 -7.7181e+005 -9.3817e+005 -2.6413e+003 172750 199538,199616,199564
 4.4000e+001 199817 -5.8792e+005 -1.0222e+007 -3.5964e+006 172524 199690,199742,199716
 4.4000e+001 199794 -4.2778e+006 -4.2050e+006 -2.1994e+006 172524 199690,199768,199742
 4.4000e+001 199969 -2.3286e+004 -8.8175e+006 -4.5442e+005 172348 199842,199894,199868
 4.4000e+001 199946  8.7910e+005 -8.6708e+006  1.3678e+005 172348 199842,199920,199894
 4.4000e+001 200121  3.1040e+005 -8.0564e+006 -1.2066e+006 172008 199994,200046,200020
 4.4000e+001 200098 -6.5833e+005 -3.3693e+006 -4.3010e+005 172008 199994,200072,200046
 4.4000e+001 200273 -3.5156e+005 -7.6232e+006  8.8479e+005 171668 200172,200224,200198
 4.4000e+001 200250 -4.4026e+005 -6.6114e+006  3.8026e+005 171668 200146,200224,200172
 4.4000e+001 200474  2.9250e+005 -7.9398e+006 -1.0280e+006 171264 200350,200402,200376
 4.4000e+001 200451 -1.0264e+005 -7.6953e+006 -1.0581e+006 171264 200324,200402,200350
 4.4000e+001 200428 -6.7318e+005 -5.7421e+006  1.4017e+006 171264 200298,200402,200324
 4.4000e+001 200626 -4.4766e+004 -8.1219e+006 -5.5867e+005 170832 200525,200577,200551
 4.4000e+001 200603 -1.8556e+005 -5.1456e+006 -4.3177e+005 170832 200499,200577,200525
 4.4000e+001 200827  5.4810e+005 -9.1226e+006  1.3810e+006 170492 200677,200729,200703
 4.4000e+001 200804 -1.7630e+006 -3.0494e+006 -3.2841e+006 170492 200651,200729,200677
 4.4000e+001 200781 -3.4121e+006 -3.2490e+006 -2.0332e+006 170492 200651,200755,200729
 4.4000e+001 201077  6.5262e+005 -6.5696e+006  2.0648e+005 170088 200878,200956,200904
 4.4000e+001 201054 -2.4608e+005 -4.5856e+006 -1.1886e+006 170088 200852,200956,200878
 4.4000e+001 201031  3.8969e+005 -4.1950e+006  4.3752e+006 170088 200904,200956,200930
 4.4000e+001 201008  3.9866e+006 -8.6581e+006  1.6336e+006 170088 200852,200982,200956
 4.4000e+001 201278  2.7939e+005 -1.3720e+006 -9.5831e+004 169798 201102,201154,201128
 4.4000e+001 201255 -1.9586e+006 -9.5451e+006 -1.1587e+006 169798 201102,201206,201154
 4.4000e+001 201232 -2.3066e+006 -2.4973e+006  8.6966e+005 169798 201154,201206,201180
 4.4000e+001 201430 -9.3505e+005 -1.3701e+007 -2.2572e+006 169337 201303,201355,201329
 4.4000e+001 201407 -5.2948e+005 -4.8748e+006 -5.2176e+005 169337 201303,201381,201355
 4.4000e+001 201631 -7.0017e+005 -9.4220e+006 -9.6710e+004 168883 201481,201559,201507
 4.4000e+001 201608 -1.2252e+005 -7.3233e+006  1.2544e+006 168883 201455,201559,201481
 4.4000e+001 201585 -4.1442e+005 -7.8808e+006  1.5853e+005 168883 201507,201559,201533
 4.4000e+001 201832  9.1152e+004 -1.2306e+007  5.6181e+005 168479 201682,201734,201708
 4.4000e+001 201809 -2.6553e+006 -9.3874e+006 -1.9823e+006 168479 201656,201734,201682
 4.4000e+001 201786 -2.3112e+006 -8.0144e+006 -1.0889e+006 168479 201656,201760,201734
 4.4000e+001 202033 -3.0802e+005 -4.3034e+006  5.0941e+005 167825 201883,201935,201909
 4.4000e+001 202010 -1.8658e+006 -5.6758e+006 -1.9281e+006 167825 201857,201935,201883
 4.4000e+001 201987  1.8451e+003 -1.4293e+007 -6.2073e+005 167825 201857,201961,201935
 4.4000e+001 202234 -5.6995e+005 -6.5619e+006 -1.7651e+006 167435 202058,202136,202084
 4.4000e+001 202211 -9.4095e+005 -9.5728e+006  1.8122e+006 167435 202058,202162,202136
 4.4000e+001 202188 -8.1307e+005 -2.9539e+006  7.7508e+005 167435 202084,202136,202110
 4.4000e+001 202386  3.7840e+005 -6.8230e+006 -1.2170e+005 167002 202285,202337,202311
 4.4000e+001 202363 -4.2982e+005 -1.3155e+006  3.3810e+005 167002 202259,202337,202285
 4.4000e+001 202538  2.1516e+004 -4.9748e+006 -5.5382e+005 166662 202411,202463,202437
 4.4000e+001 202515 -3.3526e+005 -1.2723e+006 -3.3216e+005 166662 202411,202489,202463
 4.4000e+001 202690  1.3036e+005 -7.3670e+006 -1.6216e+006 166322 202589,202641,202615
 4.4000e+001 202667  2.8162e+005 -6.4804e+006 -8.9949e+005 166322 202563,202641,202589
 4.4000e+001 202891 -6.7259e+005 -7.6174e+005 -1.7496e+005 165918 202715,202767,202741
 4.4000e+001 202868 -1.2283e+006 -3.0432e+006 -3.0333e+005 165918 202715,202793,202767
 4.4000e+001 202845 -6.2984e+004 -2.5558e+006 -7.1485e+005 165918 202715,202819,202793
 4.4000e+001 203092 -7.8994e+005 -7.5554e+006 -1.3524e+006 165628 202916,202968,202942
 4.4000e+001 203069 -1.1920e+004 -1.1642e+007 -1.0356e+006 165628 202916,202994,202968
 4.4000e+001 203046 -1.5838e+006 -9.8598e+006 -2.6631e+006 165628 202916,203020,202994
 4.4000e+001 203293 -7.0549e+006 -6.6624e+006 -1.5803e+006 165266 203143,203195,203169
 4.4000e+001 203270 -3.2575e+006 -9.1839e+006 -9.3996e+004 165266 203143,203221,203195
 4.4000e+001 203247 -1.2782e+006 -1.2345e+007 -3.5352e+006 165266 203117,203221,203143
 4.4000e+001 203445 -3.5960e+005 -4.6586e+006  4.7363e+005 164826 203318,203370,203344
 4.4000e+001 203422 -3.4859e+005 -3.1446e+006 -6.4092e+005 164826 203318,203396,203370
 4.4000e+001 203597 -9.1164e+005 -4.4839e+006 -4.8873e+005 164386 203470,203522,203496
 4.4000e+001 203574 -7.7759e+005 -3.5892e+006 -7.0234e+005 164386 203470,203548,203522
 4.4000e+001 203798 -2.2955e+004 -5.4721e+006  8.4436e+005 163996 203622,203674,203648
 4.4000e+001 203775 -1.1435e+006 -5.7676e+005 -2.2551e+005 163996 203622,203726,203674
 4.4000e+001 203752 -2.1526e+006 -2.6131e+006  2.8541e+006 163996 203674,203726,203700
 4.4000e+001 203901 -1.8587e+005 -2.3887e+006 -7.7482e+005 163770 203823,203875,203849
 4.4000e+001 204053 -3.5380e+005 -3.1814e+006 -2.1732e+005 163474 203952,204004,203978
 4.4000e+001 204030 -7.5288e+004 -3.2226e+006 -4.0204e+005 163474 203926,204004,203952
 4.4000e+001 204205 -1.2285e+006 -3.9128e+006 -7.6321e+005 163034 204104,204156,204130
 4.4000e+001 204182 -1.3909e+006 -8.1237e+006 -4.5848e+006 163034 204078,204156,204104
 4.4000e+001 204357 -7.3868e+005 -5.3276e+006  8.8769e+005 162624 204256,204308,204282
 4.4000e+001 204334 -2.6928e+005 -5.7202e+005  1.9946e+005 162624 204230,204308,204256
 4.4000e+001 204509 -1.5991e+004 -1.0020e+005  4.2683e+004 162200 204382,204434,204408
 4.4000e+001 204486 -1.6535e+004 -6.9321e+004  3.0140e+004 162200 204382,204460,204434
 4.4000e+001 204710 -1.3811e+005 -1.9113e+006  1.3377e+005 161810 204560,204638,204586
 4.4000e+001 204687  7.0120e+004 -3.5155e+006 -1.4720e+006 161810 204534,204638,204560
 4.4000e+001 204664 -3.0490e+005 -1.4807e+006 -2.8381e+005 161810 204586,204638,204612
 4.4000e+001 204862 -1.0288e+006 -4.9855e+006 -2.2622e+006 161406 204735,204787,204761
 4.4000e+001 204839 -1.9201e+006 -4.1563e+006 -2.5984e+006 161406 204735,204813,204787
 4.4000e+001 205014  8.4756e+002 -7.9376e+004  1.6753e+004 161180 204887,204939,204913
 4.4000e+001 204991 -6.4438e+003 -3.9918e+004 -5.3334e+003 161180 204887,204965,204939
 4.4000e+001 205215  4.5340e+005 -1.0715e+006 -2.2278e+005 160726 205039,205091,205065
 4.4000e+001 205192 -4.6259e+005 -4.6520e+006 -4.5705e+005 160726 205039,205143,205091
 4.4000e+001 205169 -4.5593e+004 -5.7305e+005 -3.2026e+004 160726 205091,205143,205117
 4.4000e+001 205416  4.1869e+003 -5.7173e+005  2.1718e+005 160272 205292,205344,205318
 4.4000e+001 205393 -1.1564e+005 -1.3268e+005  1.4249e+005 160272 205240,205344,205292
 4.4000e+001 205370 -7.8746e+004 -6.3948e+004  2.1713e+004 160272 205240,205292,205266
 4.4000e+001 205568 -1.1578e+004 -1.1626e+005  1.2172e+004 159932 205441,205493,205467
 4.4000e+001 205545 -9.8226e+003 -1.0698e+005  1.1458e+004 159932 205441,205519,205493
 4.4000e+001 205720 -1.3003e+004 -8.0541e+004  3.7114e+004 159542 205593,205645,205619
 4.4000e+001 205697 -2.8918e+004 -1.1585e+005  5.0493e+004 159542 205593,205671,205645
 4.4000e+001 205872  1.3320e+004 -3.4709e+004 -3.5201e+003 159252 205745,205797,205771
 4.4000e+001 205849 -1.6223e+004 -1.6243e+005 -2.4416e+004 159252 205745,205823,205797
 4.4000e+001 206024 -1.8346e+006 -3.9492e+006 -1.1732e+006 159004 205923,205975,205949
 4.4000e+001 206001 -6.2426e+005 -3.5783e+006 -3.6306e+005 159004 205897,205975,205923
 4.4000e+001 206127 -2.1111e+006 -1.7565e+006  1.6909e+003 158364 206049,206101,206075
 4.4000e+001 206328  1.2872e+004 -4.9454e+004  3.9640e+004 157960 206178,206256,206204
 4.4000e+001 206305  2.4601e+004 -8.4182e+004 -2.0274e+004 157960 206152,206256,206178
 4.4000e+001 206282 -2.6880e+004 -3.9706e+004  2.4229e+004 157960 206204,206256,206230
 4.4000e+001 206529 -8.2371e+005 -1.1596e+007  5.5919e+005 157648 206405,206457,206431
 4.4000e+001 206506 -4.7483e+006 -7.1932e+006 -9.4300e+005 157648 206379,206457,206405
 4.4000e+001 206483 -2.1571e+006 -5.4405e+006  7.1053e+005 157648 206353,206457,206379
 4.4000e+001 206730  8.5887e+005 -6.6433e+006  3.3300e+004 157208 206554,206606,206580
 4.4000e+001 206707  5.4738e+005 -7.3931e+006  1.2178e+006 157208 206554,206632,206606
 4.4000e+001 206684 -4.4705e+006 -7.0969e+005 -2.1043e+006 157208 206554,206658,206632
 4.4000e+001 206882 -6.2841e+003 -3.0543e+004 -5.7948e+003 157010 206755,206807,206781
 4.4000e+001 206859  1.5436e+003 -7.7690e+004  1.7423e+004 157010 206755,206833,206807
 4.4000e+001 207034 -8.6350e+004 -2.5456e+006 -5.5344e+004 156620 206907,206959,206933
 4.4000e+001 207011  7.6629e+004 -4.4238e+006  3.7319e+004 156620 206907,206985,206959
 4.4000e+001 207186 -4.3371e+004 -2.1961e+006  7.8308e+004 156330 207085,207137,207111
 4.4000e+001 207163 -1.4411e+005 -2.3249e+006 -9.8138e+005 156330 207059,207137,207085
 4.4000e+001 207387 -1.0467e+006 -5.4405e+006  1.8947e+006 155890 207211,207289,207237
 4.4000e+001 207364 -6.5523e+005 -5.5262e+006 -9.9276e+005 155890 207211,207315,207289
 4.4000e+001 207341 -1.3734e+006 -5.0893e+006  2.0880e+006 155890 207237,207289,207263
 4.4000e+001 207588  8.0581e+005 -2.6904e+007  7.6715e+006 155436 207438,207490,207464
 4.4000e+001 207565 -3.1023e+005 -2.1273e+007 -6.5821e+005 155436 207412,207490,207438
 4.4000e+001 207542 -1.9934e+006 -1.2152e+007 -9.6575e+005 155436 207412,207516,207490
 4.4000e+001 207789  2.2597e+006 -4.0444e+007 -2.5946e+006 155260 207639,207691,207665
 4.4000e+001 207766 -4.6021e+006 -1.4233e+007  5.5463e+006 155260 207613,207691,207639
 4.4000e+001 207743 -8.6406e+005 -1.1170e+007 -1.1527e+005 155260 207613,207717,207691
 4.4000e+001 207990  4.5263e+002 -1.0615e+004  2.8259e+003 154920 207840,207918,207892
 4.4000e+001 207967  1.2268e+002 -1.3802e+004 -5.1246e+003 154920 207814,207918,207840
 4.4000e+001 207944 -9.7017e+002 -3.4134e+003 -1.7481e+003 154920 207840,207892,207866
 4.4000e+001 208191 -4.5240e+005 -7.2207e+006 -1.6263e+006 154630 208015,208093,208041
 4.4000e+001 208168 -1.8914e+004 -4.0554e+006 -1.3898e+006 154630 208015,208119,208093
 4.4000e+001 208145 -2.2682e+006 -3.4972e+006 -2.8165e+006 154630 208041,208093,208067
 4.4000e+001 208343  7.3552e-002  2.2787e-004  4.0939e-003 154240 208216,208268,208242
 4.4000e+001 208320 -1.4063e-001 -4.3568e-004 -7.8275e-003 154240 208216,208294,208268
 4.4000e+001 208495  3.5273e+006 -2.7729e+007 -7.6660e+006 153950 208394,208446,208420
 4.4000e+001 208472 -1.9287e+006 -1.1517e+007  3.5470e+006 153950 208368,208446,208394
 4.4000e+001 208647 -1.5057e+006 -1.1748e+007  8.7200e+006 153603 208520,208572,208546
 4.4000e+001 208624 -5.3928e+006 -4.8831e+006 -4.7969e+006 153603 208520,208598,208572
 4.4000e+001 208848 -2.5198e+005 -2.2597e+006  8.8195e+005 153149 208698,208776,208724
 4.4000e+001 208825  3.4370e+005 -5.0561e+006 -5.2827e+005 153149 208672,208776,208698
 4.4000e+001 208802 -9.3398e+005 -1.3050e+006  6.0468e+005 153149 208724,208776,208750
 4.4000e+001 209000 -1.2059e+006 -9.8387e+006 -3.3334e+005 152859 208873,208925,208899
 4.4000e+001 208977 -1.2268e+005 -1.6009e+007  6.2244e+005 152859 208873,208951,208925
 4.4000e+001 209152  8.0145e+005 -1.3693e+007 -2.6662e+005 152569 209051,209103,209077
 4.4000e+001 209129  4.9860e+005 -1.4262e+007 -6.2273e+005 152569 209025,209103,209051
 4.4000e+001 209304 -3.1909e-001 -4.4371e-001 -3.7627e-001 152065 209177,209229,209203
 4.4000e+001 209281  7.2938e-001  1.0142e+000  8.6009e-001 152065 209177,209255,209229
 4.4000e+001 209456  7.0483e+005 -1.1019e+007 -4.7247e+004 151775 209355,209407,209381
 4.4000e+001 209433  1.3962e+006 -1.6476e+007 -1.2435e+005 151775 209329,209407,209355
 4.4000e+001 209608 -1.0032e+006 -1.4675e+007 -6.4138e+005 151371 209481,209533,209507
 4.4000e+001 209585  8.5260e+005 -1.9798e+007  7.9139e+005 151371 209481,209559,209533
 4.4000e+001 209760 -3.0932e+005 -4.3373e+006 -3.2828e+005 150981 209659,209711,209685
 4.4000e+001 209737 -1.1185e+006 -5.2888e+006 -3.2547e+006 150981 209633,209711,209659
 4.4000e+001 209912  2.7601e+006 -4.0785e+007 -3.3448e+006 150619 209811,209863,209837
 4.4000e+001 209889 -3.4909e+006 -1.8709e+007  4.2393e+006 150619 209785,209863,209811
 4.4000e+001 210064 -8.6127e+005 -1.1396e+006 -7.0412e+005 150279 209937,209989,209963
 4.4000e+001 210041  2.1379e+005 -1.0186e+007 -2.9758e+006 150279 209937,210015,209989
 4.4000e+001 210265 -1.6447e+006 -1.6007e+007  5.8813e+005 149989 210115,210167,210141
 4.4000e+001 210242 -6.9429e+005 -1.7475e+007 -1.1176e+006 149989 210115,210193,210167
 4.4000e+001 210219  3.9832e+005 -1.8913e+007 -4.1918e+005 149989 210089,210193,210115
 4.4000e+001 210417 -5.6286e+006 -3.0638e+006 -9.8263e+004 149599 210316,210368,210342
 4.4000e+001 210394 -3.1124e+006 -9.3748e+006 -6.2647e+005 149599 210290,210368,210316
 4.4000e+001 210618 -3.5568e+006 -1.4670e+007  4.3150e+006 149095 210468,210520,210494
 4.4000e+001 210595 -4.1595e+006 -1.4572e+007  1.6259e+006 149095 210442,210520,210468
 4.4000e+001 210572 -2.1628e+006 -2.7085e+007  3.0458e+006 149095 210442,210546,210520
 4.4000e+001 210819  3.8796e+002 -9.0507e+002 -3.8519e+001 148748 210695,210747,210721
 4.4000e+001 210796  2.9469e+002 -1.5390e+003 -1.8555e+001 148748 210669,210747,210695
 4.4000e+001 210773  1.1940e+003 -6.2813e+002  7.0442e+002 148748 210643,210747,210669
 4.4000e+001 210971  1.8849e+002 -3.7518e+001 -1.5651e+002 148408 210870,210922,210896
 4.4000e+001 210948  2.2586e+002  6.8486e+001 -1.3140e+002 148408 210844,210922,210870
 4.4000e+001 211123 -6.6848e+005 -1.0805e+007  1.1310e+006 148118 210996,211048,211022
 4.4000e+001 211100 -3.0100e+005 -1.2907e+007  4.9651e+006 148118 210996,211074,211048
 4.4000e+001 211275 -2.5564e+006 -8.3575e+006  7.4620e+005 147778 211148,211200,211174
 4.4000e+001 211252 -3.5679e+005 -2.0617e+007  8.8769e+006 147778 211148,211226,211200
 4.4000e+001 211427 -1.0963e+006 -7.1086e+006  2.4220e+006 147324 211326,211378,211352
 4.4000e+001 211404  9.7928e+005 -1.1091e+007  1.3430e+006 147324 211300,211378,211326
 4.4000e+001 211628 -3.3121e+002 -7.2624e+002 -2.5162e+001 147012 211452,211504,211478
 4.4000e+001 211605 -2.8191e+002 -5.3597e+002 -4.9326e+001 147012 211452,211556,211504
 4.4000e+001 211582 -2.1370e+002 -1.9845e+002 -4.2934e+001 147012 211504,211556,211530
 4.4000e+001 211829 -3.3734e+006 -6.1864e+006  2.6141e+006 146636 211679,211757,211731
 4.4000e+001 211806  3.4236e+006 -1.7981e+007 -4.6604e+005 146636 211653,211757,211679
 4.4000e+001 211783  9.6371e+005 -6.9646e+006  4.3367e+006 146636 211679,211731,211705
 4.4000e+001 211981 -2.2343e+003  6.8478e+002 -9.3848e+002 146246 211880,211932,211906
 4.4000e+001 211958 -6.8203e+002 -2.6621e+002  2.5798e+002 146246 211854,211932,211880
 4.4000e+001 212133  1.0660e+002 -3.9907e+001 -4.2885e+001 145956 212006,212058,212032
 4.4000e+001 212110  2.8180e+002 -2.5461e+002  6.8379e+001 145956 212006,212084,212058
 4.4000e+001 212285 -7.6385e+002  2.3382e+002 -1.4050e+002 145544 212184,212236,212210
 4.4000e+001 212262 -5.8362e+002 -1.8487e+001  4.4420e+001 145544 212158,212236,212184
 4.4000e+001 212486  3.9424e+005 -1.6057e+007  3.0153e+006 144990 212362,212414,212388
 4.4000e+001 212463  1.1474e+005 -1.2081e+007  5.0947e+006 144990 212310,212414,212362
 4.4000e+001 212440 -3.6408e+006 -2.7542e+006  2.4062e+006 144990 212310,212362,212336
 4.4000e+001 212638  2.9844e+004 -3.7804e+004 -6.3354e+003 144600 212537,212589,212563
 4.4000e+001 212615  2.4647e+004 -3.8476e+004  2.8883e+004 144600 212511,212589,212537
 4.4000e+001 212839 -3.5051e+004 -6.2266e+005 -8.0282e+004 144210 212689,212741,212715
 4.4000e+001 212816  2.8551e+003 -7.5418e+005  5.1967e+004 144210 212663,212741,212689
 4.4000e+001 212793  3.5924e+004 -5.2988e+005 -1.1428e+003 144210 212663,212767,212741
 4.4000e+001 212991 -4.2051e+001  2.2708e+002  7.9091e+001 143920 212890,212942,212916
 4.4000e+001 212968 -1.7949e+001  3.4716e+001  6.1785e+001 143920 212864,212942,212890
 4.4000e+001 213143 -5.0339e+002 -2.2337e+001 -8.2484e+000 143480 213016,213068,213042
 4.4000e+001 213120 -1.1153e+002  2.0488e+000  4.8035e+000 143480 213016,213094,213068
 4.4000e+001 213295 -2.5188e+006 -8.6055e+006  5.6985e+006 142990 213194,213246,213220
 4.4000e+001 213272 -3.2176e+006 -3.2343e+006  2.1369e+006 142990 213168,213246,213194
 4.4000e+001 213447 -1.0136e+004 -3.4327e+006  6.3640e+005 142600 213320,213372,213346
 4.4000e+001 213424 -3.5635e+005 -2.1075e+006 -4.5306e+005 142600 213320,213398,213372
 4.4000e+001 213599 -3.6140e+004 -1.6498e+005 -1.0292e+005 142260 213472,213524,213498
 4.4000e+001 213576 -2.1007e+004 -1.9261e+005  1.2772e+004 142260 213472,213550,213524
 4.4000e+001 213751 -2.4296e+005 -8.5689e+005 -4.1852e+005 141870 213624,213676,213650
 4.4000e+001 213728 -4.6743e+005 -7.1241e+005 -6.9444e+005 141870 213624,213702,213676
 4.4000e+001 213903 -1.1836e+006 -2.3630e+006 -1.6598e+006 141530 213776,213828,213802
 4.4000e+001 213880 -5.4036e+005 -2.6313e+006 -1.1042e+006 141530 213776,213854,213828
 4.4000e+001 214055 -7.0568e+001 -6.4450e+002  1.1627e+001 141218 213928,213980,213954
 4.4000e+001 214032  9.1329e+001 -1.7614e+003  3.0005e+002 141218 213928,214006,213980
 4.4000e+001 214207 -1.4691e+002 -5.0844e+002 -8.8629e+001 140928 214080,214132,214106
 4.4000e+001 214184 -3.6960e+002 -6.2117e+002  7.1304e+002 140928 214080,214158,214132
 4.4000e+001 214359 -1.6810e+005 -2.7851e+005 -2.3568e+005 140538 214232,214284,214258
 4.4000e+001 214336  9.6463e+004 -6.3100e+005  4.8853e+004 140538 214232,214310,214284
 4.4000e+001 214560 -3.2792e+004 -2.8200e+006  8.8003e+004 140248 214384,214462,214410
 4.4000e+001 214537  1.8099e+005 -1.3732e+006 -4.1763e+004 140248 214384,214488,214462
 4.4000e+001 214514 -2.6966e+005 -1.7790e+006 -3.5215e+005 140248 214410,214462,214436
 4.4000e+001 214712 -8.9395e+005 -8.9333e+006  2.0917e+006 140000 214611,214663,214637
 4.4000e+001 214689 -1.0785e+006 -5.0902e+006  1.5951e+006 140000 214585,214663,214611
 4.4000e+001 214913 -5.2349e+005 -1.9179e+006 -1.2098e+006 139596 214737,214815,214763
 4.4000e+001 214890 -4.9703e+005 -3.6618e+005 -1.9632e+005 139596 214737,214841,214815
 4.4000e+001 214867  4.5683e+005 -4.1683e+006 -7.4589e+005 139596 214763,214815,214789
 4.4000e+001 215016 -3.8763e+003 -6.1329e+002 -9.4380e+002 139420 214938,214990,214964
 4.4000e+001 215168 -2.2048e+006 -1.1293e+007  4.9533e+006 139130 215067,215119,215093
 4.4000e+001 215145 -1.1469e+006 -1.1600e+007  3.0607e+006 139130 215041,215119,215067
 4.4000e+001 215320 -1.6485e+006 -5.2571e+006  2.5573e+006 138790 215219,215271,215245
 4.4000e+001 215297 -6.1923e+005 -1.2621e+007  4.5075e+006 138790 215193,215271,215219
 4.4000e+001 215472 -4.1154e+004 -1.9166e+005  6.3685e+004 138514 215345,215397,215371
 4.4000e+001 215449 -5.9529e+004 -3.1317e+005  1.5869e+005 138514 215345,215423,215397
 4.4000e+001 215624 -4.0248e+004 -1.0838e+007  1.2597e+006 138174 215497,215549,215523
 4.4000e+001 215601 -8.5677e+003 -7.8949e+006  8.1853e+005 138174 215497,215575,215549
 4.4000e+001 215776 -2.8173e+005 -1.4222e+006  9.2422e+005 137734 215649,215701,215675
 4.4000e+001 215753 -2.6460e+005 -7.7090e+005 -5.2182e+005 137734 215649,215727,215701
 4.4000e+001 215977  4.3504e+005 -2.0457e+007  5.0946e+006 137344 215801,215879,215827
 4.4000e+001 215954 -1.6552e+006 -8.6477e+006 -3.6682e+006 137344 215801,215905,215879
 4.4000e+001 215931 -1.1786e+006 -2.5850e+007  8.6522e+005 137344 215827,215879,215853
 4.4000e+001 216129 -5.0337e+005 -5.4417e+006 -5.1982e+005 136940 216028,216080,216054
 4.4000e+001 216106 -8.3713e+005 -7.2863e+006 -4.2031e+005 136940 216002,216080,216028
 4.4000e+001 216330 -4.0979e+005 -9.6088e+006  1.5920e+006 136600 216180,216232,216206
 4.4000e+001 216307 -1.3582e+005 -9.6492e+006  2.1419e+006 136600 216154,216232,216180
 4.4000e+001 216284 -1.5588e+006 -6.3610e+006  5.9747e+005 136600 216154,216258,216232
 4.4000e+001 216482  8.8288e+005 -7.2220e+006  9.7074e+005 136260 216381,216433,216407
 4.4000e+001 216459  5.6166e+005 -8.1516e+006  6.6407e+005 136260 216355,216433,216381
 4.4000e+001 216634 -1.0953e+006 -8.6115e+006  2.7842e+006 135970 216533,216585,216559
 4.4000e+001 216611 -6.0349e+005 -1.1456e+007  3.2015e+006 135970 216507,216585,216533
 4.4000e+001 216835 -9.2370e+005 -3.5476e+006 -1.3931e+006 135608 216685,216763,216711
 4.4000e+001 216812 -2.1706e+005 -2.2887e+006  2.3562e+005 135608 216659,216763,216685
 4.4000e+001 216789 -6.5457e+005 -1.0922e+007  2.1467e+005 135608 216711,216763,216737
 4.4000e+001 217036 -1.4852e+006 -1.0422e+006  6.3350e+005 135312 216912,216964,216938
 4.4000e+001 217013 -1.0551e+006 -4.0654e+006  2.6319e+006 135312 216886,216964,216912
 4.4000e+001 216990  1.1868e+006 -9.2538e+006  1.4911e+006 135312 216860,216964,216886
 4.4000e+001 217237 -3.3801e+004 -3.3940e+005  1.4820e+005 134908 217061,217139,217113
 4.4000e+001 217214  5.0968e+004 -2.9542e+005  5.0417e+004 134908 217061,217165,217139
 4.4000e+001 217191  9.0907e+004 -5.4854e+005  2.0991e+005 134908 217061,217113,217087
 4.4000e+001 217438 -2.5650e+006 -2.4028e+007  1.2862e+006 134568 217288,217366,217314
 4.4000e+001 217415  2.8603e+006 -3.7760e+007  1.2366e+006 134568 217262,217366,217288
 4.4000e+001 217392 -4.7495e+005 -2.2359e+007 -6.6071e+005 134568 217314,217366,217340
 4.4000e+001 217590 -2.8795e+004 -2.1118e+005  2.7512e+004 134106 217463,217515,217489
 4.4000e+001 217567 -5.8059e+004 -2.9993e+005  1.5546e+005 134106 217463,217541,217515
 4.4000e+001 217791 -2.1022e+006 -3.2200e+007 -8.6989e+006 133816 217641,217693,217667
 4.4000e+001 217768  3.6416e+006 -3.6752e+007  3.8487e+006 133816 217641,217719,217693
 4.4000e+001 217745 -7.5089e+006 -3.8421e+006  5.3625e+006 133816 217615,217719,217641
 4.4000e+001 217992 -3.5584e+006 -5.6986e+006  4.5683e+006 133355 217842,217920,217894
 4.4000e+001 217969  1.1855e+006 -1.6597e+007 -4.8520e+005 133355 217816,217920,217842
 4.4000e+001 217946 -1.0958e+005 -3.2072e+006  1.0229e+006 133355 217842,217894,217868
 4.4000e+001 218193 -5.9326e+005 -8.5537e+006 -3.2980e+006 132851 218017,218095,218069
 4.4000e+001 218170 -3.5442e+006 -1.1181e+007  7.7354e+006 132851 218017,218121,218095
 4.4000e+001 218147 -3.8481e+006 -6.0172e+006 -2.8503e+006 132851 218017,218069,218043
 4.4000e+001 218345 -2.4006e+005 -2.4494e+006  6.7850e+005 132511 218244,218296,218270
 4.4000e+001 218322 -1.9538e+005 -3.1642e+006  8.1664e+005 132511 218218,218296,218244
 4.4000e+001 218497  4.1886e+005 -3.6488e+007 -1.9436e+006 132235 218396,218448,218422
 4.4000e+001 218474 -2.0657e+006 -1.1057e+007  3.2488e+005 132235 218370,218448,218396
 4.4000e+001 218698 -4.9398e+005 -1.1498e+007 -5.5670e+005 131945 218574,218626,218600
 4.4000e+001 218675 -2.6001e+006 -2.0623e+007 -3.0960e+005 131945 218522,218626,218574
 4.4000e+001 218652 -1.0629e+006 -1.7223e+007 -1.8035e+006 131945 218522,218574,218548
 4.4000e+001 218850 -3.6835e+005 -2.3518e+007 -1.1156e+006 131655 218723,218775,218749
 4.4000e+001 218827  1.3833e+005 -1.4579e+007 -6.6202e+005 131655 218723,218801,218775
 4.4000e+001 218953 -1.4784e+005 -3.8444e+006  3.3084e+005 131215 218875,218927,218901
 4.4000e+001 219105 -2.8034e+005 -7.1204e+006 -1.9536e+006 130875 218978,219030,219004
 4.4000e+001 219082 -6.4686e+005 -2.0993e+006 -5.3835e+005 130875 218978,219056,219030
 4.4000e+001 219306 -1.5852e+005 -5.3697e+006 -6.0958e+005 130429 219156,219234,219208
 4.4000e+001 219283 -7.2266e+005 -2.0684e+006  3.1099e+004 130429 219130,219234,219156
 4.4000e+001 219260 -2.8225e+006 -6.2060e+006  1.4255e+006 130429 219156,219208,219182
 4.4000e+001 219507 -3.1648e+003 -1.0424e+006  4.3914e+004 130025 219383,219435,219409
 4.4000e+001 219484  2.1416e+004 -1.0843e+006  9.4404e+004 130025 219331,219435,219383
 4.4000e+001 219461 -1.1886e+005 -5.0893e+005 -1.4116e+005 130025 219331,219383,219357
 4.4000e+001 219659 -1.4180e+006 -7.1666e+006  7.5395e+005 129685 219558,219610,219584
 4.4000e+001 219636  1.8490e+005 -1.2246e+007 -5.6997e+006 129685 219532,219610,219558
 4.4000e+001 219860  8.8682e+004 -3.9113e+006  9.3867e+005 129395 219710,219788,219762
 4.4000e+001 219837 -1.0392e+006 -2.2871e+006  4.0102e+005 129395 219684,219788,219710
 4.4000e+001 219814  6.6936e+005 -5.9787e+006 -6.0968e+005 129395 219710,219762,219736
 4.4000e+001 220061  2.6301e+005 -4.2378e+006  3.6159e+005 128991 219937,219989,219963
 4.4000e+001 220038  5.4452e+004 -4.0585e+006  3.1664e+005 128991 219885,219989,219937
 4.4000e+001 220015 -1.0994e+005 -5.0494e+006  5.9618e+005 128991 219885,219937,219911
 4.4000e+001 220262 -5.6881e+005 -2.7212e+006  2.0698e+005 128701 220086,220164,220112
 4.4000e+001 220239 -4.3904e+005 -3.6486e+006  5.8275e+005 128701 220086,220190,220164
 4.4000e+001 220216 -2.6274e+005 -2.9371e+006 -2.7334e+005 128701 220112,220164,220138
 4.4000e+001 220463 -3.5127e+006 -9.6924e+006  3.8355e+006 128297 220339,220391,220365
 4.4000e+001 220440  2.2836e+006 -2.2036e+007  8.2891e+005 128297 220313,220391,220339
 4.4000e+001 220417 -1.8426e+005 -2.6117e+007 -5.3755e+006 128297 220287,220391,220313
 4.4000e+001 220615 -1.2962e+006 -4.2345e+006 -9.8434e+005 128007 220488,220540,220514
 4.4000e+001 220592  1.2182e+006 -1.3100e+007  3.5032e+005 128007 220488,220566,220540
 4.4000e+001 220767 -1.9718e+004 -4.6949e+006  2.6262e+005 127567 220640,220692,220666
 4.4000e+001 220744 -9.4958e+004 -2.5938e+006  1.0827e+005 127567 220640,220718,220692
 4.4000e+001 220919 -6.9471e+005 -1.9471e+007 -2.1245e+006 127163 220792,220844,220818
 4.4000e+001 220896  1.6101e+006 -2.2958e+007  2.3919e+006 127163 220792,220870,220844
 4.4000e+001 221071 -1.2713e+006 -4.0661e+006  1.4715e+006 126915 220970,221022,220996
 4.4000e+001 221048 -7.8298e+005 -5.2794e+006  1.1416e+006 126915 220944,221022,220970
 4.4000e+001 221272 -2.1458e+006 -4.5030e+006  3.2641e+006 126461 221122,221174,221148
 4.4000e+001 221249 -4.9563e+006 -5.9142e+006  9.2403e+005 126461 221122,221200,221174
 4.4000e+001 221226  1.3308e+006 -1.5074e+007 -3.0426e+006 126461 221096,221200,221122
 4.4000e+001 221375  2.1996e+001 -1.1898e+005 -6.5607e+001 126213 221297,221349,221323
 4.4000e+001 221478  6.4358e+002 -3.0711e+004  1.6614e+001 125766 221400,221452,221426
 4.4000e+001 221679 -1.2498e+005 -2.5834e+006  2.4428e+005 125212 221503,221555,221529
 4.4000e+001 221656 -1.8615e+005 -3.4141e+006 -1.4918e+004 125212 221503,221581,221555
 4.4000e+001 221633  4.5604e+005 -7.2553e+006  1.7968e+006 125212 221503,221607,221581
 4.4000e+001 221929 -1.8719e+003 -1.7324e+002 -4.9880e+002 124872 221782,221834,221808
 4.4000e+001 221906 -5.1471e+003 -6.0750e+002  3.2057e+003 124872 221756,221834,221782
 4.4000e+001 221883 -1.3316e+004  6.3425e+001 -7.3697e+003 124872 221704,221834,221756
 4.4000e+001 221860 -2.6759e+004 -3.4315e+003  1.4340e+004 124872 221704,221756,221730
 4.4000e+001 222130 -6.0070e+005 -1.0843e+007 -9.5915e+005 124582 221980,222058,222006
 4.4000e+001 222107 -2.5436e+006 -1.0670e+007 -6.5639e+005 124582 221954,222058,221980
 4.4000e+001 222084 -1.8971e+006 -1.1754e+007 -1.6568e+006 124582 222006,222058,222032
 4.4000e+001 222282 -2.5613e+006 -1.2058e+007 -3.3193e+006 124192 222181,222233,222207
 4.4000e+001 222259 -1.0119e+006 -1.0786e+007 -2.1187e+006 124192 222155,222233,222181
 4.4000e+001 222483 -1.8731e+005 -4.4154e+006 -1.6369e+006 123702 222333,222385,222359
 4.4000e+001 222460 -3.1314e+005 -3.1646e+006  2.9663e+004 123702 222333,222411,222385
 4.4000e+001 222437 -2.9193e+005 -1.2514e+006 -3.5275e+005 123702 222307,222411,222333
 4.4000e+001 222635 -7.2891e+005 -1.2471e+006 -6.4218e+005 123312 222508,222560,222534
 4.4000e+001 222612  4.4742e+005 -6.0383e+006 -3.8327e+005 123312 222508,222586,222560
 4.4000e+001 222787 -4.3156e+004 -2.1650e+006 -8.3487e+004 122858 222686,222738,222712
 4.4000e+001 222764 -1.7488e+005 -2.3289e+006 -4.2403e+005 122858 222660,222738,222686
 4.4000e+001 222939 -2.6916e+005 -1.8322e+006 -3.1858e+004 122568 222812,222864,222838
 4.4000e+001 222916 -2.6714e+005 -1.3065e+006  3.7910e+005 122568 222812,222890,222864
 4.4000e+001 223091 -1.9223e+005 -3.2829e+006 -6.9390e+005 122392 222964,223016,222990
 4.4000e+001 223068  3.3548e+005 -3.7436e+006 -1.9447e+005 122392 222964,223042,223016
 4.4000e+001 223292 -1.8345e+005 -7.2334e+006 -5.8761e+005 121852 223142,223220,223194
 4.4000e+001 223269 -1.0109e+006 -7.4910e+006 -8.0491e+005 121852 223116,223220,223142
 4.4000e+001 223246 -1.4560e+005 -7.0703e+006 -1.0155e+006 121852 223142,223194,223168
 4.4000e+001 223493 -9.9481e+005 -7.3376e+006  3.6550e+004 121406 223343,223395,223369
 4.4000e+001 223470 -2.7754e+006 -6.0224e+006 -1.2855e+006 121406 223343,223421,223395
 4.4000e+001 223447 -9.2543e+005 -4.0404e+006  1.3308e+006 121406 223317,223421,223343
 4.4000e+001 223645  3.5646e+005 -1.1141e+007  1.0820e+006 121002 223544,223596,223570
 4.4000e+001 223622 -1.1885e+006 -6.3826e+006  1.3283e+006 121002 223518,223596,223544
 4.4000e+001 223846 -2.7691e+005 -8.3749e+006  7.2021e+004 120662 223670,223748,223696
 4.4000e+001 223823  5.5463e+005 -4.9375e+006 -6.7208e+002 120662 223670,223774,223748
 4.4000e+001 223800 -1.2565e+006 -3.4908e+006 -1.5174e+006 120662 223696,223748,223722
 4.4000e+001 224047 -5.2637e+005 -4.5669e+006  1.3246e+006 120222 223897,223949,223923
 4.4000e+001 224024  7.4659e+005 -6.4014e+006 -6.9066e+005 120222 223871,223949,223897
 4.4000e+001 224001 -9.3067e+005 -4.0770e+006 -1.2162e+006 120222 223871,223975,223949
 4.4000e+001 224248  3.8775e+005 -3.8756e+006 -1.3551e+006 119875 224124,224176,224150
 4.4000e+001 224225 -1.1515e+006 -8.0298e+006 -2.4888e+006 119875 224098,224176,224124
 4.4000e+001 224202 -4.7230e+005 -1.5742e+006  1.3877e+005 119875 224072,224176,224098
 4.4000e+001 224449 -1.7150e+005 -5.2335e+006 -4.3516e+005 119677 224325,224377,224351
 4.4000e+001 224426 -5.0225e+005 -6.5589e+006 -3.0418e+005 119677 224299,224377,224325
 4.4000e+001 224403 -5.3789e+004 -1.6781e+006 -5.1756e+004 119677 224273,224377,224299
 4.4000e+001 224552 -4.9177e+005 -1.6586e+006 -3.7217e+005 119273 224474,224526,224500
 4.4000e+001 224704 -3.9106e+005 -7.8057e+006 -5.1151e+005 118983 224603,224655,224629
 4.4000e+001 224681 -1.2983e+004 -9.7106e+006 -1.6151e+006 118983 224577,224655,224603
 4.4000e+001 224856 -7.0856e+005 -6.2031e+006 -5.8588e+005 118529 224755,224807,224781
 4.4000e+001 224833  1.4715e+005 -1.1239e+007 -1.6975e+006 118529 224729,224807,224755
 4.4000e+001 225008 -9.3213e+005 -9.3561e+006  1.1424e+005 118353 224881,224933,224907
 4.4000e+001 224985 -4.0627e+005 -7.3424e+005 -8.7753e+004 118353 224881,224959,224933
 4.4000e+001 225209 -8.4619e+005 -6.0588e+006 -9.5363e+005 117949 225059,225137,225111
 4.4000e+001 225186 -3.1380e+005 -6.1847e+006 -1.4501e+006 117949 225033,225137,225059
 4.4000e+001 225163  1.2707e+005 -8.2810e+006 -4.0496e+004 117949 225059,225111,225085
 4.4000e+001 225410 -4.8099e+004 -7.3196e+006  8.5578e+005 117559 225260,225338,225312
 4.4000e+001 225387 -1.0106e+006 -7.7138e+006  3.4080e+005 117559 225234,225338,225260
 4.4000e+001 225364 -6.0202e+005 -5.0869e+006 -1.7496e+006 117559 225260,225312,225286
 4.4000e+001 225611 -1.9488e+006 -1.0754e+007 -4.6779e+006 117361 225461,225513,225487
 4.4000e+001 225588  6.0997e+004 -1.1283e+007  1.3047e+006 117361 225461,225539,225513
 4.4000e+001 225565 -1.8704e+006 -8.0578e+006  3.3533e+006 117361 225435,225539,225461
 4.4000e+001 225812  5.5429e+005 -7.2575e+006 -6.6856e+005 116900 225636,225714,225662
 4.4000e+001 225789  4.6597e+005 -5.7654e+006 -9.7261e+005 116900 225636,225740,225714
 4.4000e+001 225766 -2.0929e+004 -7.4361e+006 -3.9504e+005 116900 225662,225714,225688
 4.4000e+001 225964 -2.2680e+002 -4.7067e+006 -2.3895e+005 116560 225837,225889,225863
 4.4000e+001 225941  1.8784e+005 -4.8781e+006 -2.6448e+005 116560 225837,225915,225889
 4.4000e+001 226165  2.8290e+005 -5.9455e+006 -4.2249e+005 116106 226015,226093,226041
 4.4000e+001 226142 -1.0341e+006 -6.8291e+006 -3.9628e+006 116106 225989,226093,226015
 4.4000e+001 226119 -3.6478e+006 -1.9608e+006  1.4112e+006 116106 226041,226093,226067
 4.4000e+001 226268 -1.9034e+006 -7.1280e+006  2.7385e+005 115716 226190,226242,226216
 4.4000e+001 226420 -4.8209e+005 -8.9517e+006  2.0028e+006 115376 226293,226345,226319
 4.4000e+001 226397 -7.4322e+005 -9.0788e+006  2.1340e+006 115376 226293,226371,226345
 4.4000e+001 226621 -4.1449e+005 -1.5548e+006  1.9779e+005 114972 226497,226549,226523
 4.4000e+001 226598 -5.6417e+005 -8.7237e+006 -7.2528e+005 114972 226445,226549,226497
 4.4000e+001 226575 -4.8072e+004 -3.9743e+006  6.4805e+005 114972 226445,226497,226471
 4.4000e+001 226773 -7.4828e+005 -2.8144e+006 -1.0934e+006 114670 226646,226698,226672
 4.4000e+001 226750  4.5151e+005 -6.0624e+006  2.5193e+005 114670 226646,226724,226698
 4.4000e+001 226974  3.1949e+004 -1.6292e+006 -3.3530e+005 114082 226798,226850,226824
 4.4000e+001 226951  1.0430e+005 -2.3153e+006 -9.2849e+004 114082 226798,226902,226850
 4.4000e+001 226928  5.2375e+004 -3.1504e+006 -3.4371e+005 114082 226850,226902,226876
 4.4000e+001 227175 -6.7265e+005 -4.7168e+006 -1.7737e+006 113678 226999,227051,227025
 4.4000e+001 227152 -1.8942e+006 -7.7867e+006 -3.1977e+006 113678 226999,227077,227051
 4.4000e+001 227129  2.3293e+005 -1.2529e+007 -4.8899e+006 113678 226999,227103,227077
 4.4000e+001 227425 -1.0912e+006 -8.9255e+006 -5.6703e+006 113274 227226,227278,227252
 4.4000e+001 227402  1.0306e+005 -8.4122e+006 -2.0814e+006 113274 227226,227330,227278
 4.4000e+001 227379 -2.6964e+006 -8.0894e+006 -3.0370e+006 113274 227200,227330,227226
 4.4000e+001 227356 -1.6219e+006 -2.2717e+006 -1.9258e+006 113274 227278,227330,227304
 4.4000e+001 227626  2.8605e+005 -5.3284e+006 -1.6053e+006 112934 227502,227554,227528
 4.4000e+001 227603  8.4251e+004 -3.6058e+006  1.2641e+005 112934 227450,227554,227502
 4.4000e+001 227580 -1.8867e+006 -1.9278e+006 -4.2144e+005 112934 227450,227502,227476
 4.4000e+001 227876 -1.8954e+005 -1.4383e+006 -8.5971e+004 112437 227677,227755,227703
 4.4000e+001 227853 -9.5015e+005 -1.7426e+006  7.7863e+005 112437 227677,227781,227755
 4.4000e+001 227830 -2.4865e+005 -8.2727e+005  2.7640e+005 112437 227703,227755,227729
 4.4000e+001 227807 -3.1460e+005 -4.5112e+006 -1.6659e+005 112437 227651,227781,227677
 4.4000e+001 228126 -4.7903e+005 -5.3376e+006  3.9951e+003 112041 227927,228005,227953
 4.4000e+001 228103 -6.2758e+005 -5.7805e+006 -2.7143e+005 112041 227927,228031,228005
 4.4000e+001 228080 -3.5025e+005 -5.8039e+006  7.9566e+004 112041 227953,228005,227979
 4.4000e+001 228057 -1.6834e+006 -3.9691e+006 -9.5245e+005 112041 227901,228031,227927
 4.4000e+001 228327 -1.3890e+006 -4.2477e+006 -9.7804e+005 111693 228151,228203,228177
 4.4000e+001 228304 -9.4202e+005 -2.5063e+006 -1.3769e+006 111693 228151,228229,228203
 4.4000e+001 228281  1.8989e+005 -4.5951e+006  1.5133e+005 111693 228151,228255,228229
 4.4000e+001 228479 -3.2871e+006 -5.2918e+006 -4.1879e+006 111253 228352,228404,228378
 4.4000e+001 228456 -2.3176e+006 -2.8739e+006 -6.2169e+005 111253 228352,228430,228404
 4.4000e+001 228582 -2.0619e+006 -4.1059e+006 -2.0795e+005 110906 228504,228556,228530
 4.4000e+001 228783  4.9864e+004 -7.4035e+005 -4.2322e+003 110416 228633,228711,228659
 4.4000e+001 228760  6.3303e+004 -8.3917e+005  6.4532e+004 110416 228607,228711,228633
 4.4000e+001 228737 -6.5649e+003 -1.4167e+006  4.4098e+003 110416 228659,228711,228685
 4.4000e+001 228935 -4.5226e+004 -4.1759e+006 -3.8197e+005 110012 228808,228860,228834
 4.4000e+001 228912 -8.1930e+005 -8.0278e+006 -1.1473e+006 110012 228808,228886,228860
 4.4000e+001 229087 -1.6434e+006 -3.5585e+006 -1.3728e+006 109672 228960,229012,228986
 4.4000e+001 229064 -9.2481e+005 -7.3668e+006 -8.6131e+004 109672 228960,229038,229012
 4.4000e+001 229190  3.1406e+004 -7.4664e+005 -2.4764e+004 109332 229112,229164,229138
 4.4000e+001 229391  1.6377e+003 -3.7084e+005 -1.1001e+005 109156 229267,229319,229293
 4.4000e+001 229368 -1.2436e+005 -8.7598e+005 -1.7796e+005 109156 229215,229319,229267
 4.4000e+001 229345 -1.4532e+003 -2.1604e+005 -4.9117e+004 109156 229215,229267,229241
 4.4000e+001 229543  3.0170e+004 -9.3033e+006  9.7524e+005 108752 229416,229468,229442
 4.4000e+001 229520 -2.4988e+005 -8.9959e+006  9.1687e+005 108752 229416,229494,229468
 4.4000e+001 229744 -3.8398e+005 -7.1569e+006 -4.0204e+005 108198 229594,229646,229620
 4.4000e+001 229721 -3.4886e+005 -7.2859e+006  1.2276e+006 108198 229594,229672,229646
 4.4000e+001 229698 -3.5502e+005 -8.6999e+006  4.0226e+005 108198 229568,229672,229594
 4.4000e+001 229847 -2.1858e+004 -6.6882e+005 -1.5395e+005 107758 229769,229821,229795
 4.4000e+001 230048 -9.0386e+005 -2.6167e+006 -6.4245e+005 107468 229898,229950,229924
 4.4000e+001 230025 -5.2507e+005 -2.3820e+006 -3.2964e+005 107468 229872,229950,229898
 4.4000e+001 230002 -9.2653e+005 -2.7227e+006 -5.0785e+004 107468 229872,229976,229950
 4.4000e+001 230298  8.6691e+004 -1.1336e+006  3.2823e+005 107121 230099,230203,230177
 4.4000e+001 230275 -2.7320e+004 -7.5133e+005  2.7894e+005 107121 230073,230203,230099
 4.4000e+001 230252  2.1602e+005 -1.5259e+006 -8.2247e+005 107121 230099,230177,230151
 4.4000e+001 230229 -3.1129e+005 -1.6748e+006 -7.2211e+005 107121 230099,230151,230125
 4.4000e+001 230450  9.5841e+004 -1.1128e+006 -1.1857e+005 106823 230349,230401,230375
 4.4000e+001 230427 -7.1002e+004 -2.5667e+005  6.7916e+004 106823 230323,230401,230349
 4.4000e+001 230602 -9.0304e+005 -1.2054e+007 -4.9458e+006 106533 230501,230553,230527
 4.4000e+001 230579 -1.0976e+006 -1.0983e+007  8.8786e+005 106533 230475,230553,230501
 4.4000e+001 230803 -7.6750e+004 -5.9156e+005 -1.1771e+005 106029 230679,230731,230705
 4.4000e+001 230780 -6.6247e+004 -5.8303e+005  2.4070e+004 106029 230653,230731,230679
 4.4000e+001 230757  9.2763e+004 -1.4954e+006 -6.3300e+004 106029 230627,230731,230653
 4.4000e+001 231004 -1.7529e+005 -1.9259e+006  6.6619e+004 105689 230854,230906,230880
 4.4000e+001 230981  3.9377e+004 -2.6979e+006 -7.7295e+005 105689 230828,230906,230854
 4.4000e+001 230958 -5.4273e+005 -2.3119e+006 -1.0886e+006 105689 230828,230932,230906
 4.4000e+001 231156 -9.8140e+005 -4.7167e+006  1.0589e+006 105377 231055,231107,231081
 4.4000e+001 231133  6.3649e+005 -1.0579e+007 -5.0424e+005 105377 231029,231107,231055
 4.4000e+001 231406 -8.3893e+005 -8.4183e+006 -1.6662e+005 104858 231207,231259,231233
 4.4000e+001 231383 -2.4513e+006 -8.1849e+006 -9.2365e+005 104858 231207,231311,231259
 4.4000e+001 231360 -1.1490e+006 -1.2504e+007 -2.2026e+006 104858 231259,231311,231285
 4.4000e+001 231337 -4.2003e+005 -1.1782e+007 -1.5509e+006 104858 231181,231311,231207
 4.4000e+001 231558 -1.7776e+006 -1.1260e+007  6.1881e+006 104418 231457,231509,231483
 4.4000e+001 231535 -7.2871e+005 -1.1788e+007 -5.6841e+006 104418 231431,231509,231457
 4.4000e+001 231710 -1.2733e+006 -1.0270e+006 -3.9067e+005 103978 231583,231635,231609
 4.4000e+001 231687 -1.0418e+006 -8.6532e+005 -5.3806e+005 103978 231583,231661,231635
 4.4000e+001 231862  9.5480e+002 -6.4779e+005 -7.4727e+004 103588 231761,231813,231787
 4.4000e+001 231839  5.2985e+003 -6.5080e+005 -5.7944e+004 103588 231735,231813,231761
 4.4000e+001 232014 -1.9563e+006 -7.8539e+006 -2.1265e+006 103248 231887,231939,231913
 4.4000e+001 231991 -7.4130e+005 -1.7564e+007 -5.3682e+006 103248 231887,231965,231939
 4.4000e+001 232215 -1.6361e+005 -3.0538e+006  2.4638e+005 102844 232039,232117,232065
 4.4000e+001 232192  1.0534e+005 -2.3536e+006  1.1554e+004 102844 232039,232143,232117
 4.4000e+001 232169 -3.6046e+005 -1.9818e+006 -4.9223e+005 102844 232065,232117,232091
 4.4000e+001 232416 -3.8403e+006 -1.0147e+007 -2.9789e+006 102554 232240,232318,232292
 4.4000e+001 232393  8.7400e+005 -1.5530e+007  3.0572e+005 102554 232240,232344,232318
 4.4000e+001 232370 -4.1598e+006 -3.9348e+006 -1.0606e+006 102554 232240,232292,232266
 4.4000e+001 232568  1.4345e+003 -2.4569e+006 -3.0620e+004 102100 232441,232493,232467
 4.4000e+001 232545 -4.2775e+005 -2.4490e+006 -2.6732e+005 102100 232441,232519,232493
 4.4000e+001 232769 -8.8424e+004 -1.0242e+006 -1.2935e+005 101596 232645,232697,232671
 4.4000e+001 232746 -5.5221e+004 -8.8621e+005 -1.7426e+005 101596 232593,232697,232645
 4.4000e+001 232723  1.1698e+005 -2.2594e+006 -1.8676e+005 101596 232593,232645,232619
 4.4000e+001 232921 -3.8727e+002 -4.9736e+002  7.1980e+001 101420 232794,232846,232820
 4.4000e+001 232898 -7.6503e+002 -1.3764e+002  5.8919e+002 101420 232794,232872,232846
 4.4000e+001 233073 -9.6775e+005 -1.2586e+006 -6.7042e+005 101023 232946,232998,232972
 4.4000e+001 233050  5.5354e+005 -3.4536e+006  1.0142e+006 101023 232946,233024,232998
 4.4000e+001 233225 -2.5777e+004 -3.0180e+006 -7.8597e+003 100661 233098,233150,233124
 4.4000e+001 233202  4.5175e+004 -3.4848e+006  3.2740e+004 100661 233098,233176,233150
 4.4000e+001 233426 -1.8034e+006 -7.5294e+006 -2.4288e+006 100265 233276,233328,233302
 4.4000e+001 233403 -1.2985e+006 -6.4226e+006  1.4812e+005 100265 233276,233354,233328
 4.4000e+001 233380 -1.7064e+006 -1.0769e+007 -8.9591e+005 100265 233250,233354,233276
 4.4000e+001 233578 -1.8872e+004 -8.8041e+004 -9.5934e+003 100032 233451,233503,233477
 4.4000e+001 233555 -9.9041e+004 -1.0785e+005 -2.4449e+004 100032 233451,233529,233503
 4.4000e+001 233681 -5.3091e+005 -1.0993e+004  4.6131e+004 99742 233603,233655,233629
 4.4000e+001 233784 -2.3877e+005 -2.8281e+006 -2.1435e+005 99402 233706,233758,233732
 4.4000e+001 233936 -7.1181e+005 -1.7711e+006  7.0841e+003 99062 233835,233887,233861
 4.4000e+001 233913 -5.8796e+005 -1.3288e+006  2.2819e+005 99062 233809,233887,233835
 4.4000e+001 234088 -4.6506e+005 -4.8471e+006  1.3326e+006 98772 233987,234039,234013
 4.4000e+001 234065 -3.2997e+005 -4.8315e+006  1.2142e+006 98772 233961,234039,233987
 4.4000e+001 234240 -1.7423e+004 -7.0546e+004  2.4939e+004 98160 234139,234191,234165
 4.4000e+001 234217 -2.4239e+004 -7.6792e+004 -1.1757e+004 98160 234113,234191,234139
 4.4000e+001 234441  1.9339e+001 -1.6190e+002 -4.9165e+001 97820 234317,234369,234343
 4.4000e+001 234418 -4.0365e+001 -4.1331e+002 -2.8325e+002 97820 234291,234369,234317
 4.4000e+001 234395 -5.2697e+002 -9.2914e+002 -5.9036e+002 97820 234265,234369,234291
 4.4000e+001 234593 -6.2881e+005 -1.0709e+006 -3.5557e+005 97366 234466,234518,234492
 4.4000e+001 234570  2.9456e+005 -3.6303e+006 -6.2723e+005 97366 234466,234544,234518
 4.4000e+001 234794 -8.7765e+005 -1.3504e+006 -9.4805e+005 96976 234618,234670,234644
 4.4000e+001 234771 -4.9954e+004 -2.8183e+006 -8.1283e+005 96976 234618,234722,234670
 4.4000e+001 234748 -2.5903e+005 -2.5854e+006 -1.2237e+006 96976 234670,234722,234696
 4.4000e+001 234946 -7.5386e+005 -2.6654e+006  1.2248e+006 96568 234845,234897,234871
 4.4000e+001 234923 -4.9226e+005 -1.3563e+006  1.0457e+006 96568 234819,234897,234845
 4.4000e+001 235196 -1.5388e+005 -1.1949e+006  2.6847e+004 96216 234997,235075,235049
 4.4000e+001 235173 -2.2463e+005 -4.4841e+006  1.3922e+006 96216 234997,235101,235075
 4.4000e+001 235150 -7.6199e+005 -2.6484e+006  6.1695e+005 96216 234997,235049,235023
 4.4000e+001 235127 -8.7173e+004 -5.3487e+006 -6.0913e+005 96216 234971,235101,234997
 4.4000e+001 235348 -1.1898e+006 -2.8679e+006 -3.8057e+005 95863 235247,235299,235273
 4.4000e+001 235325 -1.1410e+006 -1.3933e+006 -7.4989e+005 95863 235221,235299,235247
 4.4000e+001 235500 -1.1646e+006 -3.0175e+006 -1.9197e+006 95339 235373,235425,235399
 4.4000e+001 235477 -5.4734e+005 -5.8559e+006  3.3966e+006 95339 235373,235451,235425
 4.4000e+001 235701  6.4640e+004 -4.1910e+006  1.0709e+006 95023 235525,235577,235551
 4.4000e+001 235678 -8.5013e+004 -3.2414e+006  3.1369e+005 95023 235525,235629,235577
 4.4000e+001 235655  7.5511e+001 -4.6622e+006  5.7255e+005 95023 235577,235629,235603
 4.4000e+001 235853  9.3901e+005 -1.0286e+007  1.1625e+006 94671 235726,235778,235752
 4.4000e+001 235830 -3.2148e+005 -7.8798e+006 -6.4335e+005 94671 235726,235804,235778
 4.4000e+001 236005 -1.1172e+006 -7.7378e+006 -1.0781e+006 94261 235904,235956,235930
 4.4000e+001 235982 -1.0947e+006 -8.7810e+006 -2.0654e+006 94261 235878,235956,235904
 4.4000e+001 236206 -5.7998e+005 -4.2430e+005  9.2810e+005 93853 236056,236134,236082
 4.4000e+001 236183 -1.1768e+006 -5.9652e+005  4.3426e+005 93853 236030,236134,236056
 4.4000e+001 236160 -7.1191e+005 -8.8729e+005  7.6603e+005 93853 236082,236134,236108
 4.4000e+001 236407 -6.4656e+005 -6.4399e+006  2.6153e+005 93557 236257,236309,236283
 4.4000e+001 236384 -1.8088e+006 -7.1908e+006 -1.8784e+006 93557 236231,236309,236257
 4.4000e+001 236361 -6.4304e+005 -1.1965e+007 -2.7154e+005 93557 236231,236335,236309
 4.4000e+001 236559 -2.6988e+003 -6.7165e+004  2.1779e+004 93149 236432,236484,236458
 4.4000e+001 236536  1.9996e+004 -2.4598e+004  4.4814e+004 93149 236432,236510,236484
 4.4000e+001 236711 -6.9187e+004 -1.3159e+005  5.7774e+004 92853 236584,236636,236610
 4.4000e+001 236688 -5.6430e+004 -1.8726e+005  6.4905e+004 92853 236584,236662,236636
 4.4000e+001 236912 -2.4224e+005 -3.6636e+006  1.4353e+006 92501 236736,236788,236762
 4.4000e+001 236889 -4.5946e+005 -1.9853e+006  4.8540e+005 92501 236736,236840,236788
 4.4000e+001 236866 -6.9738e+005 -2.8850e+006  5.7044e+005 92501 236788,236840,236814
 4.4000e+001 237113 -1.7694e+005 -4.6368e+006  4.3892e+005 92291 236963,237041,237015
 4.4000e+001 237090 -4.8831e+004 -2.8977e+006  2.0982e+005 92291 236937,237041,236963
 4.4000e+001 237067 -2.2924e+005 -4.3234e+006  9.9458e+005 92291 236963,237015,236989
 4.4000e+001 237265  1.7456e+005 -1.1955e+006 -5.0126e+005 91871 237138,237190,237164
 4.4000e+001 237242 -7.3462e+005 -3.2523e+006 -1.2087e+006 91871 237138,237216,237190
 4.4000e+001 237368 -7.9736e+002 -1.4244e+006  5.6049e+002 91581 237290,237342,237316
 4.4000e+001 237520 -2.0068e+004 -1.1586e+005  2.0462e+004 91184 237419,237471,237445
 4.4000e+001 237497 -5.1613e+004 -2.8629e+005 -1.2858e+005 91184 237393,237471,237419
 4.4000e+001 237672 -1.1738e+005 -1.9350e+006 -3.5240e+004 90894 237545,237597,237571
 4.4000e+001 237649 -7.8266e+004 -4.7734e+006  1.2746e+006 90894 237545,237623,237597
 4.4000e+001 237873 -1.2911e+006 -5.0047e+006  9.6313e+005 90490 237749,237801,237775
 4.4000e+001 237850 -7.1724e+005 -4.4256e+006  1.4448e+006 90490 237723,237801,237749
 4.4000e+001 237827 -9.2347e+005 -4.4870e+006 -5.5702e+005 90490 237697,237801,237723
 4.4000e+001 238074 -7.9077e+005 -6.2656e+006  4.2833e+005 90100 237898,237976,237950
 4.4000e+001 238051 -1.6191e+006 -6.4013e+006  3.9622e+005 90100 237898,238002,237976
 4.4000e+001 238028 -5.8581e+005 -5.9594e+006  2.7306e+005 90100 237898,237950,237924
 4.4000e+001 238275 -2.8991e+005 -2.9756e+006  1.0226e+006 89696 238125,238177,238151
 4.4000e+001 238252 -3.7638e+005 -1.9948e+006 -9.5775e+005 89696 238099,238177,238125
 4.4000e+001 238229 -5.7805e+005 -2.6801e+006 -7.8193e+005 89696 238099,238203,238177
 4.4000e+001 238427  1.6068e+004 -1.7365e+005 -6.3526e+004 89206 238326,238378,238352
 4.4000e+001 238404 -4.4146e+004 -3.0063e+005 -1.0891e+005 89206 238300,238378,238326
 4.4000e+001 238579 -1.1921e+006 -4.6478e+006  2.0695e+006 88908 238452,238504,238478
 4.4000e+001 238556 -2.6198e+005 -3.5553e+006  8.7989e+004 88908 238452,238530,238504
 4.4000e+001 238682 -9.6147e+001 -4.7019e+005 -2.4505e+002 88568 238604,238656,238630
 4.4000e+001 238883  1.7925e+005 -6.5088e+006  1.8297e+006 88278 238733,238811,238785
 4.4000e+001 238860 -7.7251e+005 -3.8085e+006  1.6153e+006 88278 238707,238811,238733
 4.4000e+001 238837 -2.4163e+005 -6.8570e+006  1.2865e+006 88278 238733,238785,238759
 4.4000e+001 239035 -1.4338e+006 -4.2676e+006 -4.1942e+005 87988 238908,238960,238934
 4.4000e+001 239012 -1.5180e+006 -2.0846e+006  1.8359e+005 87988 238908,238986,238960
 4.4000e+001 239138 -6.1984e+004 -8.9784e+005  5.9276e+004 87648 239060,239112,239086
 4.4000e+001 239339 -1.1079e+006 -3.2859e+006 -1.9572e+006 87358 239163,239215,239189
 4.4000e+001 239316 -1.1112e+006 -2.1804e+006 -5.0903e+005 87358 239163,239241,239215
 4.4000e+001 239293 -8.2796e+005 -1.1414e+006 -9.7125e+005 87358 239163,239267,239241
 4.4000e+001 239589 -1.8571e+002 -3.3456e+002 -3.1420e+002 86961 239390,239468,239416
 4.4000e+001 239566  8.5048e+000 -1.8227e+002 -1.2435e+002 86961 239390,239494,239468
 4.4000e+001 239543  6.1191e+001 -1.2134e+002 -1.1531e+002 86961 239416,239468,239442
 4.4000e+001 239520 -1.0133e+003 -4.9656e+002 -5.2934e+002 86961 239364,239494,239390
 4.4000e+001 239741 -1.1306e+006 -3.7988e+006 -4.5336e+005 86621 239640,239692,239666
 4.4000e+001 239718 -2.1251e+005 -4.8254e+006 -1.1494e+006 86621 239614,239692,239640
 4.4000e+001 239893 -5.5287e+005 -5.9329e+006  1.6265e+006 86217 239792,239844,239818
 4.4000e+001 239870 -6.6407e+005 -4.8778e+006  1.1144e+006 86217 239766,239844,239792
 4.4000e+001 240045 -9.0566e+005 -4.3921e+006  8.3769e+005 85827 239918,239970,239944
 4.4000e+001 240022 -2.1560e+005 -4.2008e+006  2.8660e+005 85827 239918,239996,239970
 4.4000e+001 240197 -8.1872e+005 -8.4277e+006  1.0045e+006 85437 240096,240148,240122
 4.4000e+001 240174 -1.7637e+006 -2.2601e+006 -5.4694e+005 85437 240070,240148,240096
 4.4000e+001 240349 -1.4543e+005 -1.7462e+006  7.1027e+005 85147 240222,240274,240248
 4.4000e+001 240326 -1.1676e+005 -8.7443e+005 -1.1232e+005 85147 240222,240300,240274
 4.4000e+001 240501 -3.1925e+005 -1.4073e+006  6.0322e+005 84807 240374,240426,240400
 4.4000e+001 240478 -1.8083e+006 -2.1987e+006  1.2453e+006 84807 240374,240452,240426
 4.4000e+001 240653  8.8439e+001 -1.0978e+001  8.7534e+001 84303 240552,240604,240578
 4.4000e+001 240630  1.9006e+001 -1.0920e+002 -6.9020e+000 84303 240526,240604,240552
 4.4000e+001 240854 -2.1329e+005 -1.2522e+007 -5.6021e+006 83929 240704,240756,240730
 4.4000e+001 240831  1.7501e+006 -1.0218e+007  2.4861e+006 83929 240704,240782,240756
 4.4000e+001 240808 -3.5218e+006  1.8030e+006  2.9219e+006 83929 240678,240782,240704
 4.4000e+001 241055 -7.2667e+002 -2.0879e+004 -5.4269e+003 83539 240879,240957,240931
 4.4000e+001 241032 -6.0732e+003 -2.0077e+004 -8.4002e+003 83539 240879,240983,240957
 4.4000e+001 241009 -7.5530e+003 -4.2968e+003 -5.5626e+003 83539 240879,240931,240905
 4.4000e+001 241207  1.2400e+005 -2.1311e+006  2.0765e+005 83079 241106,241158,241132
 4.4000e+001 241184 -2.0920e+005 -6.8984e+005  2.7643e+005 83079 241080,241158,241106
 4.4000e+001 241408  1.1727e+006 -4.2210e+006  3.4805e+005 82665 241232,241284,241258
 4.4000e+001 241385 -1.6769e+006 -1.3370e+007 -3.8964e+006 82665 241232,241336,241284
 4.4000e+001 241362 -4.1266e+006  4.6608e+006  6.8918e+006 82665 241284,241336,241310
 4.4000e+001 241658 -1.8851e+005 -4.3321e+006  5.0953e+005 82375 241485,241563,241511
 4.4000e+001 241635  6.3283e+004 -2.6991e+006  2.7788e+005 82375 241433,241563,241485
 4.4000e+001 241612 -6.1061e+004 -3.1607e+006  3.2911e+005 82375 241433,241485,241459
 4.4000e+001 241589 -6.0635e+005 -4.9147e+006  8.0341e+005 82375 241511,241563,241537
 4.4000e+001 241810 -8.8989e+005 -3.3444e+006 -3.0825e+005 82035 241683,241735,241709
 4.4000e+001 241787 -1.3380e+006 -4.1910e+006  7.5271e+005 82035 241683,241761,241735
 4.4000e+001 241962 -7.6688e+005 -3.3692e+006  3.9715e+005 81695 241861,241913,241887
 4.4000e+001 241939 -3.2237e+005 -3.9130e+006 -6.5463e+005 81695 241835,241913,241861
 4.4000e+001 242114 -1.0906e+006 -6.6976e+006  2.4135e+006 81355 242013,242065,242039
 4.4000e+001 242091 -3.0783e+005 -4.2698e+006  1.2826e+006 81355 241987,242065,242013
 4.4000e+001 242266 -9.6443e+004 -3.8158e+005 -7.4780e+004 80951 242139,242191,242165
 4.4000e+001 242243 -2.1308e+005 -8.6450e+005 -2.7109e+004 80951 242139,242217,242191
 4.4000e+001 242467 -4.5289e+005 -5.1294e+006  5.7707e+005 80311 242291,242369,242343
 4.4000e+001 242444 -7.2215e+003 -3.1729e+006  4.9948e+005 80311 242291,242395,242369
 4.4000e+001 242421 -5.0297e+005 -2.5587e+006  5.5168e+004 80311 242291,242343,242317
 4.4000e+001 242619 -1.6266e+006 -3.8887e+006  6.2382e+005 80021 242492,242544,242518
 4.4000e+001 242596 -1.5003e+006 -3.4949e+006  1.7772e+006 80021 242492,242570,242544
 4.4000e+001 242869 -1.9169e+005 -1.2943e+006  2.4407e+005 79631 242644,242722,242696
 4.4000e+001 242846 -3.3182e+004 -1.3744e+006  2.1479e+005 79631 242644,242774,242722
 4.4000e+001 242823 -1.7021e+005 -1.8803e+006  2.7721e+005 79631 242722,242774,242748
 4.4000e+001 242800 -2.3167e+005 -1.5497e+006  3.2849e+005 79631 242644,242696,242670
 4.4000e+001 243070  2.7383e+004 -1.6906e+007  3.5209e+006 79341 242920,242972,242946
 4.4000e+001 243047 -7.1649e+005 -9.6586e+006 -1.1412e+005 79341 242920,242998,242972
 4.4000e+001 243024 -1.1805e+006 -6.4710e+006  2.7641e+006 79341 242894,242998,242920
 4.4000e+001 243222 -3.2837e+005 -3.9631e+006  1.5575e+006 78801 243121,243173,243147
 4.4000e+001 243199 -7.0604e+005 -5.3333e+006  1.7890e+006 78801 243095,243173,243121
 4.4000e+001 243423 -9.2905e+005 -4.9103e+006 -5.2045e+005 78511 243273,243325,243299
 4.4000e+001 243400  6.9458e+005 -9.7551e+006  2.0048e+006 78511 243273,243351,243325
 4.4000e+001 243377 -5.9285e+003 -1.0039e+007  2.5045e+005 78511 243247,243351,243273
 4.4000e+001 243624 -3.8190e+005 -4.1965e+006 -1.1278e+006 78107 243474,243552,243526
 4.4000e+001 243601 -3.4561e+005 -4.0438e+006 -1.1145e+006 78107 243448,243552,243474
 4.4000e+001 243578 -6.5885e+005 -5.1813e+006 -2.0469e+006 78107 243474,243526,243500
 4.4000e+001 243776 -6.6364e+005 -4.5372e+006 -8.7836e+005 77653 243649,243701,243675
 4.4000e+001 243753 -1.5905e+006 -7.7134e+006 -3.6701e+005 77653 243649,243727,243701
 4.4000e+001 243977 -4.4429e+005 -6.0269e+006  1.4716e+004 77093 243801,243853,243827
 4.4000e+001 243954 -8.2126e+004 -4.9226e+006  6.8496e+005 77093 243801,243879,243853
 4.4000e+001 243931  1.8729e+005 -3.2589e+006  6.8404e+004 77093 243801,243905,243879
 4.4000e+001 244080 -1.3117e+006 -4.9820e+006  4.9315e+005 76791 244002,244054,244028
 4.4000e+001 244232 -3.2158e+005 -4.7148e+006  4.5686e+004 76311 244131,244183,244157
 4.4000e+001 244209 -1.8057e+005 -9.7148e+006  6.5471e+005 76311 244105,244183,244131
 4.4000e+001 244433 -1.7941e+006 -1.9162e+007  4.0762e+006 75903 244283,244335,244309
 4.4000e+001 244410 -1.1548e+006 -1.3986e+007  2.6879e+005 75903 244283,244361,244335
 4.4000e+001 244387 -2.9663e+006 -1.1194e+007  2.3090e+006 75903 244257,244361,244283
 4.4000e+001 244585  1.0868e+005 -1.8526e+007  1.9583e+006 75419 244458,244510,244484
 4.4000e+001 244562 -7.9284e+005 -1.2262e+007  5.8651e+005 75419 244458,244536,244510
 4.4000e+001 244737 -4.3604e+005 -2.1720e+006 -1.7854e+005 75215 244636,244688,244662
 4.4000e+001 244714 -4.1431e+005 -3.4341e+006 -2.0143e+005 75215 244610,244688,244636
 4.4000e+001 244889 -1.0051e+006 -5.3873e+006 -4.6421e+005 74857 244788,244840,244814
 4.4000e+001 244866 -2.7579e+005 -2.5334e+006 -2.9822e+005 74857 244762,244840,244788
 4.4000e+001 245041  4.2224e+004 -3.6874e+005 -2.4108e+005 74653 244940,244992,244966
 4.4000e+001 245018 -4.5798e+004 -8.5982e+004  1.4060e+005 74653 244914,244992,244940
 4.4000e+001 245144 -6.2264e+005 -8.6284e+006 -1.6267e+006 74359 245066,245118,245092
 4.4000e+001 245296 -1.1266e+005 -1.7404e+006 -5.4391e+005 74007 245169,245221,245195
 4.4000e+001 245273 -6.2788e+005 -2.9967e+006 -9.3284e+005 74007 245169,245247,245221
 4.4000e+001 245448 -8.9979e+005 -8.6334e+006  1.8800e+006 73711 245321,245373,245347
 4.4000e+001 245425 -1.9175e+005 -8.3970e+006 -3.3240e+006 73711 245321,245399,245373
 4.4000e+001 245600  5.8268e+005 -1.4425e+007 -1.2130e+006 73301 245499,245551,245525
 4.4000e+001 245577 -1.8657e+006 -1.0574e+007  1.8508e+006 73301 245473,245551,245499
 4.4000e+001 245752 -2.1893e+006 -3.2086e+006 -1.9427e+006 72995 245625,245677,245651
 4.4000e+001 245729  7.5793e+005 -1.3035e+007 -1.6857e+006 72995 245625,245703,245677
 4.4000e+001 245953 -2.7913e+006 -1.3284e+007  1.6722e+006 72585 245777,245829,245803
 4.4000e+001 245930 -1.3279e+006 -1.7203e+007  4.2883e+006 72585 245777,245855,245829
 4.4000e+001 245907 -5.3617e+005 -1.1103e+007  2.1491e+006 72585 245777,245881,245855
 4.4000e+001 246154 -4.2935e+005 -7.0423e+006  1.2828e+006 72127 246030,246082,246056
 4.4000e+001 246131 -1.3666e+006 -9.9880e+006  6.5518e+005 72127 245978,246082,246030
 4.4000e+001 246108 -8.1296e+004 -9.9250e+006 -4.7830e+004 72127 245978,246030,246004
 4.4000e+001 246257 -8.8574e+005 -1.8529e+006 -5.3009e+005 71737 246179,246231,246205
 4.4000e+001 246360  1.1852e+005 -3.2269e+006  3.8329e+005 71447 246282,246334,246308
 4.4000e+001 246512 -3.2519e+005 -2.8732e+006  1.0666e+006 71157 246385,246437,246411
 4.4000e+001 246489 -9.3913e+003 -2.2502e+006  7.1874e+003 71157 246385,246463,246437
 4.4000e+001 246664 -1.4585e+005 -2.7833e+006 -3.6116e+005 70753 246537,246589,246563
 4.4000e+001 246641 -5.9229e+005 -1.5589e+006 -1.7508e+005 70753 246537,246615,246589
 4.4000e+001 246865 -2.3728e+006 -1.2216e+007  7.5686e+006 70249 246715,246767,246741
 4.4000e+001 246842 -2.6883e+006 -1.0992e+007 -2.3944e+005 70249 246715,246793,246767
 4.4000e+001 246819 -6.5041e+005 -1.4788e+007 -2.5358e+006 70249 246689,246793,246715
 4.4000e+001 247066  4.7012e+003 -2.3373e+006  2.7872e+005 70023 246916,246994,246942
 4.4000e+001 247043 -2.8826e+004 -2.3273e+006  2.7822e+005 70023 246890,246994,246916
 4.4000e+001 247020  3.9734e+004 -2.3050e+006  3.8414e+005 70023 246942,246994,246968
 4.4000e+001 247267 -4.6742e+005 -5.0503e+006 -7.1290e+005 69633 247091,247143,247117
 4.4000e+001 247244 -1.2251e+005 -3.6440e+006 -4.9719e+005 69633 247091,247169,247143
 4.4000e+001 247221 -9.0268e+004 -3.1707e+006 -4.4929e+005 69633 247091,247195,247169
 4.4000e+001 247419 -9.5751e+005 -5.5932e+006  4.2813e+005 69457 247318,247370,247344
 4.4000e+001 247396 -1.2614e+006 -2.7024e+006  6.4074e+005 69457 247292,247370,247318
 4.4000e+001 247522 -1.0093e+002 -2.9459e+002  2.5301e+002 69209 247444,247496,247470
 4.4000e+001 247625 -1.3352e+006 -1.4965e+006 -9.4616e+005 68919 247547,247599,247573
 4.4000e+001 247777  1.1256e+005 -6.3853e+006 -1.5856e+005 68579 247650,247702,247676
 4.4000e+001 247754 -1.9029e+005 -1.8430e+006 -6.3983e+004 68579 247650,247728,247702
 4.4000e+001 247929  1.3110e+005 -4.3495e+006  1.9492e+006 68289 247802,247854,247828
 4.4000e+001 247906 -2.2545e+005 -1.8107e+006 -3.2320e+005 68289 247802,247880,247854
 4.4000e+001 248081 -3.3002e+005 -4.7122e+006  1.2066e+006 67949 247980,248032,248006
 4.4000e+001 248058 -4.5346e+005 -1.0175e+006  6.6287e+004 67949 247954,248032,247980
 4.4000e+001 248233 -1.4727e+006 -6.2701e+006 -7.2990e+005 67616 248132,248184,248158
 4.4000e+001 248210 -5.5930e+005 -5.8205e+006 -2.9244e+005 67616 248106,248184,248132
 4.4000e+001 248434 -1.1571e+005 -4.0288e+006 -1.3129e+005 67212 248284,248336,248310
 4.4000e+001 248411 -8.1821e+004 -4.0610e+006 -2.6816e+005 67212 248258,248336,248284
 4.4000e+001 248388 -1.4614e+006 -2.1691e+006 -5.4340e+005 67212 248258,248362,248336
 4.4000e+001 248586 -5.8780e+004 -4.8959e+006  4.6455e+005 66872 248485,248537,248511
 4.4000e+001 248563 -7.1132e+005 -1.5054e+006 -1.9384e+005 66872 248459,248537,248485
 4.4000e+001 248738 -3.8094e+005 -5.7354e+006  1.6546e+005 66510 248637,248689,248663
 4.4000e+001 248715 -5.1829e+005 -7.7681e+006  1.5863e+005 66510 248611,248689,248637
 4.4000e+001 248890 -2.5188e+004 -6.2562e+005  1.2498e+005 66220 248789,248841,248815
 4.4000e+001 248867 -6.6695e+004 -8.0194e+005 -2.0692e+005 66220 248763,248841,248789
 4.4000e+001 249091 -1.1363e+006 -1.0762e+007  3.4087e+006 65759 248915,248967,248941
 4.4000e+001 249068 -8.9154e+005 -9.7690e+006  3.4047e+006 65759 248915,248993,248967
 4.4000e+001 249045 -5.3959e+005 -6.8735e+006  1.3541e+006 65759 248915,249019,248993
 4.4000e+001 249243  4.4303e+004 -8.2584e+006  1.5728e+006 65419 249142,249194,249168
 4.4000e+001 249220  8.2711e+004 -3.1120e+006  1.2359e+005 65419 249116,249194,249142
 4.4000e+001 249395 -3.9093e+005 -3.1203e+006 -5.3627e+005 65079 249268,249320,249294
 4.4000e+001 249372 -4.4287e+005 -3.8795e+006 -6.8194e+005 65079 249268,249346,249320
 4.4000e+001 249547 -1.4086e+005 -1.5831e+006  2.8066e+005 64739 249420,249472,249446
 4.4000e+001 249524  6.1742e+004 -1.3739e+006 -1.1199e+005 64739 249420,249498,249472
 4.4000e+001 249650 -1.4659e+006 -5.8297e+006 -2.5747e+006 64342 249572,249624,249598
 4.4000e+001 249851 -5.4222e+005 -4.7767e+006 -4.3047e+005 63938 249701,249779,249753
 4.4000e+001 249828 -1.5541e+005 -4.9380e+006  1.0981e+006 63938 249675,249779,249701
 4.4000e+001 249805 -4.7733e+005 -7.6933e+006 -2.8044e+005 63938 249701,249753,249727
 4.4000e+001 250052 -5.9406e+005 -4.8440e+006 -1.0056e+006 63341 249876,249954,249902
 4.4000e+001 250029 -1.2861e+006 -5.6348e+006 -3.5674e+005 63341 249876,249980,249954
 4.4000e+001 250006  9.5845e+005 -7.0232e+006  7.9974e+005 63341 249902,249954,249928
 4.4000e+001 250253 -7.2257e+004 -4.0574e+006 -5.2387e+005 63058 250077,250129,250103
 4.4000e+001 250230 -5.8939e+005 -3.1547e+006  8.6688e+003 63058 250077,250155,250129
 4.4000e+001 250207 -1.6720e+005 -2.7653e+006 -5.0613e+005 63058 250077,250181,250155
 4.4000e+001 250454 -8.6714e+005 -7.0746e+006  1.0965e+006 62832 250304,250382,250330
 4.4000e+001 250431  1.4586e+005 -8.7600e+006 -2.2714e+006 62832 250278,250382,250304
 4.4000e+001 250408 -1.9526e+006 -4.7544e+006  2.7591e+005 62832 250330,250382,250356
 4.4000e+001 250606 -1.9317e+003 -1.7554e+007  3.4865e+004 62428 250479,250531,250505
 4.4000e+001 250583 -7.0974e+005 -1.4252e+007 -5.6455e+005 62428 250479,250557,250531
 4.4000e+001 250758  1.2980e+005 -7.5940e+006  7.7767e+005 62202 250631,250683,250657
 4.4000e+001 250735 -1.6201e+005 -7.7268e+006  8.9533e+005 62202 250631,250709,250683
 4.4000e+001 250861 -1.1322e+006 -2.9148e+006 -1.8975e+005 61954 250783,250835,250809
 4.4000e+001 251062 -2.5504e+006 -1.2160e+007 -4.9034e+004 61557 250912,250990,250938
 4.4000e+001 251039  1.6993e+005 -1.5109e+007 -7.5755e+004 61557 250886,250990,250912
 4.4000e+001 251016 -1.1406e+006 -1.3269e+007 -2.2822e+006 61557 250938,250990,250964
 4.4000e+001 251263 -9.5322e+005 -7.5126e+006 -2.7064e+005 61167 251113,251165,251139
 4.4000e+001 251240 -4.5172e+005 -7.1487e+006 -5.6533e+005 61167 251113,251191,251165
 4.4000e+001 251217 -1.2007e+006 -6.9365e+006  1.6547e+006 61167 251087,251191,251113
 4.4000e+001 251415 -9.1308e+005 -3.5321e+006  8.3494e+005 60827 251288,251340,251314
 4.4000e+001 251392 -3.6160e+005 -2.1424e+006  4.8125e+004 60827 251288,251366,251340
 4.4000e+001 251567  1.7131e+005 -4.9652e+006  1.9196e+005 60487 251466,251518,251492
 4.4000e+001 251544  6.9582e+004 -4.0175e+006 -3.2512e+005 60487 251440,251518,251466
 4.4000e+001 251719  7.6062e+004 -1.0138e+007 -1.0103e+005 59983 251592,251644,251618
 4.4000e+001 251696 -6.5922e+005 -7.9112e+006 -1.5598e+004 59983 251592,251670,251644
 4.4000e+001 251920 -1.3698e+005 -2.4255e+006  3.4769e+003 59807 251770,251848,251796
 4.4000e+001 251897 -7.7257e+004 -1.7536e+006 -8.6654e+004 59807 251744,251848,251770
 4.4000e+001 251874 -1.1184e+005 -2.2067e+006  7.0331e+004 59807 251796,251848,251822
 4.4000e+001 252023  3.4826e+005 -4.9032e+006 -1.0638e+005 59517 251945,251997,251971
 4.4000e+001 252175  1.6537e+006 -1.4317e+007 -2.9926e+005 59269 252074,252126,252100
 4.4000e+001 252152 -1.9690e+005 -8.8830e+006  1.6627e+005 59269 252048,252126,252074
 4.4000e+001 252278 -4.8039e+005 -3.5015e+006  8.8241e+005 58979 252200,252252,252226
 4.4000e+001 252381 -2.6013e+006 -2.3096e+006  1.1148e+006 58689 252303,252355,252329
 4.4000e+001 252533 -9.2437e+005 -4.4271e+006 -7.0863e+005 58249 252432,252484,252458
 4.4000e+001 252510 -1.2204e+006 -6.4110e+006 -1.2551e+006 58249 252406,252484,252432
 4.4000e+001 252734 -3.0854e+005 -4.4476e+006 -9.6487e+004 57902 252584,252662,252610
 4.4000e+001 252711  4.6395e+005 -5.0513e+006 -3.0484e+005 57902 252558,252662,252584
 4.4000e+001 252688 -2.6448e+005 -3.6442e+006 -5.0145e+005 57902 252610,252662,252636
 4.4000e+001 252886  1.6667e+005 -5.5308e+006 -3.8777e+005 57540 252785,252837,252811
 4.4000e+001 252863  3.9732e+005 -4.3797e+006  2.4905e+004 57540 252759,252837,252785
 4.4000e+001 253038 -6.2187e+005 -6.5727e+006  1.5999e+006 57086 252937,252989,252963
 4.4000e+001 253015 -1.9049e+005 -2.2480e+006  1.7352e+005 57086 252911,252989,252937
 4.4000e+001 253239 -1.7775e+006 -5.6611e+006 -2.3985e+006 56796 253063,253141,253115
 4.4000e+001 253216  1.1496e+005 -7.4259e+006 -6.6997e+004 56796 253063,253167,253141
 4.4000e+001 253193 -1.5843e+006 -5.9062e+006 -2.5133e+006 56796 253063,253115,253089
 4.4000e+001 253342 -6.1280e+005 -1.8227e+007  1.3094e+004 56349 253264,253316,253290
 4.4000e+001 253543 -8.1383e+005 -8.2586e+006 -7.2220e+005 56009 253367,253419,253393
 4.4000e+001 253520 -4.5766e+005 -4.7770e+006 -4.9888e+005 56009 253367,253445,253419
 4.4000e+001 253497 -2.4184e+005 -6.1484e+006  1.5531e+005 56009 253367,253471,253445
 4.4000e+001 253695 -5.5924e+005 -1.7058e+006  5.0571e+005 55733 253594,253646,253620
 4.4000e+001 253672 -1.0860e+006 -6.9501e+005  3.4033e+005 55733 253568,253646,253594
 4.4000e+001 253798 -5.2967e+005 -2.0577e+006 -3.2450e+005 55557 253720,253772,253746
 4.4000e+001 253950 -6.9211e+005 -4.2338e+006  5.6935e+004 55153 253849,253901,253875
 4.4000e+001 253927 -8.3227e+004 -4.8405e+006 -6.6994e+005 55153 253823,253901,253849
 4.4000e+001 254151 -1.2060e+006 -5.0050e+006  4.6425e+005 54863 253975,254053,254001
 4.4000e+001 254128 -6.6149e+005 -4.8728e+006 -1.6627e+005 54863 253975,254079,254053
 4.4000e+001 254105 -6.6423e+005 -4.7888e+006  2.7469e+005 54863 254001,254053,254027
 4.4000e+001 254303 -3.2565e+004 -1.7436e+006  1.5591e+005 54373 254176,254228,254202
 4.4000e+001 254280  5.1364e+004 -2.2498e+006  2.4559e+005 54373 254176,254254,254228
 4.4000e+001 254455  1.2100e+004 -5.9731e+006 -4.0265e+005 53975 254354,254406,254380
 4.4000e+001 254432 -5.3662e+005 -1.3875e+006  2.6041e+005 53975 254328,254406,254354
 4.4000e+001 254607 -9.7470e+004 -5.9240e+006 -3.7376e+005 53585 254480,254532,254506
 4.4000e+001 254584 -4.6595e+005 -5.3994e+006 -3.2255e+005 53585 254480,254558,254532
 4.4000e+001 254808 -8.0117e+005 -3.9995e+006 -1.7702e+005 53245 254658,254736,254684
 4.4000e+001 254785 -1.1175e+006 -1.7133e+006 -8.1293e+005 53245 254632,254736,254658
 4.4000e+001 254762 -4.3763e+005 -2.5535e+006 -3.0840e+005 53245 254684,254736,254710
 4.4000e+001 254911 -2.2568e+005 -3.9110e+006  3.3946e+005 52955 254833,254885,254859
 4.4000e+001 255063 -5.2802e+005 -7.0837e+006 -1.7132e+005 52551 254962,255014,254988
 4.4000e+001 255040 -6.0897e+005 -7.3217e+006 -2.8896e+005 52551 254936,255014,254962
 4.4000e+001 255264 -4.1753e+005 -7.4773e+005  6.6014e+005 52261 255114,255166,255140
 4.4000e+001 255241 -1.6433e+006 -2.0201e+006  1.4092e+006 52261 255114,255192,255166
 4.4000e+001 255218  5.6773e+005 -4.3740e+006 -8.0665e+005 52261 255088,255192,255114
 4.4000e+001 255416 -5.7125e+005 -5.7992e+006  1.6769e+006 51971 255289,255341,255315
 4.4000e+001 255393 -1.0197e+005 -5.2264e+006 -4.7420e+005 51971 255289,255367,255341
 4.4000e+001 255568 -1.0909e+006 -7.5486e+005 -4.4145e+005 51681 255441,255493,255467
 4.4000e+001 255545 -1.1518e+005 -7.4510e+006  7.8146e+005 51681 255441,255519,255493
 4.4000e+001 255769 -2.1281e+005 -3.3353e+006 -1.2694e+005 51291 255619,255697,255671
 4.4000e+001 255746 -1.9446e+005 -3.0595e+006 -3.5819e+005 51291 255593,255697,255619
 4.4000e+001 255723 -2.2332e+005 -5.1437e+006 -5.7026e+005 51291 255619,255671,255645
 4.4000e+001 255921 -3.9793e+005 -3.0241e+006  7.0015e+005 50951 255820,255872,255846
 4.4000e+001 255898 -7.3399e+004 -1.9411e+006  1.0317e+005 50951 255794,255872,255820
 4.4000e+001 256171 -1.0937e+006 -5.0762e+006  1.0106e+005 50547 256024,256076,256050
 4.4000e+001 256148 -8.8552e+005 -4.8502e+006  3.4516e+005 50547 255972,256076,256024
 4.4000e+001 256125 -2.0966e+005 -5.3771e+006 -4.0284e+004 50547 255946,256076,255972
 4.4000e+001 256102 -9.1509e+005 -4.5004e+006  2.4087e+005 50547 255972,256024,255998
 4.4000e+001 256323  4.5412e+005 -6.0784e+006  1.0297e+006 50093 256196,256248,256222
 4.4000e+001 256300 -1.1375e+006 -3.0809e+006 -1.3421e+006 50093 256196,256274,256248
 4.4000e+001 256426  4.0859e+002 -1.5067e+003  6.5133e+002 49845 256348,256400,256374
 4.4000e+001 256627 -1.0825e+005 -5.3154e+006  4.8020e+004 49555 256477,256555,256503
 4.4000e+001 256604 -2.4338e+005 -3.6958e+006  9.2027e+004 49555 256451,256555,256477
 4.4000e+001 256581 -3.7554e+005 -4.7118e+006  2.0301e+005 49555 256503,256555,256529
 4.4000e+001 256828 -7.7000e+005 -2.8381e+006 -2.5408e+005 49056 256652,256730,256678
 4.4000e+001 256805 -2.9702e+005 -3.1988e+006 -5.9034e+005 49056 256652,256756,256730
 4.4000e+001 256782 -6.6891e+005 -2.2110e+006 -6.8252e+005 49056 256678,256730,256704
 4.4000e+001 256931 -7.3740e+004 -2.0163e+005  5.4826e+004 48766 256853,256905,256879
 4.4000e+001 257083 -9.9162e+005 -4.6491e+006 -7.5064e+005 48568 256982,257034,257008
 4.4000e+001 257060 -7.9601e+005 -3.8811e+006 -6.1524e+005 48568 256956,257034,256982
 4.4000e+001 257186 -3.0232e+003 -3.1799e+006  1.6951e+003 48228 257108,257160,257134
 4.4000e+001 257338 -4.4194e+005 -1.5210e+006  5.6611e+005 47888 257237,257289,257263
 4.4000e+001 257315 -4.0766e+005 -1.8192e+006  7.3124e+005 47888 257211,257289,257237
 4.4000e+001 257539 -3.0077e+005 -4.9167e+006  2.4253e+005 47548 257363,257441,257415
 4.4000e+001 257516 -7.2514e+005 -4.5452e+006 -4.5392e+005 47548 257363,257467,257441
 4.4000e+001 257493 -5.8893e+005 -3.6313e+006 -8.5349e+004 47548 257363,257415,257389
 4.4000e+001 257740 -2.1340e+005 -5.0056e+006  4.6870e+005 46994 257564,257642,257616
 4.4000e+001 257717 -4.4037e+005 -4.0107e+006  9.4199e+004 46994 257564,257668,257642
 4.4000e+001 257694 -7.6730e+005 -5.2397e+006  2.5289e+004 46994 257564,257616,257590
 4.4000e+001 257843 -1.0362e+006 -2.4678e+006 -3.4657e+005 46654 257765,257817,257791
 4.4000e+001 257995 -6.5466e+005 -3.8965e+006  2.5050e+005 46364 257894,257946,257920
 4.4000e+001 257972 -7.2853e+005 -4.3095e+006  9.6468e+003 46364 257868,257946,257894
 4.4000e+001 258147 -7.8692e+004 -4.0413e+006  1.2857e+005 46024 258046,258098,258072
 4.4000e+001 258124 -3.7175e+005 -3.2463e+006  3.8525e+005 46024 258020,258098,258046
 4.4000e+001 258250 -6.8009e+005 -2.6193e+006  9.4565e+005 45741 258172,258224,258198
 4.4000e+001 258402 -3.1111e+005 -2.7642e+006  2.4543e+005 45401 258301,258353,258327
 4.4000e+001 258379 -5.0836e+005 -2.0156e+006  2.4797e+005 45401 258275,258353,258301
 4.4000e+001 258603 -7.8209e+005 -2.5090e+006 -2.6861e+004 45071 258427,258505,258479
 4.4000e+001 258580 -9.2181e+004 -6.0576e+006  3.0211e+005 45071 258427,258531,258505
 4.4000e+001 258557 -2.0576e+005 -3.3480e+006  2.6258e+005 45071 258427,258479,258453
 4.4000e+001 258755 -2.0327e+005 -4.6210e+006 -4.1056e+005 44681 258654,258706,258680
 4.4000e+001 258732 -2.1604e+005 -4.3527e+006 -3.9409e+005 44681 258628,258706,258654
 4.4000e+001 258907 -7.7576e+005 -8.3432e+005 -7.8661e+004 44157 258806,258858,258832
 4.4000e+001 258884 -2.5975e+005 -1.2434e+006 -7.0825e+004 44157 258780,258858,258806
 4.4000e+001 259010 -7.2545e+005 -3.7595e+005  3.4879e+004 43705 258932,258984,258958
 4.4000e+001 259113 -4.8996e+005 -2.9737e+006  1.4911e+005 43284 259035,259087,259061
 4.4000e+001 259216 -6.3979e+005 -2.9153e+006 -1.2006e+005 42954 259138,259190,259164
 4.4000e+001 259319 -9.2369e+005 -2.1567e+006  4.9830e+004 42116 259241,259293,259267
 4.4000e+001 259422 -3.0919e+005 -3.2822e+006 -1.5743e+005 41804 259344,259396,259370
 4.4000e+001 259525 -6.2782e+005 -6.1262e+006  8.6824e+005 41219 259447,259499,259473
 4.4000e+001 259628 -8.4116e+005 -3.4259e+006 -4.2926e+005 385 259550,259602,259576
 4.6000e+001 190120 -3.7429e+005 -3.0865e+006 -3.8852e+005 189630 189993,190045,190019
 4.6000e+001 190097 -7.0384e+005 -2.4222e+006 -1.7555e+005 189630 189993,190071,190045
 4.6000e+001 190319 -1.1307e+006 -3.6883e+006  3.5546e+005 189312 190169,190221,190195
 4.6000e+001 190296 -8.5678e+005 -2.2170e+006 -1.0019e+006 189312 190169,190247,190221
 4.6000e+001 190273 -6.1730e+005 -1.6866e+006 -9.7112e+004 189312 190143,190247,190169
 4.6000e+001 190518 -4.4012e+005 -3.9217e+005 -9.5602e+004 189124 190368,190446,190420
 4.6000e+001 190495 -5.9558e+005 -1.6905e+005  7.5018e+004 189124 190342,190446,190368
 4.6000e+001 190472 -8.2360e+005 -4.6392e+005 -1.5938e+005 189124 190368,190420,190394
 4.6000e+001 190619 -4.5531e+005 -3.4566e+005 -1.2238e+004 188926 190541,190593,190567
 4.6000e+001 190771 -5.0226e+005 -5.2346e+005 -2.0946e+004 188614 190670,190722,190696
 4.6000e+001 190748 -4.8281e+005 -4.8986e+004  1.1292e+005 188614 190644,190722,190670
 4.6000e+001 190972 -2.4997e+005 -9.3982e+005 -3.6353e+005 188324 190848,190900,190874
 4.6000e+001 190949 -4.8970e+005 -1.2844e+006 -5.8149e+005 188324 190796,190900,190848
 4.6000e+001 190926 -8.7138e+004 -1.1075e+006 -3.3802e+005 188324 190796,190848,190822
 4.6000e+001 191124 -6.0103e+005 -1.8696e+006 -2.0759e+005 188034 191023,191075,191049
 4.6000e+001 191101 -2.4293e+005 -1.9362e+006 -1.9138e+005 188034 190997,191075,191023
 4.6000e+001 191276 -5.1122e+005 -1.2093e+006 -8.3551e+004 187836 191149,191201,191175
 4.6000e+001 191253 -2.8250e+005 -1.1022e+006 -7.6304e+002 187836 191149,191227,191201
 4.6000e+001 191379 -4.5718e+005 -2.6569e+005 -8.2487e+004 187546 191301,191353,191327
 4.6000e+001 191531 -6.6173e+005 -5.1152e+006 -1.8252e+006 187256 191430,191482,191456
 4.6000e+001 191508 -6.9731e+005 -3.2838e+006  7.0235e+005 187256 191404,191482,191430
 4.6000e+001 191634 -4.5679e+005 -2.3252e+005  9.8904e+003 187058 191556,191608,191582
 4.6000e+001 191835 -4.9895e+005 -1.5733e+005  5.2622e+004 186860 191659,191711,191685
 4.6000e+001 191812 -5.2397e+005 -4.0332e+005 -2.2847e+004 186860 191659,191737,191711
 4.6000e+001 191789 -4.6553e+005 -1.4499e+005 -1.7065e+004 186860 191659,191763,191737
 4.6000e+001 191987 -3.5282e+005 -1.7699e+006  3.4039e+005 186662 191886,191938,191912
 4.6000e+001 191964 -4.9929e+005 -1.1627e+006 -8.1495e+004 186662 191860,191938,191886
 4.6000e+001 192090 -6.5459e+005 -1.3955e+006  2.1066e+005 186486 192012,192064,192038
 4.6000e+001 192242 -5.0559e+005 -4.2742e+006  4.7080e+003 186288 192115,192167,192141
 4.6000e+001 192219 -4.5508e+005 -3.7448e+006  1.5170e+005 186288 192115,192193,192167
 4.6000e+001 192394 -2.4033e+005 -3.6525e+006 -3.1801e+005 185935 192293,192345,192319
 4.6000e+001 192371 -3.6187e+005 -3.2356e+006 -4.1644e+005 185935 192267,192345,192293
 4.6000e+001 192546 -4.9741e+005 -2.9787e+006 -2.5121e+005 185675 192419,192471,192445
 4.6000e+001 192523 -5.7803e+005 -1.4961e+006 -1.0912e+005 185675 192419,192497,192471
 4.6000e+001 192649 -1.9864e+005 -2.3178e+006 -1.5889e+005 185499 192571,192623,192597
 4.6000e+001 192801 -1.0887e+006 -8.7660e+005 -1.5253e+005 185301 192674,192726,192700
 4.6000e+001 192778 -5.5428e+005 -1.0017e+006  5.9414e+005 185301 192674,192752,192726
 4.6000e+001 193002 -1.4151e+005 -1.9891e+006 -4.5649e+005 185046 192852,192930,192878
 4.6000e+001 192979 -3.6972e+005 -2.8730e+006 -3.9337e+005 185046 192826,192930,192852
 4.6000e+001 192956  2.7129e+005 -3.3978e+006 -3.7464e+004 185046 192878,192930,192904
 4.6000e+001 193203 -1.6567e+006 -1.5361e+006 -7.4074e+005 184798 193079,193131,193105
 4.6000e+001 193180  3.0459e+005 -4.7311e+006 -1.6750e+006 184798 193027,193131,193079
 4.6000e+001 193157  9.4616e+004 -5.0171e+006  1.3586e+006 184798 193027,193079,193053
 4.6000e+001 193404 -2.0821e+005 -3.6446e+006 -6.8698e+005 184600 193254,193306,193280
 4.6000e+001 193381 -4.8551e+005 -2.5171e+006 -5.4309e+004 184600 193254,193332,193306
 4.6000e+001 193358 -1.0080e+006 -5.2527e+005 -4.5680e+005 184600 193228,193332,193254
 4.6000e+001 193556 -4.4291e+005 -1.3403e+006 -6.9055e+005 184402 193429,193481,193455
 4.6000e+001 193533 -9.3009e+005 -9.4624e+005 -9.8707e+005 184402 193429,193507,193481
 4.6000e+001 193708 -3.5786e+005 -4.2996e+006 -8.5343e+005 184204 193607,193659,193633
 4.6000e+001 193685 -5.0880e+005 -3.5399e+006 -7.1899e+005 184204 193581,193659,193607
 4.6000e+001 193860 -5.7279e+005 -2.1475e+006  2.9517e+005 183908 193759,193811,193785
 4.6000e+001 193837 -1.1485e+005 -2.2135e+006  4.7002e+005 183908 193733,193811,193759
 4.6000e+001 194061 -4.0797e+005 -2.0615e+006  1.0518e+005 183710 193911,193989,193937
 4.6000e+001 194038 -4.6694e+005 -1.5587e+006  3.1120e+005 183710 193885,193989,193911
 4.6000e+001 194015 -7.4830e+005 -1.0539e+006  5.6746e+004 183710 193937,193989,193963
 4.6000e+001 194262 -1.3143e+006 -4.2691e+006 -1.7201e+006 183420 194086,194164,194112
 4.6000e+001 194239 -8.9947e+005 -1.8136e+006 -9.0216e+004 183420 194086,194190,194164
 4.6000e+001 194216 -1.8523e+006 -1.0862e+007  1.6007e+006 183420 194112,194164,194138
 4.6000e+001 194414 -2.7609e+005 -4.8483e+006  3.2591e+005 183222 194287,194339,194313
 4.6000e+001 194391 -4.0621e+005 -4.4790e+005 -1.7901e+005 183222 194287,194365,194339
 4.6000e+001 194517 -9.5862e+005 -9.5138e+005 -7.4406e+004 183024 194439,194491,194465
 4.6000e+001 194718  2.1216e+006 -1.7663e+007  2.6247e+006 182734 194568,194620,194594
 4.6000e+001 194695 -1.1744e+006 -3.4544e+006 -3.3496e+006 182734 194542,194620,194568
 4.6000e+001 194672 -3.6140e+006 -2.1288e+006 -1.4282e+006 182734 194542,194646,194620
 4.6000e+001 194870 -5.2722e+005 -1.8183e+006  4.8964e+005 182444 194769,194821,194795
 4.6000e+001 194847 -5.8877e+005 -1.0963e+006 -4.8323e+005 182444 194743,194821,194769
 4.6000e+001 195071 -4.9694e+005 -4.0576e+006  1.1535e+006 182154 194895,194947,194921
 4.6000e+001 195048 -3.4763e+005 -1.9601e+006  2.8953e+005 182154 194895,194999,194947
 4.6000e+001 195025 -2.7314e+005 -1.4701e+006  3.7462e+005 182154 194947,194999,194973
 4.6000e+001 195223 -1.7736e+005 -2.2699e+006 -2.3405e+005 181814 195096,195148,195122
 4.6000e+001 195200 -1.0941e+005 -2.2281e+006 -7.0548e+005 181814 195096,195174,195148
 4.6000e+001 195375 -5.0947e+004 -8.9289e+005  1.2226e+005 181524 195248,195300,195274
 4.6000e+001 195352 -7.2979e+004 -1.6625e+006  3.0264e+005 181524 195248,195326,195300
 4.6000e+001 195527 -8.7639e+004 -1.0418e+006  4.5837e+005 181326 195426,195478,195452
 4.6000e+001 195504 -6.6093e+005 -2.3960e+006  9.0643e+005 181326 195400,195478,195426
 4.6000e+001 195679  3.3765e+005 -1.3643e+007 -3.5197e+005 180936 195578,195630,195604
 4.6000e+001 195656 -1.1457e+006 -4.1541e+006 -1.6191e+005 180936 195552,195630,195578
 4.6000e+001 195831 -5.8367e+005 -5.4997e+005 -2.9512e+005 180646 195704,195756,195730
 4.6000e+001 195808 -6.7264e+005 -1.5383e+005 -6.0884e+004 180646 195704,195782,195756
 4.6000e+001 196032 -6.1517e+005 -2.2606e+006  7.0751e+005 180306 195882,195960,195934
 4.6000e+001 196009 -7.1337e+005 -1.2115e+006  9.4464e+004 180306 195856,195960,195882
 4.6000e+001 195986  1.2438e+005 -3.3379e+006 -5.1837e+005 180306 195882,195934,195908
 4.6000e+001 196233 -3.8436e+005 -2.3308e+005 -7.3189e+005 179944 196057,196109,196083
 4.6000e+001 196210 -9.3385e+005 -2.8901e+006  3.9673e+005 179944 196057,196135,196109
 4.6000e+001 196187 -1.6644e+006  3.2211e+006 -1.1003e+006 179944 196057,196161,196135
 4.6000e+001 196385 -6.9539e+005 -8.1826e+005 -4.2189e+005 179604 196258,196310,196284
 4.6000e+001 196362 -1.2381e+006 -1.7177e+006 -1.5508e+006 179604 196258,196336,196310
 4.6000e+001 196586 -6.4934e+005 -8.9153e+005 -4.1054e+005 179114 196410,196488,196436
 4.6000e+001 196563  2.2742e+005 -3.4404e+006 -6.4251e+005 179114 196410,196514,196488
 4.6000e+001 196540 -8.4248e+003 -8.2151e+005 -8.4037e+004 179114 196436,196488,196462
 4.6000e+001 196738 -2.2942e+005 -2.3836e+006 -3.2441e+005 178674 196611,196663,196637
 4.6000e+001 196715 -1.4695e+005 -2.6718e+006 -2.4718e+005 178674 196611,196689,196663
 4.6000e+001 196939  1.6550e+006 -9.8636e+006 -1.8816e+006 178334 196789,196867,196841
 4.6000e+001 196916 -1.5708e+006 -9.9334e+006  1.5895e+006 178334 196763,196867,196789
 4.6000e+001 196893 -2.9692e+006 -6.4893e+006 -5.3265e+006 178334 196789,196841,196815
 4.6000e+001 197091 -2.3676e+005 -4.7322e+006 -3.0773e+005 177930 196990,197042,197016
 4.6000e+001 197068  9.1289e+004 -3.2422e+006 -1.6194e+005 177930 196964,197042,196990
 4.6000e+001 197194 -1.8433e+002 -7.4664e+005 -2.7022e+002 177732 197116,197168,197142
 4.6000e+001 197346 -2.4498e+005 -7.2079e+006 -1.9037e+005 177534 197219,197271,197245
 4.6000e+001 197323  2.2331e+005 -8.5451e+006  5.1868e+005 177534 197219,197297,197271
 4.6000e+001 197547 -3.3214e+005 -4.5461e+006 -8.8329e+005 177130 197397,197449,197423
 4.6000e+001 197524 -8.9344e+005 -4.6121e+006 -1.4109e+006 177130 197397,197475,197449
 4.6000e+001 197501 -8.3246e+005 -9.6883e+006 -1.8354e+006 177130 197371,197475,197397
 4.6000e+001 197748 -2.7263e+005 -7.7849e+006  1.1609e+005 176790 197598,197676,197624
 4.6000e+001 197725 -3.0314e+005 -5.2100e+006  2.6713e+005 176790 197572,197676,197598
 4.6000e+001 197702 -4.3927e+005 -5.7887e+006  6.3887e+005 176790 197624,197676,197650
 4.6000e+001 197900 -1.3162e+005 -5.0061e+006 -7.4696e+005 176300 197773,197825,197799
 4.6000e+001 197877  2.2258e+005 -5.7263e+006 -7.9801e+005 176300 197773,197851,197825
 4.6000e+001 198052 -8.4723e+004 -1.1268e+007 -2.1419e+006 176010 197925,197977,197951
 4.6000e+001 198029 -6.0303e+005 -6.4484e+006 -1.4842e+006 176010 197925,198003,197977
 4.6000e+001 198204 -2.4867e+006 -4.3207e+006 -9.4195e+005 175670 198103,198155,198129
 4.6000e+001 198181 -2.6213e+006 -5.6073e+006 -1.2591e+006 175670 198077,198155,198103
 4.6000e+001 198405  2.5112e+005 -7.5799e+006 -1.4795e+006 175266 198255,198307,198281
 4.6000e+001 198382  5.9090e+004 -7.2415e+006 -1.1886e+006 175266 198229,198307,198255
 4.6000e+001 198359 -1.3651e+006 -5.3378e+006 -2.5923e+006 175266 198229,198333,198307
 4.6000e+001 198606  3.8526e+002 -2.7132e+005 -1.4564e+004 174876 198430,198508,198482
 4.6000e+001 198583 -7.6493e+004 -2.9300e+005  8.5693e+003 174876 198430,198534,198508
 4.6000e+001 198560 -6.9473e+004 -1.1070e+005 -5.7718e+004 174876 198430,198482,198456
 4.6000e+001 198758 -4.7403e+002 -6.2896e+002 -7.5483e+002 174536 198657,198709,198683
 4.6000e+001 198735 -5.1506e+002 -3.9028e+002 -2.6845e+002 174536 198631,198709,198657
 4.6000e+001 199008 -1.0033e+006 -8.7764e+006 -5.3966e+005 174132 198835,198913,198887
 4.6000e+001 198985  1.3979e+005 -3.5852e+006  4.1291e+005 174132 198809,198913,198835
 4.6000e+001 198962 -5.5507e+005 -4.2045e+006 -2.4569e+006 174132 198783,198913,198809
 4.6000e+001 198939 -4.0549e+005 -9.0635e+006 -4.7131e+005 174132 198835,198887,198861
 4.6000e+001 199160 -1.5489e+006 -3.2813e+006 -1.2463e+006 173842 199059,199111,199085
 4.6000e+001 199137 -7.1804e+005 -1.6308e+006 -5.5654e+005 173842 199033,199111,199059
 4.6000e+001 199361 -5.1330e+005 -1.1075e+007  1.3063e+006 173438 199237,199289,199263
 4.6000e+001 199338 -8.6827e+005 -7.8832e+006  1.8915e+006 173438 199211,199289,199237
 4.6000e+001 199315 -8.4202e+005 -1.0103e+007 -8.0751e+002 173438 199185,199289,199211
 4.6000e+001 199513  4.1094e+005 -1.3353e+007  2.2710e+006 173190 199386,199438,199412
 4.6000e+001 199490 -5.1122e+005 -9.7238e+006 -1.4404e+005 173190 199386,199464,199438
 4.6000e+001 199665 -3.8096e+005 -1.9509e+006  2.0537e+005 172750 199564,199616,199590
 4.6000e+001 199642 -7.3065e+005 -8.9435e+005 -4.6182e+003 172750 199538,199616,199564
 4.6000e+001 199817 -5.2305e+005 -9.2062e+006 -3.2176e+006 172524 199690,199742,199716
 4.6000e+001 199794 -3.7645e+006 -3.8561e+006 -2.0017e+006 172524 199690,199768,199742
 4.6000e+001 199969 -2.1843e+004 -9.1478e+006 -4.4983e+005 172348 199842,199894,199868
 4.6000e+001 199946  8.7914e+005 -8.9880e+006  6.2400e+004 172348 199842,199920,199894
 4.6000e+001 200121  2.8959e+005 -7.2145e+006 -1.0689e+006 172008 199994,200046,200020
 4.6000e+001 200098 -6.0474e+005 -2.9332e+006 -3.9713e+005 172008 199994,200072,200046
 4.6000e+001 200273 -4.3732e+005 -8.5042e+006  6.2270e+005 171668 200172,200224,200198
 4.6000e+001 200250 -4.4808e+005 -7.5995e+006  2.8792e+005 171668 200146,200224,200172
 4.6000e+001 200474  4.5977e+005 -7.7583e+006 -9.3057e+005 171264 200350,200402,200376
 4.6000e+001 200451 -5.3467e+004 -7.6112e+006 -1.0247e+006 171264 200324,200402,200350
 4.6000e+001 200428 -5.5394e+005 -5.5729e+006  1.5275e+006 171264 200298,200402,200324
 4.6000e+001 200626 -4.4862e+004 -8.0512e+006 -5.5382e+005 170832 200525,200577,200551
 4.6000e+001 200603 -1.9172e+005 -5.0232e+006 -4.2608e+005 170832 200499,200577,200525
 4.6000e+001 200827  5.6028e+005 -8.1269e+006  1.3100e+006 170492 200677,200729,200703
 4.6000e+001 200804 -1.6485e+006 -2.4966e+006 -2.9892e+006 170492 200651,200729,200677
 4.6000e+001 200781 -3.1363e+006 -2.9157e+006 -1.8566e+006 170492 200651,200755,200729
 4.6000e+001 201077  5.7740e+005 -6.0244e+006  1.8157e+005 170088 200878,200956,200904
 4.6000e+001 201054 -2.3694e+005 -4.2158e+006 -1.0844e+006 170088 200852,200956,200878
 4.6000e+001 201031  3.3467e+005 -3.9202e+006  3.9236e+006 170088 200904,200956,200930
 4.6000e+001 201008  3.5881e+006 -7.9383e+006  1.4960e+006 170088 200852,200982,200956
 4.6000e+001 201278  6.4901e+005 -1.2532e+006 -2.7499e+005 169798 201102,201154,201128
 4.6000e+001 201255 -1.9810e+006 -1.0312e+007 -1.9032e+006 169798 201102,201206,201154
 4.6000e+001 201232 -3.8235e+006 -7.1076e+005  6.1534e+005 169798 201154,201206,201180
 4.6000e+001 201430 -7.7437e+005 -1.2184e+007 -2.0168e+006 169337 201303,201355,201329
 4.6000e+001 201407 -4.6332e+005 -4.3139e+006 -4.8646e+005 169337 201303,201381,201355
 4.6000e+001 201631 -6.4452e+005 -8.4974e+006 -3.7828e+004 168883 201481,201559,201507
 4.6000e+001 201608 -1.9199e+005 -6.6725e+006  1.1315e+006 168883 201455,201559,201481
 4.6000e+001 201585 -4.0117e+005 -6.9034e+006  1.9055e+005 168883 201507,201559,201533
 4.6000e+001 201832  1.0642e+005 -1.2132e+007  4.8877e+005 168479 201682,201734,201708
 4.6000e+001 201809 -2.6595e+006 -9.2625e+006 -2.0138e+006 168479 201656,201734,201682
 4.6000e+001 201786 -2.3186e+006 -7.9024e+006 -1.1782e+006 168479 201656,201760,201734
 4.6000e+001 202033 -3.4635e+005 -4.9221e+006  4.7267e+005 167825 201883,201935,201909
 4.6000e+001 202010 -1.8311e+006 -6.3508e+006 -2.1421e+006 167825 201857,201935,201883
 4.6000e+001 201987 -3.2122e+005 -1.4363e+007 -8.4470e+005 167825 201857,201961,201935
 4.6000e+001 202234 -6.0387e+005 -6.6754e+006 -1.7985e+006 167435 202058,202136,202084
 4.6000e+001 202211 -1.1062e+006 -9.9867e+006  2.1265e+006 167435 202058,202162,202136
 4.6000e+001 202188 -8.0052e+005 -3.0204e+006  7.7166e+005 167435 202084,202136,202110
 4.6000e+001 202386  3.4532e+005 -6.1655e+006 -1.5044e+005 167002 202285,202337,202311
 4.6000e+001 202363 -3.7133e+005 -1.1618e+006  2.8603e+005 167002 202259,202337,202285
 4.6000e+001 202538  1.4963e+004 -3.8836e+006 -6.8877e+005 166662 202411,202463,202437
 4.6000e+001 202515 -2.0240e+005 -1.3178e+006 -5.4715e+005 166662 202411,202489,202463
 4.6000e+001 202690  1.1379e+005 -6.7906e+006 -1.6301e+006 166322 202589,202641,202615
 4.6000e+001 202667  2.1668e+005 -5.6434e+006 -7.1168e+005 166322 202563,202641,202589
 4.6000e+001 202891 -7.8086e+005 -6.7986e+005 -2.0581e+005 165918 202715,202767,202741
 4.6000e+001 202868 -1.0898e+006 -2.0704e+006 -6.6353e+005 165918 202715,202793,202767
 4.6000e+001 202845  1.5898e+005 -2.8250e+006 -5.0399e+005 165918 202715,202819,202793
 4.6000e+001 203092 -4.3761e+005 -7.1897e+006 -1.1388e+006 165628 202916,202968,202942
 4.6000e+001 203069  5.2333e+004 -1.0318e+007 -8.2742e+005 165628 202916,202994,202968
 4.6000e+001 203046 -1.2636e+006 -8.4584e+006 -2.5456e+006 165628 202916,203020,202994
 4.6000e+001 203293 -7.0634e+006 -6.2304e+006 -1.8648e+006 165266 203143,203195,203169
 4.6000e+001 203270 -3.2934e+006 -9.1299e+006 -1.2843e+005 165266 203143,203221,203195
 4.6000e+001 203247 -1.3389e+006 -1.2255e+007 -3.5298e+006 165266 203117,203221,203143
 4.6000e+001 203445 -3.7267e+005 -4.1816e+006  3.7657e+005 164826 203318,203370,203344
 4.6000e+001 203422 -3.1190e+005 -2.8828e+006 -5.9522e+005 164826 203318,203396,203370
 4.6000e+001 203597 -6.7805e+005 -3.3933e+006 -4.3839e+005 164386 203470,203522,203496
 4.6000e+001 203574 -8.6731e+005 -3.5038e+006 -9.1415e+005 164386 203470,203548,203522
 4.6000e+001 203798 -1.6704e+004 -5.0597e+006  7.5739e+005 163996 203622,203674,203648
 4.6000e+001 203775 -1.0591e+006 -5.4214e+005 -2.2934e+005 163996 203622,203726,203674
 4.6000e+001 203752 -1.9771e+006 -2.3692e+006  2.5949e+006 163996 203674,203726,203700
 4.6000e+001 203901 -7.6452e+004 -2.1734e+006 -8.2529e+005 163770 203823,203875,203849
 4.6000e+001 204053 -2.4193e+005 -2.5620e+006 -2.5799e+005 163474 203952,204004,203978
 4.6000e+001 204030 -3.1437e+005 -2.6781e+006 -4.4932e+005 163474 203926,204004,203952
 4.6000e+001 204205 -1.6180e+006 -3.9810e+006 -8.7616e+004 163034 204104,204156,204130
 4.6000e+001 204182 -8.5685e+005 -8.5984e+006 -4.3487e+006 163034 204078,204156,204104
 4.6000e+001 204357 -7.9265e+005 -4.9067e+006  8.2509e+005 162624 204256,204308,204282
 4.6000e+001 204334 -3.8459e+005 -4.5552e+005  1.2974e+005 162624 204230,204308,204256
 4.6000e+001 204509 -1.5025e+004 -9.0542e+004  3.8780e+004 162200 204382,204434,204408
 4.6000e+001 204486 -1.5174e+004 -6.2659e+004  2.7582e+004 162200 204382,204460,204434
 4.6000e+001 204710 -1.2483e+005 -1.6140e+006  2.5648e+005 161810 204560,204638,204586
 4.6000e+001 204687  9.4514e+004 -3.4520e+006 -1.5811e+006 161810 204534,204638,204560
 4.6000e+001 204664 -2.0604e+005 -8.8671e+005 -1.1587e+005 161810 204586,204638,204612
 4.6000e+001 204862 -1.1238e+006 -4.0677e+006 -2.4466e+006 161406 204735,204787,204761
 4.6000e+001 204839 -1.8043e+006 -3.8165e+006 -2.5000e+006 161406 204735,204813,204787
 4.6000e+001 205014  4.2771e+002 -9.1962e+004  2.0949e+004 161180 204887,204939,204913
 4.6000e+001 204991 -7.0909e+003 -4.6403e+004 -5.6490e+003 161180 204887,204965,204939
 4.6000e+001 205215  2.6919e+005 -6.6648e+005 -2.6141e+005 160726 205039,205091,205065
 4.6000e+001 205192 -5.0582e+005 -3.6355e+006 -5.6857e+005 160726 205039,205143,205091
 4.6000e+001 205169 -2.8813e+005 -5.3638e+005 -3.0559e+005 160726 205091,205143,205117
 4.6000e+001 205416 -1.0113e+005 -5.5443e+004  7.5912e+004 160272 205292,205344,205318
 4.6000e+001 205393 -8.9300e+004 -5.0625e+004  8.4285e+004 160272 205240,205344,205292
 4.6000e+001 205370 -6.9735e+004 -4.3162e+004 -2.8719e+004 160272 205240,205292,205266
 4.6000e+001 205568 -1.3725e+004 -1.3381e+005  1.6975e+004 159932 205441,205493,205467
 4.6000e+001 205545 -1.1239e+004 -1.2132e+005  1.5904e+004 159932 205441,205519,205493
 4.6000e+001 205720 -1.3146e+004 -7.7258e+004  3.6406e+004 159542 205593,205645,205619
 4.6000e+001 205697 -2.8673e+004 -1.1239e+005  4.9234e+004 159542 205593,205671,205645
 4.6000e+001 205872  1.3679e+004 -3.7213e+004 -3.6568e+003 159252 205745,205797,205771
 4.6000e+001 205849 -1.5767e+004 -1.6329e+005 -2.2943e+004 159252 205745,205823,205797
 4.6000e+001 206024 -1.5057e+006 -3.5619e+006 -1.0320e+006 159004 205923,205975,205949
 4.6000e+001 206001 -6.3764e+005 -3.7891e+006 -4.6387e+005 159004 205897,205975,205923
 4.6000e+001 206127 -2.7932e+006 -2.3347e+006  2.9330e+003 158364 206049,206101,206075
 4.6000e+001 206328  1.3923e+004 -5.3887e+004  4.7958e+004 157960 206178,206256,206204
 4.6000e+001 206305  2.9441e+004 -9.6435e+004 -2.4121e+004 157960 206152,206256,206178
 4.6000e+001 206282 -3.2127e+004 -4.6827e+004  2.9008e+004 157960 206204,206256,206230
 4.6000e+001 206529 -1.0573e+006 -1.1466e+007  7.1746e+005 157648 206405,206457,206431
 4.6000e+001 206506 -4.8605e+006 -6.9280e+006 -7.0455e+005 157648 206379,206457,206405
 4.6000e+001 206483 -2.4823e+006 -5.2466e+006  9.0136e+005 157648 206353,206457,206379
 4.6000e+001 206730  7.8136e+005 -5.4272e+006  5.2502e+004 157208 206554,206606,206580
 4.6000e+001 206707  4.5144e+005 -6.0383e+006  1.0952e+006 157208 206554,206632,206606
 4.6000e+001 206684 -3.8585e+006 -5.4161e+005 -1.9577e+006 157208 206554,206658,206632
 4.6000e+001 206882 -7.0849e+003 -3.5835e+004 -6.4606e+003 157010 206755,206807,206781
 4.6000e+001 206859  1.1951e+003 -9.0986e+004  2.1909e+004 157010 206755,206833,206807
 4.6000e+001 207034 -7.0510e+004 -2.0482e+006 -4.5093e+004 156620 206907,206959,206933
 4.6000e+001 207011  6.2771e+004 -3.5832e+006  3.0591e+004 156620 206907,206985,206959
 4.6000e+001 207186 -4.1027e+004 -1.8624e+006  6.0504e+004 156330 207085,207137,207111
 4.6000e+001 207163 -2.0480e+005 -2.0011e+006 -9.2690e+005 156330 207059,207137,207085
 4.6000e+001 207387 -1.1038e+006 -5.0239e+006  1.8914e+006 155890 207211,207289,207237
 4.6000e+001 207364 -6.3828e+005 -5.0912e+006 -9.2510e+005 155890 207211,207315,207289
 4.6000e+001 207341 -1.3107e+006 -4.8408e+006  1.9893e+006 155890 207237,207289,207263
 4.6000e+001 207588  7.4839e+005 -2.7031e+007  7.8503e+006 155436 207438,207490,207464
 4.6000e+001 207565 -2.9939e+005 -2.1277e+007 -6.5064e+005 155436 207412,207490,207438
 4.6000e+001 207542 -2.0671e+006 -1.1891e+007 -9.5262e+005 155436 207412,207516,207490
 4.6000e+001 207789  2.1627e+006 -4.0489e+007 -2.5197e+006 155260 207639,207691,207665
 4.6000e+001 207766 -4.6718e+006 -1.4138e+007  5.6726e+006 155260 207613,207691,207639
 4.6000e+001 207743 -8.8898e+005 -1.1035e+007 -7.1590e+004 155260 207613,207717,207691
 4.6000e+001 207990 -6.0621e+002 -1.1616e+004  3.9358e+003 154920 207840,207918,207892
 4.6000e+001 207967  1.9493e+003 -1.4068e+004 -3.8215e+003 154920 207814,207918,207840
 4.6000e+001 207944 -1.0046e+003 -3.3908e+003 -1.3496e+003 154920 207840,207892,207866
 4.6000e+001 208191 -4.2317e+005 -6.0695e+006 -1.4301e+006 154630 208015,208093,208041
 4.6000e+001 208168 -3.3618e+004 -3.3384e+006 -1.2068e+006 154630 208015,208119,208093
 4.6000e+001 208145 -1.9728e+006 -2.8751e+006 -2.3817e+006 154630 208041,208093,208067
 4.6000e+001 208343  7.3552e-002  2.2787e-004  4.0939e-003 154240 208216,208268,208242
 4.6000e+001 208320 -1.4063e-001 -4.3568e-004 -7.8275e-003 154240 208216,208294,208268
 4.6000e+001 208495  3.6139e+006 -2.6406e+007 -7.4058e+006 153950 208394,208446,208420
 4.6000e+001 208472 -1.8059e+006 -1.0871e+007  3.3298e+006 153950 208368,208446,208394
 4.6000e+001 208647 -1.6439e+006 -1.0692e+007  8.4493e+006 153603 208520,208572,208546
 4.6000e+001 208624 -5.2120e+006 -4.7637e+006 -4.7088e+006 153603 208520,208598,208572
 4.6000e+001 208848 -2.0483e+005 -1.8207e+006  7.1722e+005 153149 208698,208776,208724
 4.6000e+001 208825  2.7924e+005 -4.0937e+006 -4.2914e+005 153149 208672,208776,208698
 4.6000e+001 208802 -7.6019e+005 -1.0362e+006  4.9223e+005 153149 208724,208776,208750
 4.6000e+001 209000 -1.1964e+006 -9.4371e+006 -3.2139e+005 152859 208873,208925,208899
 4.6000e+001 208977 -1.3830e+005 -1.5575e+007  6.4365e+005 152859 208873,208951,208925
 4.6000e+001 209152  7.6371e+005 -1.3188e+007 -1.9761e+005 152569 209051,209103,209077
 4.6000e+001 209129  3.8347e+005 -1.3889e+007 -6.3555e+005 152569 209025,209103,209051
 4.6000e+001 209304 -3.1909e-001 -4.4371e-001 -3.7627e-001 152065 209177,209229,209203
 4.6000e+001 209281  7.2938e-001  1.0142e+000  8.6009e-001 152065 209177,209255,209229
 4.6000e+001 209456  4.0241e+005 -1.0519e+007 -4.9136e+004 151775 209355,209407,209381
 4.6000e+001 209433  1.2525e+006 -1.6128e+007 -4.0613e+004 151775 209329,209407,209355
 4.6000e+001 209608 -1.0217e+006 -1.4289e+007 -8.0272e+005 151371 209481,209533,209507
 4.6000e+001 209585  8.9811e+005 -1.9530e+007  6.6606e+005 151371 209481,209559,209533
 4.6000e+001 209760 -2.8211e+005 -3.6441e+006 -3.3750e+005 150981 209659,209711,209685
 4.6000e+001 209737 -1.0173e+006 -4.3542e+006 -2.7139e+006 150981 209633,209711,209659
 4.6000e+001 209912  2.8183e+006 -4.0822e+007 -3.4154e+006 150619 209811,209863,209837
 4.6000e+001 209889 -3.5043e+006 -1.8359e+007  4.3095e+006 150619 209785,209863,209811
 4.6000e+001 210064 -7.1889e+005 -9.2812e+005 -5.9521e+005 150279 209937,209989,209963
 4.6000e+001 210041  1.0854e+005 -8.4087e+006 -2.5929e+006 150279 209937,210015,209989
 4.6000e+001 210265 -1.8546e+006 -1.5746e+007  5.0675e+005 149989 210115,210167,210141
 4.6000e+001 210242 -6.3479e+005 -1.7124e+007 -1.1341e+006 149989 210115,210193,210167
 4.6000e+001 210219  3.0811e+005 -1.8407e+007 -5.3059e+005 149989 210089,210193,210115
 4.6000e+001 210417 -5.5179e+006 -2.6535e+006 -3.4856e+004 149599 210316,210368,210342
 4.6000e+001 210394 -3.0077e+006 -7.9493e+006 -2.8950e+005 149599 210290,210368,210316
 4.6000e+001 210618 -3.4740e+006 -1.4965e+007  4.1872e+006 149095 210468,210520,210494
 4.6000e+001 210595 -4.1763e+006 -1.4929e+007  1.8632e+006 149095 210442,210520,210468
 4.6000e+001 210572 -2.0737e+006 -2.6944e+007  3.1533e+006 149095 210442,210546,210520
 4.6000e+001 210819 -2.2138e+002 -6.7612e+003 -8.1385e+002 148748 210695,210747,210721
 4.6000e+001 210796  5.4348e+001 -5.5401e+003 -7.2827e+002 148748 210669,210747,210695
 4.6000e+001 210773 -1.0534e+003 -2.9380e+003  1.4021e+003 148748 210643,210747,210669
 4.6000e+001 210971 -1.0924e+002 -1.7638e+002 -8.5851e+001 148408 210870,210922,210896
 4.6000e+001 210948  4.0471e+001 -3.2667e+002  1.0192e+002 148408 210844,210922,210870
 4.6000e+001 211123 -6.4281e+005 -1.0180e+007  1.1250e+006 148118 210996,211048,211022
 4.6000e+001 211100 -4.6965e+005 -1.2030e+007  4.8256e+006 148118 210996,211074,211048
 4.6000e+001 211275 -2.3346e+006 -7.7787e+006  8.2964e+005 147778 211148,211200,211174
 4.6000e+001 211252 -5.5140e+005 -1.9176e+007  8.4799e+006 147778 211148,211226,211200
 4.6000e+001 211427 -7.5061e+005 -7.0471e+006  2.3834e+006 147324 211326,211378,211352
 4.6000e+001 211404  9.5839e+005 -9.9870e+006  1.6503e+006 147324 211300,211378,211326
 4.6000e+001 211628  2.9270e+002 -2.0368e+002  5.2321e+001 147012 211452,211504,211478
 4.6000e+001 211605  2.8234e+002 -2.6775e+002  5.2628e+001 147012 211452,211556,211504
 4.6000e+001 211582  1.6290e+002 -5.7721e+002 -4.2227e+001 147012 211504,211556,211530
 4.6000e+001 211829 -3.2169e+006 -5.9206e+006  2.5044e+006 146636 211679,211757,211731
 4.6000e+001 211806  3.1054e+006 -1.6499e+007 -1.4079e+005 146636 211653,211757,211679
 4.6000e+001 211783  9.9875e+005 -6.5812e+006  4.0982e+006 146636 211679,211731,211705
 4.6000e+001 211981 -1.3878e+003 -1.5200e+003  2.4029e+000 146246 211880,211932,211906
 4.6000e+001 211958 -1.3801e+003 -4.7914e+002  1.9678e+000 146246 211854,211932,211880
 4.6000e+001 212133 -5.3266e+001 -6.9392e+002 -1.3031e+002 145956 212006,212058,212032
 4.6000e+001 212110 -3.1571e+002 -6.0842e+002 -1.5842e+002 145956 212006,212084,212058
 4.6000e+001 212285 -3.6522e+002 -1.1747e+003  5.7405e+002 145544 212184,212236,212210
 4.6000e+001 212262 -5.0438e+002 -3.3128e+002  3.8103e+002 145544 212158,212236,212184
 4.6000e+001 212486  1.6474e+005 -1.6278e+007  3.2719e+006 144990 212362,212414,212388
 4.6000e+001 212463  1.2788e+005 -1.2499e+007  5.2796e+006 144990 212310,212414,212362
 4.6000e+001 212440 -3.7783e+006 -2.8036e+006  2.4969e+006 144990 212310,212362,212336
 4.6000e+001 212638 -1.4959e+003 -2.6719e+004 -6.4544e+003 144600 212537,212589,212563
 4.6000e+001 212615 -1.1533e+003 -2.5095e+004 -5.9799e+003 144600 212511,212589,212537
 4.6000e+001 212839 -4.8064e+004 -6.8103e+005 -6.9595e+004 144210 212689,212741,212715
 4.6000e+001 212816 -9.6673e+003 -8.9954e+005  1.5566e+005 144210 212663,212741,212689
 4.6000e+001 212793 -1.3170e+004 -7.9742e+005  7.1765e+004 144210 212663,212767,212741
 4.6000e+001 212991 -5.7836e+002 -1.5204e+003  8.8199e+002 143920 212890,212942,212916
 4.6000e+001 212968  1.3830e+003 -9.4162e+003  7.5531e+002 143920 212864,212942,212890
 4.6000e+001 213143 -2.1157e+002  5.9744e+001  2.5190e+002 143480 213016,213068,213042
 4.6000e+001 213120 -2.0722e+001  2.0695e+002  1.2889e+002 143480 213016,213094,213068
 4.6000e+001 213295 -2.4520e+006 -8.6911e+006  5.5799e+006 142990 213194,213246,213220
 4.6000e+001 213272 -3.0476e+006 -3.4550e+006  2.2124e+006 142990 213168,213246,213194
 4.6000e+001 213447  7.3210e+004 -3.3434e+006  4.7322e+005 142600 213320,213372,213346
 4.6000e+001 213424 -2.1287e+005 -2.2918e+006 -4.0389e+005 142600 213320,213398,213372
 4.6000e+001 213599  1.5014e+004 -1.9738e+005 -8.0736e+004 142260 213472,213524,213498
 4.6000e+001 213576  5.0333e+003 -2.2049e+005 -1.7658e+003 142260 213472,213550,213524
 4.6000e+001 213751 -2.1373e+005 -7.6303e+005 -3.7138e+005 141870 213624,213676,213650
 4.6000e+001 213728 -4.0129e+005 -6.5202e+005 -5.9130e+005 141870 213624,213702,213676
 4.6000e+001 213903 -1.1779e+006 -2.3164e+006 -1.6443e+006 141530 213776,213828,213802
 4.6000e+001 213880 -5.3165e+005 -2.5797e+006 -1.0947e+006 141530 213776,213854,213828
 4.6000e+001 214055 -7.3927e+000 -1.6409e+002  1.7415e+001 141218 213928,213980,213954
 4.6000e+001 214032 -6.8597e+001 -1.5650e+002  3.2920e+001 141218 213928,214006,213980
 4.6000e+001 214207 -4.2198e+001 -3.0963e+001 -5.3283e+001 140928 214080,214132,214106
 4.6000e+001 214184  1.1021e+002  9.7602e+000 -6.0321e+001 140928 214080,214158,214132
 4.6000e+001 214359 -2.0125e+005 -1.6470e+005 -2.3736e+005 140538 214232,214284,214258
 4.6000e+001 214336  8.3649e+004 -5.7077e+005  9.3675e+004 140538 214232,214310,214284
 4.6000e+001 214560 -6.6194e+004 -3.0893e+006  1.8341e+005 140248 214384,214462,214410
 4.6000e+001 214537  1.4831e+005 -1.5259e+006 -8.4240e+003 140248 214384,214488,214462
 4.6000e+001 214514 -2.8061e+005 -1.9290e+006 -3.3389e+005 140248 214410,214462,214436
 4.6000e+001 214712 -9.7863e+005 -9.0128e+006  2.1617e+006 140000 214611,214663,214637
 4.6000e+001 214689 -1.1327e+006 -5.3209e+006  1.6932e+006 140000 214585,214663,214611
 4.6000e+001 214913 -5.1541e+005 -1.8915e+006 -1.1880e+006 139596 214737,214815,214763
 4.6000e+001 214890 -4.8868e+005 -3.6430e+005 -1.9262e+005 139596 214737,214841,214815
 4.6000e+001 214867  4.5630e+005 -4.1874e+006 -7.0689e+005 139596 214763,214815,214789
 4.6000e+001 215016 -5.3821e+002 -1.3741e+001 -1.5662e+002 139420 214938,214990,214964
 4.6000e+001 215168 -2.4625e+006 -1.1397e+007  5.3354e+006 139130 215067,215119,215093
 4.6000e+001 215145 -1.2295e+006 -1.1843e+007  3.0607e+006 139130 215041,215119,215067
 4.6000e+001 215320 -1.7288e+006 -5.5620e+006  2.7399e+006 138790 215219,215271,215245
 4.6000e+001 215297 -7.8522e+005 -1.2679e+007  4.7096e+006 138790 215193,215271,215219
 4.6000e+001 215472 -2.9693e+004 -1.3573e+005  4.6892e+004 138514 215345,215397,215371
 4.6000e+001 215449 -4.3299e+004 -2.1991e+005  1.1264e+005 138514 215345,215423,215397
 4.6000e+001 215624 -4.5532e+004 -1.1028e+007  1.3807e+006 138174 215497,215549,215523
 4.6000e+001 215601  1.2252e+004 -8.0883e+006  9.1636e+005 138174 215497,215575,215549
 4.6000e+001 215776 -3.2718e+005 -1.5265e+006  1.0193e+006 137734 215649,215701,215675
 4.6000e+001 215753 -3.1682e+005 -8.1571e+005 -6.0038e+005 137734 215649,215727,215701
 4.6000e+001 215977  6.0446e+005 -2.0483e+007  5.0542e+006 137344 215801,215879,215827
 4.6000e+001 215954 -1.6996e+006 -8.6120e+006 -3.7247e+006 137344 215801,215905,215879
 4.6000e+001 215931 -1.3785e+006 -2.5367e+007  1.2235e+006 137344 215827,215879,215853
 4.6000e+001 216129 -3.7272e+005 -5.3014e+006 -3.8357e+005 136940 216028,216080,216054
 4.6000e+001 216106 -7.4597e+005 -7.2452e+006 -3.1164e+005 136940 216002,216080,216028
 4.6000e+001 216330 -4.2022e+005 -9.8377e+006  1.5270e+006 136600 216180,216232,216206
 4.6000e+001 216307 -1.9164e+005 -9.9182e+006  2.2670e+006 136600 216154,216232,216180
 4.6000e+001 216284 -1.4320e+006 -6.7166e+006  7.2104e+005 136600 216154,216258,216232
 4.6000e+001 216482  7.9544e+005 -7.3446e+006  1.0832e+006 136260 216381,216433,216407
 4.6000e+001 216459  4.1551e+005 -8.1761e+006  7.6879e+005 136260 216355,216433,216381
 4.6000e+001 216634 -1.1938e+006 -8.6988e+006  2.9167e+006 135970 216533,216585,216559
 4.6000e+001 216611 -6.4908e+005 -1.1660e+007  3.3879e+006 135970 216507,216585,216533
 4.6000e+001 216835 -9.2737e+005 -3.4132e+006 -1.3759e+006 135608 216685,216763,216711
 4.6000e+001 216812 -2.0511e+005 -2.1830e+006  2.0750e+005 135608 216659,216763,216685
 4.6000e+001 216789 -6.7254e+005 -1.0818e+007  2.2019e+005 135608 216711,216763,216737
 4.6000e+001 217036 -1.4381e+006 -1.0050e+006  6.0104e+005 135312 216912,216964,216938
 4.6000e+001 217013 -1.0355e+006 -3.8902e+006  2.5413e+006 135312 216886,216964,216912
 4.6000e+001 216990  1.2114e+006 -9.2064e+006  1.3896e+006 135312 216860,216964,216886
 4.6000e+001 217237 -3.4454e+004 -3.6089e+005  1.4986e+005 134908 217061,217139,217113
 4.6000e+001 217214  4.1968e+004 -3.2465e+005  7.5745e+004 134908 217061,217165,217139
 4.6000e+001 217191  8.2816e+004 -5.6087e+005  2.0932e+005 134908 217061,217113,217087
 4.6000e+001 217438 -2.6864e+006 -2.3674e+007  1.3250e+006 134568 217288,217366,217314
 4.6000e+001 217415  2.8992e+006 -3.8158e+007  1.2329e+006 134568 217262,217366,217288
 4.6000e+001 217392 -5.3326e+005 -2.2033e+007 -6.8426e+005 134568 217314,217366,217340
 4.6000e+001 217590 -2.5438e+004 -1.5309e+005  2.8101e+004 134106 217463,217515,217489
 4.6000e+001 217567 -4.2092e+004 -2.0805e+005  1.0767e+005 134106 217463,217541,217515
 4.6000e+001 217791 -2.1158e+006 -3.1999e+007 -8.6836e+006 133816 217641,217693,217667
 4.6000e+001 217768  3.5752e+006 -3.6576e+007  3.8049e+006 133816 217641,217719,217693
 4.6000e+001 217745 -7.5066e+006 -3.8477e+006  5.3743e+006 133816 217615,217719,217641
 4.6000e+001 217992 -3.6583e+006 -5.6578e+006  4.6043e+006 133355 217842,217920,217894
 4.6000e+001 217969  1.2173e+006 -1.6611e+007 -3.7801e+005 133355 217816,217920,217842
 4.6000e+001 217946 -1.3088e+005 -3.1756e+006  1.0420e+006 133355 217842,217894,217868
 4.6000e+001 218193 -7.4613e+005 -8.8007e+006 -3.0611e+006 132851 218017,218095,218069
 4.6000e+001 218170 -3.7707e+006 -1.1107e+007  7.7216e+006 132851 218017,218121,218095
 4.6000e+001 218147 -3.7608e+006 -6.0515e+006 -2.8150e+006 132851 218017,218069,218043
 4.6000e+001 218345 -2.3472e+005 -2.3483e+006  6.5426e+005 132511 218244,218296,218270
 4.6000e+001 218322 -1.8986e+005 -3.0702e+006  7.9477e+005 132511 218218,218296,218244
 4.6000e+001 218497  8.4799e+005 -3.5761e+007 -1.5233e+006 132235 218396,218448,218422
 4.6000e+001 218474 -1.8066e+006 -1.0938e+007  3.8328e+005 132235 218370,218448,218396
 4.6000e+001 218698 -4.1807e+005 -1.0785e+007 -6.0713e+005 131945 218574,218626,218600
 4.6000e+001 218675 -2.5935e+006 -2.0168e+007 -3.8416e+005 131945 218522,218626,218574
 4.6000e+001 218652 -9.8796e+005 -1.7047e+007 -1.8131e+006 131945 218522,218574,218548
 4.6000e+001 218850 -3.4965e+005 -2.2845e+007 -6.8287e+005 131655 218723,218775,218749
 4.6000e+001 218827  2.9876e+005 -1.4425e+007 -4.6085e+005 131655 218723,218801,218775
 4.6000e+001 218953 -1.5937e+005 -4.1597e+006  3.4788e+005 131215 218875,218927,218901
 4.6000e+001 219105 -2.6635e+005 -7.0355e+006 -2.0956e+006 130875 218978,219030,219004
 4.6000e+001 219082 -6.9904e+005 -1.9252e+006 -5.9374e+005 130875 218978,219056,219030
 4.6000e+001 219306 -1.5300e+005 -5.3342e+006 -6.1621e+005 130429 219156,219234,219208
 4.6000e+001 219283 -7.1445e+005 -1.9667e+006  3.7570e+004 130429 219130,219234,219156
 4.6000e+001 219260 -2.9675e+006 -6.1900e+006  1.2727e+006 130429 219156,219208,219182
 4.6000e+001 219507 -2.4829e+004 -9.7638e+005  6.4512e+004 130025 219383,219435,219409
 4.6000e+001 219484  2.9110e+002 -1.0892e+006  1.3611e+005 130025 219331,219435,219383
 4.6000e+001 219461 -1.1194e+005 -4.7631e+005 -1.2003e+005 130025 219331,219383,219357
 4.6000e+001 219659 -1.5038e+006 -7.1496e+006  7.4234e+005 129685 219558,219610,219584
 4.6000e+001 219636  1.5206e+005 -1.2209e+007 -5.6896e+006 129685 219532,219610,219558
 4.6000e+001 219860  6.0244e+004 -3.7694e+006  9.6045e+005 129395 219710,219788,219762
 4.6000e+001 219837 -1.0581e+006 -2.1707e+006  4.2243e+005 129395 219684,219788,219710
 4.6000e+001 219814  6.7938e+005 -5.8907e+006 -6.2209e+005 129395 219710,219762,219736
 4.6000e+001 220061  2.5389e+005 -4.1178e+006  3.5421e+005 128991 219937,219989,219963
 4.6000e+001 220038  4.4348e+004 -3.8778e+006  3.2120e+005 128991 219885,219989,219937
 4.6000e+001 220015 -1.5354e+005 -4.9413e+006  5.4281e+005 128991 219885,219937,219911
 4.6000e+001 220262 -5.7169e+005 -2.5792e+006  2.2125e+005 128701 220086,220164,220112
 4.6000e+001 220239 -4.0735e+005 -3.5106e+006  5.9375e+005 128701 220086,220190,220164
 4.6000e+001 220216 -2.6390e+005 -2.8483e+006 -3.4829e+005 128701 220112,220164,220138
 4.6000e+001 220463 -3.6269e+006 -9.5422e+006  3.7875e+006 128297 220339,220391,220365
 4.6000e+001 220440  2.1924e+006 -2.1893e+007  7.8407e+005 128297 220313,220391,220339
 4.6000e+001 220417 -2.2229e+005 -2.5742e+007 -5.0389e+006 128297 220287,220391,220313
 4.6000e+001 220615 -1.2850e+006 -4.2705e+006 -9.9474e+005 128007 220488,220540,220514
 4.6000e+001 220592  1.1961e+006 -1.3057e+007  3.3506e+005 128007 220488,220566,220540
 4.6000e+001 220767 -1.3437e+004 -4.5856e+006  2.5118e+005 127567 220640,220692,220666
 4.6000e+001 220744 -1.1636e+005 -2.4900e+006  1.0419e+005 127567 220640,220718,220692
 4.6000e+001 220919 -6.7910e+005 -1.9079e+007 -2.0190e+006 127163 220792,220844,220818
 4.6000e+001 220896  1.4615e+006 -2.2555e+007  2.5878e+006 127163 220792,220870,220844
 4.6000e+001 221071 -1.2672e+006 -4.0512e+006  1.5005e+006 126915 220970,221022,220996
 4.6000e+001 221048 -8.3423e+005 -5.1529e+006  1.2052e+006 126915 220944,221022,220970
 4.6000e+001 221272 -2.2442e+006 -4.5447e+006  3.2693e+006 126461 221122,221174,221148
 4.6000e+001 221249 -4.9753e+006 -5.9696e+006  8.3222e+005 126461 221122,221200,221174
 4.6000e+001 221226  1.3392e+006 -1.4977e+007 -3.0478e+006 126461 221096,221200,221122
 4.6000e+001 221375 -5.7742e+001 -1.1848e+005  1.7938e+002 126213 221297,221349,221323
 4.6000e+001 221478  4.5676e+002 -2.4985e+004 -1.7526e+001 125766 221400,221452,221426
 4.6000e+001 221679 -1.1676e+005 -2.5026e+006  2.4128e+005 125212 221503,221555,221529
 4.6000e+001 221656 -1.7633e+005 -3.2907e+006  1.0073e+003 125212 221503,221581,221555
 4.6000e+001 221633  5.2427e+005 -7.1058e+006  1.7984e+006 125212 221503,221607,221581
 4.6000e+001 221929 -2.7805e+003 -2.5131e+002 -9.5567e+002 124872 221782,221834,221808
 4.6000e+001 221906 -7.1653e+003 -3.7311e+002  4.0051e+003 124872 221756,221834,221782
 4.6000e+001 221883 -1.9174e+004 -3.1489e+002 -1.1596e+004 124872 221704,221834,221756
 4.6000e+001 221860 -5.5129e+004 -1.8203e+004  4.2576e+004 124872 221704,221756,221730
 4.6000e+001 222130 -5.3520e+005 -1.0405e+007 -7.4481e+005 124582 221980,222058,222006
 4.6000e+001 222107 -2.5958e+006 -1.0201e+007 -4.1619e+005 124582 221954,222058,221980
 4.6000e+001 222084 -1.7700e+006 -1.1041e+007 -1.3592e+006 124582 222006,222058,222032
 4.6000e+001 222282 -2.3874e+006 -1.1265e+007 -2.8575e+006 124192 222181,222233,222207
 4.6000e+001 222259 -8.7205e+005 -1.0297e+007 -2.0041e+006 124192 222155,222233,222181
 4.6000e+001 222483 -2.0958e+005 -4.9274e+006 -2.2870e+006 123702 222333,222385,222359
 4.6000e+001 222460 -2.8133e+005 -3.0421e+006  1.3566e+005 123702 222333,222411,222385
 4.6000e+001 222437 -2.6189e+005 -1.0832e+006 -2.8069e+005 123702 222307,222411,222333
 4.6000e+001 222635 -7.7351e+005 -1.3129e+006 -6.7916e+005 123312 222508,222560,222534
 4.6000e+001 222612  4.5448e+005 -6.3451e+006 -4.0677e+005 123312 222508,222586,222560
 4.6000e+001 222787 -3.9487e+004 -2.0581e+006 -8.0174e+004 122858 222686,222738,222712
 4.6000e+001 222764 -1.6728e+005 -2.2223e+006 -4.0607e+005 122858 222660,222738,222686
 4.6000e+001 222939 -2.7869e+005 -1.8598e+006 -3.3061e+004 122568 222812,222864,222838
 4.6000e+001 222916 -2.8122e+005 -1.3354e+006  3.9185e+005 122568 222812,222890,222864
 4.6000e+001 223091 -1.8946e+005 -3.6000e+006 -7.5341e+005 122392 222964,223016,222990
 4.6000e+001 223068  1.8293e+005 -3.9163e+006 -3.9894e+005 122392 222964,223042,223016
 4.6000e+001 223292 -1.9411e+005 -6.5983e+006 -4.2573e+005 121852 223142,223220,223194
 4.6000e+001 223269 -9.6818e+005 -7.1467e+006 -8.1416e+005 121852 223116,223220,223142
 4.6000e+001 223246 -1.2322e+005 -6.4204e+006 -8.8948e+005 121852 223142,223194,223168
 4.6000e+001 223493 -9.2619e+005 -6.8508e+006  1.7040e+004 121406 223343,223395,223369
 4.6000e+001 223470 -2.9232e+006 -5.6526e+006 -1.2427e+006 121406 223343,223421,223395
 4.6000e+001 223447 -9.2384e+005 -3.7020e+006  1.2284e+006 121406 223317,223421,223343
 4.6000e+001 223645  3.5276e+005 -1.1025e+007  1.0627e+006 121002 223544,223596,223570
 4.6000e+001 223622 -1.1526e+006 -6.3959e+006  1.3002e+006 121002 223518,223596,223544
 4.6000e+001 223846 -2.6522e+005 -7.9718e+006  1.1597e+005 120662 223670,223748,223696
 4.6000e+001 223823  5.2936e+005 -4.6861e+006  3.1812e+004 120662 223670,223774,223748
 4.6000e+001 223800 -1.2071e+006 -3.2588e+006 -1.4681e+006 120662 223696,223748,223722
 4.6000e+001 224047 -5.1136e+005 -4.3000e+006  1.2624e+006 120222 223897,223949,223923
 4.6000e+001 224024  7.2250e+005 -6.0644e+006 -6.1806e+005 120222 223871,223949,223897
 4.6000e+001 224001 -8.7204e+005 -3.8633e+006 -1.1466e+006 120222 223871,223975,223949
 4.6000e+001 224248  2.9028e+005 -3.5623e+006 -1.4073e+006 119875 224124,224176,224150
 4.6000e+001 224225 -1.2619e+006 -7.4747e+006 -2.5764e+006 119875 224098,224176,224124
 4.6000e+001 224202 -4.3952e+005 -1.4641e+006  1.1636e+005 119875 224072,224176,224098
 4.6000e+001 224449 -1.5074e+005 -4.9425e+006 -3.8212e+005 119677 224325,224377,224351
 4.6000e+001 224426 -4.6536e+005 -6.2031e+006 -2.6291e+005 119677 224299,224377,224325
 4.6000e+001 224403 -5.8347e+004 -1.5749e+006 -3.8094e+004 119677 224273,224377,224299
 4.6000e+001 224552 -4.6830e+005 -1.5011e+006 -3.6171e+005 119273 224474,224526,224500
 4.6000e+001 224704 -4.1775e+005 -7.0396e+006 -3.6412e+005 118983 224603,224655,224629
 4.6000e+001 224681 -1.6633e+004 -9.1603e+006 -1.5750e+006 118983 224577,224655,224603
 4.6000e+001 224856 -6.9096e+005 -5.6097e+006 -5.2463e+005 118529 224755,224807,224781
 4.6000e+001 224833  1.6167e+005 -1.0593e+007 -1.5934e+006 118529 224729,224807,224755
 4.6000e+001 225008 -9.1078e+005 -9.0836e+006  1.1061e+005 118353 224881,224933,224907
 4.6000e+001 224985 -3.9432e+005 -5.7844e+005 -8.6810e+004 118353 224881,224959,224933
 4.6000e+001 225209 -8.4717e+005 -6.1177e+006 -1.2088e+006 117949 225059,225137,225111
 4.6000e+001 225186 -2.8946e+005 -5.9230e+006 -1.0561e+006 117949 225033,225137,225059
 4.6000e+001 225163 -1.9871e+004 -8.4057e+006 -2.2620e+005 117949 225059,225111,225085
 4.6000e+001 225410 -7.3008e+004 -7.2833e+006  8.7125e+005 117559 225260,225338,225312
 4.6000e+001 225387 -1.0149e+006 -7.6916e+006  2.9950e+005 117559 225234,225338,225260
 4.6000e+001 225364 -5.9626e+005 -5.0480e+006 -1.7347e+006 117559 225260,225312,225286
 4.6000e+001 225611 -1.8841e+006 -1.0013e+007 -4.1482e+006 117361 225461,225513,225487
 4.6000e+001 225588 -3.5110e+005 -1.0566e+007  1.2877e+006 117361 225461,225539,225513
 4.6000e+001 225565 -1.5950e+006 -8.1066e+006  2.8595e+006 117361 225435,225539,225461
 4.6000e+001 225812  6.2287e+005 -7.6675e+006 -8.1051e+005 116900 225636,225714,225662
 4.6000e+001 225789  8.2526e+003 -5.2383e+006 -1.1372e+006 116900 225636,225740,225714
 4.6000e+001 225766 -1.9263e+004 -7.8786e+006 -3.8867e+005 116900 225662,225714,225688
 4.6000e+001 225964  3.2005e+004 -4.5437e+006 -2.4015e+005 116560 225837,225889,225863
 4.6000e+001 225941  1.9780e+005 -4.5134e+006 -3.0643e+005 116560 225837,225915,225889
 4.6000e+001 226165  2.0272e+005 -5.6431e+006 -5.7367e+005 116106 226015,226093,226041
 4.6000e+001 226142 -1.2245e+006 -6.2499e+006 -3.9071e+006 116106 225989,226093,226015
 4.6000e+001 226119 -3.8074e+006 -1.9031e+006  1.4311e+006 116106 226041,226093,226067
 4.6000e+001 226268 -1.7541e+006 -6.3721e+006  4.4066e+005 115716 226190,226242,226216
 4.6000e+001 226420 -5.0142e+005 -8.8532e+006  1.9561e+006 115376 226293,226345,226319
 4.6000e+001 226397 -7.9768e+005 -9.0260e+006  2.1555e+006 115376 226293,226371,226345
 4.6000e+001 226621 -3.5825e+005 -1.4561e+006  1.4862e+005 114972 226497,226549,226523
 4.6000e+001 226598 -5.9607e+005 -8.4147e+006 -7.7782e+005 114972 226445,226549,226497
 4.6000e+001 226575 -1.2985e+005 -3.6831e+006  6.6762e+005 114972 226445,226497,226471
 4.6000e+001 226773 -7.5746e+005 -2.6517e+006 -1.0837e+006 114670 226646,226698,226672
 4.6000e+001 226750  4.3125e+005 -5.7580e+006  2.1874e+005 114670 226646,226724,226698
 4.6000e+001 226974  2.8618e+004 -1.4243e+006 -3.0552e+005 114082 226798,226850,226824
 4.6000e+001 226951  8.9797e+004 -2.0368e+006 -8.8272e+004 114082 226798,226902,226850
 4.6000e+001 226928  4.7198e+004 -2.7581e+006 -3.0936e+005 114082 226850,226902,226876
 4.6000e+001 227175 -6.4383e+005 -4.8904e+006 -2.0419e+006 113678 226999,227051,227025
 4.6000e+001 227152 -1.9323e+006 -8.3303e+006 -3.4375e+006 113678 226999,227077,227051
 4.6000e+001 227129 -8.5915e+005 -1.0032e+007 -4.2716e+006 113678 226999,227103,227077
 4.6000e+001 227425 -1.4420e+006 -8.7555e+006 -6.6851e+006 113274 227226,227278,227252
 4.6000e+001 227402  2.5330e+005 -8.1051e+006 -1.5540e+006 113274 227226,227330,227278
 4.6000e+001 227379 -2.1953e+006 -6.1202e+006 -1.9586e+006 113274 227200,227330,227226
 4.6000e+001 227356 -1.1535e+006 -1.7462e+006 -1.5433e+006 113274 227278,227330,227304
 4.6000e+001 227626  2.0260e+005 -4.7513e+006 -1.5604e+006 112934 227502,227554,227528
 4.6000e+001 227603  8.4747e+004 -3.2535e+006  6.2796e+004 112934 227450,227554,227502
 4.6000e+001 227580 -1.7612e+006 -1.6182e+006 -3.5120e+005 112934 227450,227502,227476
 4.6000e+001 227876 -3.6620e+005 -1.2222e+006 -3.1901e+004 112437 227677,227755,227703
 4.6000e+001 227853 -9.7226e+005 -1.4799e+006  7.6111e+005 112437 227677,227781,227755
 4.6000e+001 227830 -2.8803e+005 -7.2160e+005  2.7518e+005 112437 227703,227755,227729
 4.6000e+001 227807 -3.3193e+005 -4.0088e+006 -9.1425e+004 112437 227651,227781,227677
 4.6000e+001 228126 -4.3693e+005 -5.0385e+006 -9.4595e+004 112041 227927,228005,227953
 4.6000e+001 228103 -6.1542e+005 -5.2192e+006 -2.1626e+005 112041 227927,228031,228005
 4.6000e+001 228080 -2.3600e+005 -5.6012e+006  2.9030e+004 112041 227953,228005,227979
 4.6000e+001 228057 -1.6719e+006 -3.5648e+006 -9.0601e+005 112041 227901,228031,227927
 4.6000e+001 228327 -1.4222e+006 -3.6701e+006 -8.2141e+005 111693 228151,228203,228177
 4.6000e+001 228304 -8.6710e+005 -2.2501e+006 -1.2624e+006 111693 228151,228229,228203
 4.6000e+001 228281  1.5767e+005 -4.1148e+006  1.0253e+005 111693 228151,228255,228229
 4.6000e+001 228479 -3.1656e+006 -3.8076e+006 -3.7634e+006 111253 228352,228404,228378
 4.6000e+001 228456 -2.1822e+006 -1.7213e+006 -3.7516e+005 111253 228352,228430,228404
 4.6000e+001 228582 -1.9252e+006 -3.6187e+006 -1.0584e+005 110906 228504,228556,228530
 4.6000e+001 228783 -9.5880e+004 -1.0537e+006 -8.0177e+004 110416 228633,228711,228659
 4.6000e+001 228760  1.3864e+004 -5.0515e+005 -9.7409e+004 110416 228607,228711,228633
 4.6000e+001 228737 -9.5690e+004 -3.1836e+005 -4.0536e+004 110416 228659,228711,228685
 4.6000e+001 228935 -5.2619e+004 -3.7488e+006 -4.1169e+005 110012 228808,228860,228834
 4.6000e+001 228912 -7.9194e+005 -7.2105e+006 -1.1573e+006 110012 228808,228886,228860
 4.6000e+001 229087 -1.8229e+006 -3.3660e+006 -1.1116e+006 109672 228960,229012,228986
 4.6000e+001 229064 -1.1539e+006 -6.7350e+006  2.3760e+004 109672 228960,229038,229012
 4.6000e+001 229190  3.1536e+004 -7.4156e+005 -1.9328e+004 109332 229112,229164,229138
 4.6000e+001 229391  6.0413e+003 -2.7146e+005 -6.8476e+004 109156 229267,229319,229293
 4.6000e+001 229368 -8.9563e+004 -6.9883e+005 -1.1274e+005 109156 229215,229319,229267
 4.6000e+001 229345  1.2645e+004 -1.6807e+005 -2.9287e+004 109156 229215,229267,229241
 4.6000e+001 229543  3.5565e+004 -9.1561e+006  9.9055e+005 108752 229416,229468,229442
 4.6000e+001 229520 -3.4768e+005 -8.4610e+006  8.0359e+005 108752 229416,229494,229468
 4.6000e+001 229744 -4.5972e+005 -6.7733e+006 -5.3132e+005 108198 229594,229646,229620
 4.6000e+001 229721 -1.6546e+005 -6.8476e+006  1.2415e+006 108198 229594,229672,229646
 4.6000e+001 229698 -4.9882e+005 -7.9706e+006  5.5829e+005 108198 229568,229672,229594
 4.6000e+001 229847 -1.5722e+004 -6.6860e+005 -1.4884e+005 107758 229769,229821,229795
 4.6000e+001 230048 -8.2111e+005 -2.2634e+006 -4.9592e+005 107468 229898,229950,229924
 4.6000e+001 230025 -4.6860e+005 -2.1150e+006 -3.4752e+005 107468 229872,229950,229898
 4.6000e+001 230002 -8.3610e+005 -2.4260e+006 -9.2885e+004 107468 229872,229976,229950
 4.6000e+001 230298  1.6183e+005 -9.8985e+005  2.0623e+005 107121 230099,230203,230177
 4.6000e+001 230275  6.1418e+004 -5.4741e+005  1.6516e+005 107121 230073,230203,230099
 4.6000e+001 230252  1.8194e+005 -1.2777e+006 -5.5490e+005 107121 230099,230177,230151
 4.6000e+001 230229 -2.3452e+005 -1.3095e+006 -5.5410e+005 107121 230099,230151,230125
 4.6000e+001 230450  8.6880e+004 -1.1000e+006 -1.0076e+005 106823 230349,230401,230375
 4.6000e+001 230427 -6.0440e+004 -3.6763e+005  5.7289e+004 106823 230323,230401,230349
 4.6000e+001 230602 -9.9168e+005 -1.2041e+007 -5.4497e+006 106533 230501,230553,230527
 4.6000e+001 230579 -8.5692e+005 -1.0900e+007  1.6289e+006 106533 230475,230553,230501
 4.6000e+001 230803 -1.1517e+004 -5.2016e+005 -1.0614e+005 106029 230679,230731,230705
 4.6000e+001 230780 -1.0220e+005 -8.8336e+005 -1.0800e+005 106029 230653,230731,230679
 4.6000e+001 230757 -2.6199e+004 -3.4653e+005  2.0584e+004 106029 230627,230731,230653
 4.6000e+001 231004 -1.6435e+005 -1.3844e+006  1.0768e+003 105689 230854,230906,230880
 4.6000e+001 230981 -1.5462e+005 -2.1812e+006 -8.3694e+005 105689 230828,230906,230854
 4.6000e+001 230958 -5.3515e+005 -2.0468e+006 -9.5062e+005 105689 230828,230932,230906
 4.6000e+001 231156 -8.4099e+005 -4.8323e+006  9.0760e+005 105377 231055,231107,231081
 4.6000e+001 231133  6.6832e+005 -9.9400e+006 -4.2792e+005 105377 231029,231107,231055
 4.6000e+001 231406 -8.5337e+005 -8.4166e+006 -2.8250e+005 104858 231207,231259,231233
 4.6000e+001 231383 -2.4042e+006 -8.2068e+006 -9.9181e+005 104858 231207,231311,231259
 4.6000e+001 231360 -1.1319e+006 -1.2242e+007 -2.2295e+006 104858 231259,231311,231285
 4.6000e+001 231337 -6.2658e+005 -1.1748e+007 -1.6669e+006 104858 231181,231311,231207
 4.6000e+001 231558 -1.7333e+006 -1.2158e+007  6.1847e+006 104418 231457,231509,231483
 4.6000e+001 231535 -9.2127e+005 -1.2528e+007 -6.1995e+006 104418 231431,231509,231457
 4.6000e+001 231710 -1.4401e+006 -1.0319e+006 -4.2973e+005 103978 231583,231635,231609
 4.6000e+001 231687 -1.0578e+006 -1.0314e+006 -6.4819e+005 103978 231583,231661,231635
 4.6000e+001 231862  2.8976e+003 -5.8649e+005 -6.4303e+004 103588 231761,231813,231787
 4.6000e+001 231839  6.9312e+003 -5.9024e+005 -4.6693e+004 103588 231735,231813,231761
 4.6000e+001 232014 -1.7449e+006 -8.1768e+006 -2.0883e+006 103248 231887,231939,231913
 4.6000e+001 231991 -8.3542e+005 -1.7388e+007 -5.1316e+006 103248 231887,231965,231939
 4.6000e+001 232215 -1.5876e+005 -2.9480e+006  1.2247e+005 102844 232039,232117,232065
 4.6000e+001 232192  1.1036e+005 -1.7374e+006  9.3646e+004 102844 232039,232143,232117
 4.6000e+001 232169 -3.7907e+005 -1.9771e+006 -5.4568e+005 102844 232065,232117,232091
 4.6000e+001 232416 -3.7984e+006 -1.0138e+007 -2.9220e+006 102554 232240,232318,232292
 4.6000e+001 232393  8.2076e+005 -1.5695e+007  4.8541e+005 102554 232240,232344,232318
 4.6000e+001 232370 -4.0942e+006 -3.8026e+006 -1.0111e+006 102554 232240,232292,232266
 4.6000e+001 232568  1.5107e+004 -1.9084e+006 -2.0777e+004 102100 232441,232493,232467
 4.6000e+001 232545 -3.6853e+005 -1.8742e+006 -3.0784e+005 102100 232441,232519,232493
 4.6000e+001 232769 -6.0091e+004 -7.8095e+005 -9.0127e+004 101596 232645,232697,232671
 4.6000e+001 232746 -3.1796e+004 -6.6597e+005 -1.1763e+005 101596 232593,232697,232645
 4.6000e+001 232723  8.5581e+004 -1.6712e+006 -1.1595e+005 101596 232593,232645,232619
 4.6000e+001 232921 -7.8157e+002 -7.9001e+002  1.8036e+002 101420 232794,232846,232820
 4.6000e+001 232898 -1.7458e+003 -2.4624e+002  1.4337e+003 101420 232794,232872,232846
 4.6000e+001 233073 -9.1612e+005 -9.0936e+005 -6.0427e+005 101023 232946,232998,232972
 4.6000e+001 233050  5.0596e+005 -2.6727e+006  7.5556e+005 101023 232946,233024,232998
 4.6000e+001 233225  1.1090e+005 -2.9469e+006 -1.1651e+004 100661 233098,233150,233124
 4.6000e+001 233202 -6.5050e+004 -2.1961e+006 -4.7891e+004 100661 233098,233176,233150
 4.6000e+001 233426 -2.0017e+006 -7.5401e+006 -2.4951e+006 100265 233276,233328,233302
 4.6000e+001 233403 -1.2840e+006 -6.3544e+006  1.6063e+005 100265 233276,233354,233328
 4.6000e+001 233380 -1.7440e+006 -1.0554e+007 -8.7521e+005 100265 233250,233354,233276
 4.6000e+001 233578 -3.1394e+004 -3.2843e+005 -7.5258e+004 100032 233451,233503,233477
 4.6000e+001 233555 -9.5687e+004 -3.4463e+005 -6.9366e+004 100032 233451,233529,233503
 4.6000e+001 233681 -5.8602e+005  6.6594e+003  2.9490e+004 99742 233603,233655,233629
 4.6000e+001 233784 -3.0788e+005 -3.0025e+006 -3.9976e+005 99402 233706,233758,233732
 4.6000e+001 233936 -6.1729e+005 -1.5805e+006 -9.1383e+003 99062 233835,233887,233861
 4.6000e+001 233913 -5.4844e+005 -1.3704e+006  2.6189e+005 99062 233809,233887,233835
 4.6000e+001 234088 -4.0413e+005 -4.8956e+006  1.3514e+006 98772 233987,234039,234013
 4.6000e+001 234065 -3.4269e+005 -4.8955e+006  1.2652e+006 98772 233961,234039,233987
 4.6000e+001 234240 -1.7030e+004 -6.8083e+004  2.3633e+004 98160 234139,234191,234165
 4.6000e+001 234217 -2.3348e+004 -7.6169e+004 -1.1709e+004 98160 234113,234191,234139
 4.6000e+001 234441  2.2284e+001  5.8169e+001  4.4292e+001 97820 234317,234369,234343
 4.6000e+001 234418  3.0319e+001  7.4583e+001 -9.9774e+001 97820 234291,234369,234317
 4.6000e+001 234395 -4.1352e+002  8.7929e+002 -1.6813e+002 97820 234265,234369,234291
 4.6000e+001 234593 -7.0144e+005 -1.0863e+006 -4.1732e+005 97366 234466,234518,234492
 4.6000e+001 234570  3.3925e+005 -3.9800e+006 -7.1953e+005 97366 234466,234544,234518
 4.6000e+001 234794 -9.3555e+005 -1.4629e+006 -1.0211e+006 96976 234618,234670,234644
 4.6000e+001 234771 -5.8588e+004 -3.0171e+006 -8.7703e+005 96976 234618,234722,234670
 4.6000e+001 234748 -2.7399e+005 -2.7481e+006 -1.3104e+006 96976 234670,234722,234696
 4.6000e+001 234946 -7.4909e+005 -2.6635e+006  1.2515e+006 96568 234845,234897,234871
 4.6000e+001 234923 -4.9130e+005 -1.3230e+006  1.0309e+006 96568 234819,234897,234845
 4.6000e+001 235196 -1.6744e+005 -1.1296e+006 -4.1375e+004 96216 234997,235075,235049
 4.6000e+001 235173 -1.4407e+005 -4.4819e+006  1.3503e+006 96216 234997,235101,235075
 4.6000e+001 235150 -6.9130e+005 -2.2958e+006  4.9339e+005 96216 234997,235049,235023
 4.6000e+001 235127 -8.7707e+004 -5.2157e+006 -2.7111e+005 96216 234971,235101,234997
 4.6000e+001 235348 -1.1647e+006 -2.7335e+006 -3.4306e+005 95863 235247,235299,235273
 4.6000e+001 235325 -1.1177e+006 -1.3193e+006 -6.9777e+005 95863 235221,235299,235247
 4.6000e+001 235500 -1.1841e+006 -2.9721e+006 -1.9114e+006 95339 235373,235425,235399
 4.6000e+001 235477 -7.1660e+005 -5.6522e+006  3.3181e+006 95339 235373,235451,235425
 4.6000e+001 235701  1.1119e+005 -4.1830e+006  9.7774e+005 95023 235525,235577,235551
 4.6000e+001 235678 -1.0475e+005 -3.5027e+006  4.3127e+005 95023 235525,235629,235577
 4.6000e+001 235655  1.4115e+004 -5.2856e+006  7.5296e+005 95023 235577,235629,235603
 4.6000e+001 235853  9.7796e+005 -1.0616e+007  1.2017e+006 94671 235726,235778,235752
 4.6000e+001 235830 -3.3052e+005 -8.1335e+006 -6.6152e+005 94671 235726,235804,235778
 4.6000e+001 236005 -1.1077e+006 -7.9922e+006 -1.1649e+006 94261 235904,235956,235930
 4.6000e+001 235982 -9.4012e+005 -9.0290e+006 -2.1585e+006 94261 235878,235956,235904
 4.6000e+001 236206 -5.4826e+005 -4.1025e+005  8.6899e+005 93853 236056,236134,236082
 4.6000e+001 236183 -1.2262e+006 -5.9945e+005  4.4623e+005 93853 236030,236134,236056
 4.6000e+001 236160 -6.8449e+005 -8.1453e+005  7.2003e+005 93853 236082,236134,236108
 4.6000e+001 236407 -6.4910e+005 -6.5750e+006  3.4219e+005 93557 236257,236309,236283
 4.6000e+001 236384 -1.8194e+006 -7.3631e+006 -1.9597e+006 93557 236231,236309,236257
 4.6000e+001 236361 -6.6445e+005 -1.2343e+007 -2.7039e+005 93557 236231,236335,236309
 4.6000e+001 236559 -2.4474e+003 -6.1960e+004  2.0418e+004 93149 236432,236484,236458
 4.6000e+001 236536  1.9624e+004 -2.0892e+004  4.3511e+004 93149 236432,236510,236484
 4.6000e+001 236711 -6.9208e+004 -1.1781e+005  3.6808e+004 92853 236584,236636,236610
 4.6000e+001 236688 -3.9536e+004 -3.0754e+005  6.6551e+004 92853 236584,236662,236636
 4.6000e+001 236912 -2.3152e+005 -3.6341e+006  1.4004e+006 92501 236736,236788,236762
 4.6000e+001 236889 -4.5655e+005 -1.9735e+006  4.6020e+005 92501 236736,236840,236788
 4.6000e+001 236866 -7.0376e+005 -2.8750e+006  5.6882e+005 92501 236788,236840,236814
 4.6000e+001 237113 -1.0801e+005 -4.8352e+006  4.8224e+005 92291 236963,237041,237015
 4.6000e+001 237090 -2.9800e+004 -2.9084e+006  1.4141e+005 92291 236937,237041,236963
 4.6000e+001 237067 -2.4040e+005 -4.5342e+006  1.0438e+006 92291 236963,237015,236989
 4.6000e+001 237265  1.8152e+005 -1.3099e+006 -5.3723e+005 91871 237138,237190,237164
 4.6000e+001 237242 -7.8618e+005 -3.4740e+006 -1.2942e+006 91871 237138,237216,237190
 4.6000e+001 237368  1.5727e+002 -1.3956e+006 -1.0932e+002 91581 237290,237342,237316
 4.6000e+001 237520 -2.1344e+004 -1.2516e+005  2.3678e+004 91184 237419,237471,237445
 4.6000e+001 237497 -4.7602e+004 -3.0118e+005 -1.3053e+005 91184 237393,237471,237419
 4.6000e+001 237672 -1.0359e+005 -1.8087e+006 -1.5399e+005 90894 237545,237597,237571
 4.6000e+001 237649 -8.8539e+004 -5.1273e+006  1.3861e+006 90894 237545,237623,237597
 4.6000e+001 237873 -1.2800e+006 -5.0678e+006  9.7491e+005 90490 237749,237801,237775
 4.6000e+001 237850 -7.3055e+005 -4.3951e+006  1.4282e+006 90490 237723,237801,237749
 4.6000e+001 237827 -9.1184e+005 -4.4520e+006 -5.2158e+005 90490 237697,237801,237723
 4.6000e+001 238074 -8.3253e+005 -6.2355e+006  5.0098e+005 90100 237898,237976,237950
 4.6000e+001 238051 -1.4724e+006 -6.3406e+006  4.7635e+005 90100 237898,238002,237976
 4.6000e+001 238028 -5.7230e+005 -6.0246e+006  3.0190e+005 90100 237898,237950,237924
 4.6000e+001 238275 -2.5789e+005 -2.8775e+006  1.0410e+006 89696 238125,238177,238151
 4.6000e+001 238252 -4.0140e+005 -1.8970e+006 -9.6124e+005 89696 238099,238177,238125
 4.6000e+001 238229 -5.9797e+005 -2.7648e+006 -7.7333e+005 89696 238099,238203,238177
 4.6000e+001 238427  1.3042e+004 -1.7278e+005 -6.5336e+004 89206 238326,238378,238352
 4.6000e+001 238404 -4.4734e+004 -3.1278e+005 -1.0965e+005 89206 238300,238378,238326
 4.6000e+001 238579 -1.1495e+006 -4.5863e+006  1.9747e+006 88908 238452,238504,238478
 4.6000e+001 238556 -2.4390e+005 -3.5514e+006  1.0642e+005 88908 238452,238530,238504
 4.6000e+001 238682 -5.0568e+001 -4.7563e+005 -1.2748e+002 88568 238604,238656,238630
 4.6000e+001 238883  1.9817e+005 -6.5713e+006  1.8687e+006 88278 238733,238811,238785
 4.6000e+001 238860 -7.9942e+005 -3.7383e+006  1.6423e+006 88278 238707,238811,238733
 4.6000e+001 238837 -2.4556e+005 -6.9350e+006  1.3045e+006 88278 238733,238785,238759
 4.6000e+001 239035 -1.4767e+006 -4.1979e+006 -4.3207e+005 87988 238908,238960,238934
 4.6000e+001 239012 -1.5595e+006 -1.9530e+006  1.8312e+005 87988 238908,238986,238960
 4.6000e+001 239138  1.3340e+004 -8.1308e+005  1.2874e+005 87648 239060,239112,239086
 4.6000e+001 239339 -1.0787e+006 -3.3033e+006 -2.0091e+006 87358 239163,239215,239189
 4.6000e+001 239316 -1.0798e+006 -2.1450e+006 -5.0008e+005 87358 239163,239241,239215
 4.6000e+001 239293 -8.1219e+005 -1.1197e+006 -9.5339e+005 87358 239163,239267,239241
 4.6000e+001 239589  6.5079e+002  3.3395e+002 -1.5444e+002 86961 239390,239468,239416
 4.6000e+001 239566  3.3783e+002  5.6154e+002  3.1859e+002 86961 239390,239494,239468
 4.6000e+001 239543  1.1870e+003  1.2723e+001  2.9919e+002 86961 239416,239468,239442
 4.6000e+001 239520 -6.5802e+002 -9.7086e+002 -4.3387e+002 86961 239364,239494,239390
 4.6000e+001 239741 -1.0661e+006 -3.7533e+006 -4.5459e+005 86621 239640,239692,239666
 4.6000e+001 239718 -1.0167e+005 -4.6050e+006 -1.0267e+006 86621 239614,239692,239640
 4.6000e+001 239893 -5.6680e+005 -5.9751e+006  1.6511e+006 86217 239792,239844,239818
 4.6000e+001 239870 -6.8811e+005 -4.8371e+006  1.0951e+006 86217 239766,239844,239792
 4.6000e+001 240045 -9.5182e+005 -4.2973e+006  9.4300e+005 85827 239918,239970,239944
 4.6000e+001 240022 -2.2539e+005 -4.0941e+006  3.0356e+005 85827 239918,239996,239970
 4.6000e+001 240197 -8.1502e+005 -8.4445e+006  1.0397e+006 85437 240096,240148,240122
 4.6000e+001 240174 -1.7738e+006 -2.0982e+006 -5.4901e+005 85437 240070,240148,240096
 4.6000e+001 240349 -1.4044e+005 -1.7848e+006  7.1678e+005 85147 240222,240274,240248
 4.6000e+001 240326 -1.1872e+005 -9.0534e+005 -1.1757e+005 85147 240222,240300,240274
 4.6000e+001 240501 -2.8007e+005 -1.3179e+006  5.5060e+005 84807 240374,240426,240400
 4.6000e+001 240478 -1.9230e+006 -2.2766e+006  1.3485e+006 84807 240374,240452,240426
 4.6000e+001 240653  2.1513e+002 -2.9073e+002 -5.7771e+002 84303 240552,240604,240578
 4.6000e+001 240630  4.1076e+002 -9.8694e+001 -2.7663e+002 84303 240526,240604,240552
 4.6000e+001 240854 -1.8554e+005 -1.2474e+007 -5.6605e+006 83929 240704,240756,240730
 4.6000e+001 240831  1.7582e+006 -1.0156e+007  2.5120e+006 83929 240704,240782,240756
 4.6000e+001 240808 -3.5382e+006  1.8515e+006  2.9352e+006 83929 240678,240782,240704
 4.6000e+001 241055 -8.9961e+001 -2.1865e+004 -5.3990e+003 83539 240879,240957,240931
 4.6000e+001 241032 -3.8036e+003 -2.0808e+004 -8.2617e+003 83539 240879,240983,240957
 4.6000e+001 241009 -7.1519e+003 -4.5135e+003 -5.5585e+003 83539 240879,240931,240905
 4.6000e+001 241207  1.2312e+005 -2.1799e+006  2.1817e+005 83079 241106,241158,241132
 4.6000e+001 241184 -2.1306e+005 -7.3190e+005  2.8397e+005 83079 241080,241158,241106
 4.6000e+001 241408  1.1994e+006 -4.1244e+006  3.2968e+005 82665 241232,241284,241258
 4.6000e+001 241385 -1.7069e+006 -1.3487e+007 -3.9430e+006 82665 241232,241336,241284
 4.6000e+001 241362 -4.1765e+006  4.7597e+006  6.9753e+006 82665 241284,241336,241310
 4.6000e+001 241658 -1.9468e+005 -4.3235e+006  5.2806e+005 82375 241485,241563,241511
 4.6000e+001 241635  5.3996e+004 -2.6611e+006  2.7498e+005 82375 241433,241563,241485
 4.6000e+001 241612 -6.7675e+004 -3.1199e+006  3.1911e+005 82375 241433,241485,241459
 4.6000e+001 241589 -6.2059e+005 -4.8794e+006  8.1793e+005 82375 241511,241563,241537
 4.6000e+001 241810 -9.4089e+005 -3.3106e+006 -3.7383e+005 82035 241683,241735,241709
 4.6000e+001 241787 -1.4408e+006 -4.2513e+006  8.0765e+005 82035 241683,241761,241735
 4.6000e+001 241962 -7.6843e+005 -3.2746e+006  4.2497e+005 81695 241861,241913,241887
 4.6000e+001 241939 -2.7292e+005 -3.8316e+006 -6.6519e+005 81695 241835,241913,241861
 4.6000e+001 242114 -1.1491e+006 -6.7491e+006  2.4485e+006 81355 242013,242065,242039
 4.6000e+001 242091 -3.1039e+005 -4.1760e+006  1.2056e+006 81355 241987,242065,242013
 4.6000e+001 242266 -9.4694e+004 -3.8813e+005 -7.5038e+004 80951 242139,242191,242165
 4.6000e+001 242243 -2.2795e+005 -9.3194e+005 -4.4165e+004 80951 242139,242217,242191
 4.6000e+001 242467 -4.6869e+005 -5.1696e+006  5.8459e+005 80311 242291,242369,242343
 4.6000e+001 242444 -3.8004e+003 -3.1070e+006  5.1160e+005 80311 242291,242395,242369
 4.6000e+001 242421 -4.7815e+005 -2.3799e+006  7.1295e+004 80311 242291,242343,242317
 4.6000e+001 242619 -1.6600e+006 -3.8996e+006  6.0284e+005 80021 242492,242544,242518
 4.6000e+001 242596 -1.5278e+006 -3.4758e+006  1.7919e+006 80021 242492,242570,242544
 4.6000e+001 242869 -2.1187e+005 -1.3072e+006  2.4177e+005 79631 242644,242722,242696
 4.6000e+001 242846 -3.9138e+004 -1.4336e+006  2.2109e+005 79631 242644,242774,242722
 4.6000e+001 242823 -1.7128e+005 -1.9156e+006  2.8671e+005 79631 242722,242774,242748
 4.6000e+001 242800 -2.5758e+005 -1.5489e+006  2.9153e+005 79631 242644,242696,242670
 4.6000e+001 243070  2.5983e+004 -1.7072e+007  3.6134e+006 79341 242920,242972,242946
 4.6000e+001 243047 -7.6025e+005 -9.5147e+006 -1.8593e+005 79341 242920,242998,242972
 4.6000e+001 243024 -1.1558e+006 -6.3047e+006  2.6998e+006 79341 242894,242998,242920
 4.6000e+001 243222 -3.4849e+005 -3.9882e+006  1.6345e+006 78801 243121,243173,243147
 4.6000e+001 243199 -6.4985e+005 -5.1473e+006  1.7296e+006 78801 243095,243173,243121
 4.6000e+001 243423 -9.2169e+005 -4.9507e+006 -5.2072e+005 78511 243273,243325,243299
 4.6000e+001 243400  7.5361e+005 -9.9224e+006  2.0688e+006 78511 243273,243351,243325
 4.6000e+001 243377 -6.2254e+003 -1.0225e+007  2.5425e+005 78511 243247,243351,243273
 4.6000e+001 243624 -4.0178e+005 -4.3547e+006 -1.2087e+006 78107 243474,243552,243526
 4.6000e+001 243601 -3.7017e+005 -4.2602e+006 -1.1875e+006 78107 243448,243552,243474
 4.6000e+001 243578 -6.2474e+005 -5.2302e+006 -2.0254e+006 78107 243474,243526,243500
 4.6000e+001 243776 -6.6191e+005 -4.6815e+006 -8.6442e+005 77653 243649,243701,243675
 4.6000e+001 243753 -1.5976e+006 -7.8216e+006 -3.2989e+005 77653 243649,243727,243701
 4.6000e+001 243977 -4.4954e+005 -6.1066e+006  1.5615e+004 77093 243801,243853,243827
 4.6000e+001 243954 -7.9851e+004 -4.9765e+006  7.0369e+005 77093 243801,243879,243853
 4.6000e+001 243931  1.1847e+005 -3.0752e+006  2.7829e+004 77093 243801,243905,243879
 4.6000e+001 244080 -1.2679e+006 -4.9376e+006  5.5031e+005 76791 244002,244054,244028
 4.6000e+001 244232 -3.5178e+005 -4.7613e+006  5.5499e+004 76311 244131,244183,244157
 4.6000e+001 244209 -2.3362e+005 -9.9011e+006  6.5991e+005 76311 244105,244183,244131
 4.6000e+001 244433 -1.8179e+006 -1.9299e+007  4.2269e+006 75903 244283,244335,244309
 4.6000e+001 244410 -1.2212e+006 -1.3810e+007  1.7470e+005 75903 244283,244361,244335
 4.6000e+001 244387 -2.9450e+006 -1.1152e+007  2.1070e+006 75903 244257,244361,244283
 4.6000e+001 244585  1.0023e+005 -1.8720e+007  1.9296e+006 75419 244458,244510,244484
 4.6000e+001 244562 -8.3702e+005 -1.2054e+007  4.5299e+005 75419 244458,244536,244510
 4.6000e+001 244737 -4.6184e+005 -2.2481e+006 -1.8993e+005 75215 244636,244688,244662
 4.6000e+001 244714 -4.6353e+005 -3.0772e+006 -2.1595e+005 75215 244610,244688,244636
 4.6000e+001 244889 -9.8751e+005 -5.4006e+006 -4.3415e+005 74857 244788,244840,244814
 4.6000e+001 244866 -2.3657e+005 -2.4454e+006 -2.8742e+005 74857 244762,244840,244788
 4.6000e+001 245041  4.3336e+004 -3.7315e+005 -2.4391e+005 74653 244940,244992,244966
 4.6000e+001 245018 -4.6192e+004 -8.7278e+004  1.4208e+005 74653 244914,244992,244940
 4.6000e+001 245144 -7.0996e+005 -8.3581e+006 -1.6125e+006 74359 245066,245118,245092
 4.6000e+001 245296 -1.0877e+005 -1.7155e+006 -5.3729e+005 74007 245169,245221,245195
 4.6000e+001 245273 -6.1459e+005 -2.9583e+006 -9.1786e+005 74007 245169,245247,245221
 4.6000e+001 245448 -9.7303e+005 -8.5116e+006  1.8084e+006 73711 245321,245373,245347
 4.6000e+001 245425 -2.2107e+005 -8.2649e+006 -3.1008e+006 73711 245321,245399,245373
 4.6000e+001 245600  5.8156e+005 -1.4506e+007 -1.1617e+006 73301 245499,245551,245525
 4.6000e+001 245577 -1.8260e+006 -1.0638e+007  1.9052e+006 73301 245473,245551,245499
 4.6000e+001 245752 -2.1820e+006 -3.2081e+006 -1.9468e+006 72995 245625,245677,245651
 4.6000e+001 245729  7.2358e+005 -1.2903e+007 -1.6528e+006 72995 245625,245703,245677
 4.6000e+001 245953 -2.7688e+006 -1.2971e+007  1.6000e+006 72585 245777,245829,245803
 4.6000e+001 245930 -1.3072e+006 -1.7256e+007  4.3224e+006 72585 245777,245855,245829
 4.6000e+001 245907 -4.5896e+005 -1.0673e+007  2.0000e+006 72585 245777,245881,245855
 4.6000e+001 246154 -4.1560e+005 -7.1174e+006  1.3199e+006 72127 246030,246082,246056
 4.6000e+001 246131 -1.3514e+006 -1.0029e+007  6.7887e+005 72127 245978,246082,246030
 4.6000e+001 246108 -8.1219e+004 -9.9094e+006 -2.0723e+004 72127 245978,246030,246004
 4.6000e+001 246257 -8.3848e+005 -1.6699e+006 -6.0332e+005 71737 246179,246231,246205
 4.6000e+001 246360  1.4031e+005 -3.2451e+006  4.0087e+005 71447 246282,246334,246308
 4.6000e+001 246512 -3.5200e+005 -2.9070e+006  1.1150e+006 71157 246385,246437,246411
 4.6000e+001 246489 -3.0841e+004 -2.2287e+006 -4.8489e+004 71157 246385,246463,246437
 4.6000e+001 246664 -1.4597e+005 -2.8080e+006 -3.8257e+005 70753 246537,246589,246563
 4.6000e+001 246641 -6.0190e+005 -1.5454e+006 -1.9421e+005 70753 246537,246615,246589
 4.6000e+001 246865 -2.3921e+006 -1.2172e+007  7.5455e+006 70249 246715,246767,246741
 4.6000e+001 246842 -2.5905e+006 -1.0973e+007 -3.0278e+005 70249 246715,246793,246767
 4.6000e+001 246819 -6.2584e+005 -1.4599e+007 -2.4699e+006 70249 246689,246793,246715
 4.6000e+001 247066  2.7743e+004 -2.3798e+006  2.5605e+005 70023 246916,246994,246942
 4.6000e+001 247043 -4.5236e+004 -2.2984e+006  2.8314e+005 70023 246890,246994,246916
 4.6000e+001 247020  6.4960e+004 -2.3885e+006  4.0843e+005 70023 246942,246994,246968
 4.6000e+001 247267 -4.5507e+005 -5.0107e+006 -6.8330e+005 69633 247091,247143,247117
 4.6000e+001 247244 -1.1683e+005 -3.5864e+006 -4.7517e+005 69633 247091,247169,247143
 4.6000e+001 247221 -8.1749e+004 -3.1764e+006 -4.4255e+005 69633 247091,247195,247169
 4.6000e+001 247419 -9.7271e+005 -5.7790e+006  3.8244e+005 69457 247318,247370,247344
 4.6000e+001 247396 -1.3258e+006 -2.6127e+006  6.0428e+005 69457 247292,247370,247318
 4.6000e+001 247522  2.6357e+001 -2.1266e+001 -2.3434e+001 69209 247444,247496,247470
 4.6000e+001 247625 -1.4562e+006 -1.5672e+006 -1.0351e+006 68919 247547,247599,247573
 4.6000e+001 247777  1.1358e+005 -6.4235e+006 -1.5872e+005 68579 247650,247702,247676
 4.6000e+001 247754 -1.9540e+005 -1.8535e+006 -6.2223e+004 68579 247650,247728,247702
 4.6000e+001 247929  1.3020e+005 -4.4950e+006  2.0243e+006 68289 247802,247854,247828
 4.6000e+001 247906 -2.3241e+005 -1.8637e+006 -3.2979e+005 68289 247802,247880,247854
 4.6000e+001 248081 -3.4944e+005 -4.6927e+006  1.3231e+006 67949 247980,248032,248006
 4.6000e+001 248058 -5.0550e+005 -8.7253e+005  8.6459e+004 67949 247954,248032,247980
 4.6000e+001 248233 -1.4191e+006 -6.5593e+006 -7.2691e+005 67616 248132,248184,248158
 4.6000e+001 248210 -5.7410e+005 -5.8831e+006 -2.5820e+005 67616 248106,248184,248132
 4.6000e+001 248434 -1.1754e+005 -4.0471e+006 -1.4233e+005 67212 248284,248336,248310
 4.6000e+001 248411 -8.3402e+004 -4.0755e+006 -2.6603e+005 67212 248258,248336,248284
 4.6000e+001 248388 -1.4730e+006 -2.1864e+006 -5.3874e+005 67212 248258,248362,248336
 4.6000e+001 248586 -5.7526e+004 -5.1147e+006  4.6586e+005 66872 248485,248537,248511
 4.6000e+001 248563 -6.5941e+005 -1.4071e+006 -1.7342e+005 66872 248459,248537,248485
 4.6000e+001 248738 -4.1877e+005 -5.9924e+006  1.8206e+005 66510 248637,248689,248663
 4.6000e+001 248715 -5.6495e+005 -7.8768e+006  1.5921e+005 66510 248611,248689,248637
 4.6000e+001 248890 -2.4995e+004 -6.1745e+005  1.2334e+005 66220 248789,248841,248815
 4.6000e+001 248867 -6.5324e+004 -7.9217e+005 -2.0681e+005 66220 248763,248841,248789
 4.6000e+001 249091 -1.1428e+006 -1.0689e+007  3.4038e+006 65759 248915,248967,248941
 4.6000e+001 249068 -8.9384e+005 -9.6817e+006  3.3939e+006 65759 248915,248993,248967
 4.6000e+001 249045 -5.3543e+005 -6.8182e+006  1.3498e+006 65759 248915,249019,248993
 4.6000e+001 249243  8.5373e+004 -8.5147e+006  1.5739e+006 65419 249142,249194,249168
 4.6000e+001 249220  1.5299e+005 -3.0654e+006  7.8113e+004 65419 249116,249194,249142
 4.6000e+001 249395 -3.7604e+005 -3.0488e+006 -5.0782e+005 65079 249268,249320,249294
 4.6000e+001 249372 -4.2887e+005 -3.9009e+006 -6.7929e+005 65079 249268,249346,249320
 4.6000e+001 249547 -1.4142e+005 -1.7581e+006  2.4089e+005 64739 249420,249472,249446
 4.6000e+001 249524  1.8278e+005 -1.5369e+006 -1.1458e+005 64739 249420,249498,249472
 4.6000e+001 249650 -1.5135e+006 -5.7031e+006 -2.5889e+006 64342 249572,249624,249598
 4.6000e+001 249851 -5.9610e+005 -4.7969e+006 -4.3027e+005 63938 249701,249779,249753
 4.6000e+001 249828 -1.6346e+005 -4.9548e+006  1.1456e+006 63938 249675,249779,249701
 4.6000e+001 249805 -4.8726e+005 -8.0364e+006 -2.8647e+005 63938 249701,249753,249727
 4.6000e+001 250052 -5.9941e+005 -5.2639e+006 -9.9016e+005 63341 249876,249954,249902
 4.6000e+001 250029 -1.2395e+006 -5.8548e+006 -3.7079e+005 63341 249876,249980,249954
 4.6000e+001 250006  1.0751e+006 -7.2528e+006  6.6819e+005 63341 249902,249954,249928
 4.6000e+001 250253 -6.8070e+004 -4.2575e+006 -5.7174e+005 63058 250077,250129,250103
 4.6000e+001 250230 -6.0018e+005 -3.0572e+006 -4.2515e+003 63058 250077,250155,250129
 4.6000e+001 250207 -1.6242e+005 -2.6823e+006 -4.8907e+005 63058 250077,250181,250155
 4.6000e+001 250454 -8.7305e+005 -7.2221e+006  1.1039e+006 62832 250304,250382,250330
 4.6000e+001 250431  1.4602e+005 -8.9275e+006 -2.2967e+006 62832 250278,250382,250304
 4.6000e+001 250408 -1.9141e+006 -4.9058e+006  3.1542e+005 62832 250330,250382,250356
 4.6000e+001 250606  9.7720e+004 -1.7927e+007 -2.9292e+005 62428 250479,250531,250505
 4.6000e+001 250583 -8.9759e+005 -1.4720e+007 -7.6667e+005 62428 250479,250557,250531
 4.6000e+001 250758  1.8033e+005 -7.7968e+006  7.5178e+005 62202 250631,250683,250657
 4.6000e+001 250735 -1.7131e+005 -7.8969e+006  8.0480e+005 62202 250631,250709,250683
 4.6000e+001 250861 -9.8539e+005 -3.3254e+006 -2.4395e+005 61954 250783,250835,250809
 4.6000e+001 251062 -2.4465e+006 -1.2998e+007 -6.8935e+004 61557 250912,250990,250938
 4.6000e+001 251039  8.0751e+004 -1.5485e+007 -2.2994e+004 61557 250886,250990,250912
 4.6000e+001 251016 -1.0593e+006 -1.4594e+007 -2.3953e+006 61557 250938,250990,250964
 4.6000e+001 251263 -9.3704e+005 -7.8356e+006 -2.8272e+005 61167 251113,251165,251139
 4.6000e+001 251240 -4.6616e+005 -7.3424e+006 -5.8279e+005 61167 251113,251191,251165
 4.6000e+001 251217 -1.2092e+006 -7.1131e+006  1.7101e+006 61167 251087,251191,251113
 4.6000e+001 251415 -8.5470e+005 -4.5426e+006  1.0446e+006 60827 251288,251340,251314
 4.6000e+001 251392 -4.3124e+005 -2.5063e+006 -6.5854e+004 60827 251288,251366,251340
 4.6000e+001 251567  1.7632e+005 -5.0277e+006  1.0485e+005 60487 251466,251518,251492
 4.6000e+001 251544 -8.2741e+002 -4.5559e+006 -3.7565e+005 60487 251440,251518,251466
 4.6000e+001 251719  5.6370e+004 -1.0487e+007 -9.9892e+004 59983 251592,251644,251618
 4.6000e+001 251696 -6.4348e+005 -8.2384e+006 -3.6913e+004 59983 251592,251670,251644
 4.6000e+001 251920 -1.4825e+005 -2.4994e+006 -4.6728e+002 59807 251770,251848,251796
 4.6000e+001 251897 -8.3602e+004 -1.7869e+006 -9.4475e+004 59807 251744,251848,251770
 4.6000e+001 251874 -1.1733e+005 -2.2435e+006  7.3334e+004 59807 251796,251848,251822
 4.6000e+001 252023  4.9407e+005 -5.1065e+006 -1.1494e+005 59517 251945,251997,251971
 4.6000e+001 252175  1.6953e+006 -1.4663e+007 -3.0568e+005 59269 252074,252126,252100
 4.6000e+001 252152 -1.9897e+005 -9.1147e+006  1.6772e+005 59269 252048,252126,252074
 4.6000e+001 252278 -4.7276e+005 -5.0643e+006  9.9919e+005 58979 252200,252252,252226
 4.6000e+001 252381 -2.6870e+006 -2.2192e+006  1.1303e+006 58689 252303,252355,252329
 4.6000e+001 252533 -8.0994e+005 -4.3882e+006 -7.8022e+005 58249 252432,252484,252458
 4.6000e+001 252510 -1.2619e+006 -6.9241e+006 -1.2441e+006 58249 252406,252484,252432
 4.6000e+001 252734 -4.3169e+005 -4.4330e+006 -1.4076e+004 57902 252584,252662,252610
 4.6000e+001 252711  4.4398e+005 -5.5563e+006 -4.7437e+005 57902 252558,252662,252584
 4.6000e+001 252688 -4.5540e+005 -3.5908e+006 -6.3915e+005 57902 252610,252662,252636
 4.6000e+001 252886  2.5616e+005 -5.8156e+006 -4.2896e+005 57540 252785,252837,252811
 4.6000e+001 252863  4.8138e+005 -4.3758e+006  6.8134e+004 57540 252759,252837,252785
 4.6000e+001 253038 -6.4572e+005 -6.8326e+006  1.6635e+006 57086 252937,252989,252963
 4.6000e+001 253015 -1.6437e+005 -2.1843e+006  1.7255e+005 57086 252911,252989,252937
 4.6000e+001 253239 -1.8543e+006 -6.2921e+006 -2.5588e+006 56796 253063,253141,253115
 4.6000e+001 253216  1.9152e+005 -8.3343e+006  1.4742e+005 56796 253063,253167,253141
 4.6000e+001 253193 -1.9458e+006 -5.9081e+006 -2.5187e+006 56796 253063,253115,253089
 4.6000e+001 253342 -6.2884e+005 -1.8677e+007  1.1017e+004 56349 253264,253316,253290
 4.6000e+001 253543 -7.7239e+005 -7.8383e+006 -7.7575e+005 56009 253367,253419,253393
 4.6000e+001 253520 -4.8281e+005 -4.5167e+006 -5.0050e+005 56009 253367,253445,253419
 4.6000e+001 253497 -2.9431e+005 -5.7534e+006  9.0265e+004 56009 253367,253471,253445
 4.6000e+001 253695 -7.4753e+005 -1.4180e+006  6.1886e+005 55733 253594,253646,253620
 4.6000e+001 253672 -9.9162e+005 -6.3303e+005  5.7896e+005 55733 253568,253646,253594
 4.6000e+001 253798 -5.4327e+005 -2.1077e+006 -3.4206e+005 55557 253720,253772,253746
 4.6000e+001 253950 -7.0976e+005 -4.4063e+006  5.0186e+004 55153 253849,253901,253875
 4.6000e+001 253927 -6.0751e+004 -5.0048e+006 -6.7195e+005 55153 253823,253901,253849
 4.6000e+001 254151 -1.1709e+006 -5.1133e+006  4.1471e+005 54863 253975,254053,254001
 4.6000e+001 254128 -6.0729e+005 -4.9512e+006 -2.3259e+005 54863 253975,254079,254053
 4.6000e+001 254105 -6.5069e+005 -4.9726e+006  2.6342e+005 54863 254001,254053,254027
 4.6000e+001 254303 -7.0414e+004 -1.2890e+006  1.0549e+005 54373 254176,254228,254202
 4.6000e+001 254280  5.2879e+004 -2.0427e+006  2.3953e+005 54373 254176,254254,254228
 4.6000e+001 254455  6.2345e+004 -6.1576e+006 -4.1908e+005 53975 254354,254406,254380
 4.6000e+001 254432 -4.9487e+005 -1.4359e+006  2.6693e+005 53975 254328,254406,254354
 4.6000e+001 254607 -8.2233e+004 -6.1329e+006 -3.5458e+005 53585 254480,254532,254506
 4.6000e+001 254584 -4.5977e+005 -5.5883e+006 -3.0387e+005 53585 254480,254558,254532
 4.6000e+001 254808 -7.9020e+005 -4.0982e+006 -2.2493e+005 53245 254658,254736,254684
 4.6000e+001 254785 -1.1265e+006 -1.9131e+006 -8.7082e+005 53245 254632,254736,254658
 4.6000e+001 254762 -4.3657e+005 -2.6706e+006 -3.4608e+005 53245 254684,254736,254710
 4.6000e+001 254911 -2.0222e+005 -3.6980e+006  2.2814e+005 52955 254833,254885,254859
 4.6000e+001 255063 -4.8763e+005 -7.4085e+006 -2.0267e+005 52551 254962,255014,254988
 4.6000e+001 255040 -5.9842e+005 -7.6176e+006 -3.1340e+005 52551 254936,255014,254962
 4.6000e+001 255264 -4.1213e+005 -7.2984e+005  6.6417e+005 52261 255114,255166,255140
 4.6000e+001 255241 -1.6208e+006 -1.7647e+006  1.3394e+006 52261 255114,255192,255166
 4.6000e+001 255218  5.3094e+005 -3.9722e+006 -7.4222e+005 52261 255088,255192,255114
 4.6000e+001 255416 -6.0430e+005 -6.0741e+006  1.7744e+006 51971 255289,255341,255315
 4.6000e+001 255393 -1.1120e+005 -5.4521e+006 -5.8993e+005 51971 255289,255367,255341
 4.6000e+001 255568 -1.0972e+006 -7.2087e+005 -4.4888e+005 51681 255441,255493,255467
 4.6000e+001 255545 -1.6610e+005 -6.9592e+006  6.8291e+005 51681 255441,255519,255493
 4.6000e+001 255769 -2.0186e+005 -3.5152e+006 -1.6331e+005 51291 255619,255697,255671
 4.6000e+001 255746 -1.8088e+005 -3.2468e+006 -3.7407e+005 51291 255593,255697,255619
 4.6000e+001 255723 -2.0133e+005 -5.0542e+006 -5.3682e+005 51291 255619,255671,255645
 4.6000e+001 255921 -3.9661e+005 -3.0587e+006  6.5647e+005 50951 255820,255872,255846
 4.6000e+001 255898 -1.1184e+005 -2.1209e+006  1.0480e+005 50951 255794,255872,255820
 4.6000e+001 256171 -1.0998e+006 -5.2126e+006  6.7114e+004 50547 256024,256076,256050
 4.6000e+001 256148 -8.7862e+005 -4.9398e+006  3.1817e+005 50547 255972,256076,256024
 4.6000e+001 256125 -2.2425e+005 -5.5039e+006 -9.3958e+004 50547 255946,256076,255972
 4.6000e+001 256102 -9.3294e+005 -4.5451e+006  2.0610e+005 50547 255972,256024,255998
 4.6000e+001 256323  5.0332e+005 -6.2697e+006  1.0133e+006 50093 256196,256248,256222
 4.6000e+001 256300 -1.1597e+006 -3.2351e+006 -1.3928e+006 50093 256196,256274,256248
 4.6000e+001 256426  3.0794e+002 -1.6494e+002  2.3108e+001 49845 256348,256400,256374
 4.6000e+001 256627 -1.3730e+005 -5.2531e+006  5.6622e+004 49555 256477,256555,256503
 4.6000e+001 256604 -2.9040e+005 -3.9124e+006  6.7796e+004 49555 256451,256555,256477
 4.6000e+001 256581 -3.7859e+005 -4.6563e+006  1.9412e+005 49555 256503,256555,256529
 4.6000e+001 256828 -7.1001e+005 -2.7815e+006 -2.6136e+005 49056 256652,256730,256678
 4.6000e+001 256805 -2.8870e+005 -3.2512e+006 -5.5885e+005 49056 256652,256756,256730
 4.6000e+001 256782 -6.6028e+005 -2.1882e+006 -6.6508e+005 49056 256678,256730,256704
 4.6000e+001 256931 -7.3430e+004 -1.9937e+005  5.4860e+004 48766 256853,256905,256879
 4.6000e+001 257083 -9.8667e+005 -4.5451e+006 -7.4047e+005 48568 256982,257034,257008
 4.6000e+001 257060 -8.3690e+005 -3.9686e+006 -5.2768e+005 48568 256956,257034,256982
 4.6000e+001 257186 -6.6424e+002 -3.2624e+006  3.8005e+002 48228 257108,257160,257134
 4.6000e+001 257338 -4.4330e+005 -1.5071e+006  5.6559e+005 47888 257237,257289,257263
 4.6000e+001 257315 -4.0843e+005 -1.8147e+006  7.3522e+005 47888 257211,257289,257237
 4.6000e+001 257539 -3.0096e+005 -5.0285e+006  2.5343e+005 47548 257363,257441,257415
 4.6000e+001 257516 -7.9031e+005 -4.6418e+006 -4.8681e+005 47548 257363,257467,257441
 4.6000e+001 257493 -6.1760e+005 -3.7074e+006 -7.8457e+004 47548 257363,257415,257389
 4.6000e+001 257740 -2.3142e+005 -4.9988e+006  4.5447e+005 46994 257564,257642,257616
 4.6000e+001 257717 -4.3400e+005 -4.0435e+006  9.1299e+004 46994 257564,257668,257642
 4.6000e+001 257694 -7.5963e+005 -5.2214e+006  3.1140e+004 46994 257564,257616,257590
 4.6000e+001 257843 -9.7599e+005 -2.3448e+006 -3.7112e+005 46654 257765,257817,257791
 4.6000e+001 257995 -6.3459e+005 -3.9815e+006  2.5456e+005 46364 257894,257946,257920
 4.6000e+001 257972 -7.1960e+005 -4.3056e+006  6.3140e+004 46364 257868,257946,257894
 4.6000e+001 258147 -5.9514e+004 -4.1651e+006  9.2804e+004 46024 258046,258098,258072
 4.6000e+001 258124 -3.7212e+005 -3.2807e+006  3.8040e+005 46024 258020,258098,258046
 4.6000e+001 258250 -6.7891e+005 -2.6016e+006  9.4233e+005 45741 258172,258224,258198
 4.6000e+001 258402 -3.1316e+005 -2.7533e+006  2.4720e+005 45401 258301,258353,258327
 4.6000e+001 258379 -5.0909e+005 -2.0042e+006  2.5036e+005 45401 258275,258353,258301
 4.6000e+001 258603 -8.0598e+005 -2.5807e+006 -3.4687e+004 45071 258427,258505,258479
 4.6000e+001 258580 -6.4536e+004 -6.2746e+006  3.0096e+005 45071 258427,258531,258505
 4.6000e+001 258557 -2.0430e+005 -3.4746e+006  2.6768e+005 45071 258427,258479,258453
 4.6000e+001 258755 -2.1596e+005 -4.7150e+006 -4.4572e+005 44681 258654,258706,258680
 4.6000e+001 258732 -2.0501e+005 -4.4700e+006 -4.1772e+005 44681 258628,258706,258654
 4.6000e+001 258907 -7.7336e+005 -8.3413e+005 -8.0380e+004 44157 258806,258858,258832
 4.6000e+001 258884 -2.5678e+005 -1.2408e+006 -7.1600e+004 44157 258780,258858,258806
 4.6000e+001 259010 -7.2721e+005 -3.5810e+005  2.6002e+004 43705 258932,258984,258958
 4.6000e+001 259113 -5.0299e+005 -2.8891e+006  1.3531e+005 43284 259035,259087,259061
 4.6000e+001 259216 -6.6350e+005 -2.7584e+006 -1.0495e+005 42954 259138,259190,259164
 4.6000e+001 259319 -9.1988e+005 -2.1796e+006  5.8399e+004 42116 259241,259293,259267
 4.6000e+001 259422 -3.0601e+005 -3.2775e+006 -1.5536e+005 41804 259344,259396,259370
 4.6000e+001 259525 -6.2469e+005 -6.0657e+006  8.5478e+005 41219 259447,259499,259473
 4.6000e+001 259628 -8.6360e+005 -3.4516e+006 -4.3917e+005 385 259550,259602,259576
 4.8000e+001 190120 -4.3873e+005 -2.7111e+006 -2.7719e+005 189630 189993,190045,190019
 4.8000e+001 190097 -6.0549e+005 -2.2786e+006 -1.2926e+005 189630 189993,190071,190045
 4.8000e+001 190319 -7.1662e+005 -4.0771e+006  2.0540e+005 189312 190169,190221,190195
 4.8000e+001 190296 -9.8231e+005 -2.5653e+006 -1.2407e+006 189312 190169,190247,190221
 4.8000e+001 190273 -6.1932e+005 -1.9316e+006 -1.9730e+005 189312 190143,190247,190169
 4.8000e+001 190518 -4.5969e+005 -2.1849e+004  8.2329e+003 189124 190368,190446,190420
 4.8000e+001 190495 -5.6348e+005 -5.6961e+003  2.1066e+004 189124 190342,190446,190368
 4.8000e+001 190472 -8.1327e+005 -9.2822e+004 -3.4440e+004 189124 190368,190420,190394
 4.8000e+001 190619 -4.4945e+005 -1.7406e+005 -5.2774e+003 188926 190541,190593,190567
 4.8000e+001 190771 -4.9079e+005 -6.7591e+004  3.5903e+004 188614 190670,190722,190696
 4.8000e+001 190748 -5.2449e+005  1.1634e+005  7.4074e+004 188614 190644,190722,190670
 4.8000e+001 190972 -2.0357e+005 -7.0102e+005 -3.3305e+005 188324 190848,190900,190874
 4.8000e+001 190949 -3.7165e+005 -1.0385e+006 -5.3995e+005 188324 190796,190900,190848
 4.8000e+001 190926 -9.4020e+004 -6.2698e+005 -3.4314e+005 188324 190796,190848,190822
 4.8000e+001 191124 -6.7705e+005 -1.4673e+006 -2.0054e+005 188034 191023,191075,191049
 4.8000e+001 191101 -1.7495e+005 -1.5912e+006 -1.5891e+005 188034 190997,191075,191023
 4.8000e+001 191276 -4.6807e+005 -1.4987e+006 -8.2685e+004 187836 191149,191201,191175
 4.8000e+001 191253 -2.9178e+005 -1.3240e+006  3.3101e+004 187836 191149,191227,191201
 4.8000e+001 191379 -4.5664e+005 -2.6696e+005 -8.2656e+004 187546 191301,191353,191327
 4.8000e+001 191531 -4.6666e+005 -5.7473e+006 -1.9838e+006 187256 191430,191482,191456
 4.8000e+001 191508 -8.0243e+005 -3.7321e+006  8.5348e+005 187256 191404,191482,191430
 4.8000e+001 191634 -6.4775e+005  1.2255e+004 -1.9879e+004 187058 191556,191608,191582
 4.8000e+001 191835 -3.4862e+005 -6.8278e+004 -2.8563e+004 186860 191659,191711,191685
 4.8000e+001 191812 -4.3944e+005 -1.7308e+005 -8.6915e+004 186860 191659,191737,191711
 4.8000e+001 191789 -4.1514e+005 -5.7402e+003 -4.5099e+004 186860 191659,191763,191737
 4.8000e+001 191987 -1.3662e+005 -1.8046e+006  2.3968e+005 186662 191886,191938,191912
 4.8000e+001 191964 -4.2367e+005 -1.4145e+006 -2.6683e+004 186662 191860,191938,191886
 4.8000e+001 192090 -6.5079e+005 -1.5636e+006  1.1916e+005 186486 192012,192064,192038
 4.8000e+001 192242 -4.7851e+005 -4.9275e+006 -1.9179e+004 186288 192115,192167,192141
 4.8000e+001 192219 -4.9188e+005 -4.1448e+006  1.6638e+005 186288 192115,192193,192167
 4.8000e+001 192394 -1.8517e+005 -4.2139e+006 -3.0347e+005 185935 192293,192345,192319
 4.8000e+001 192371 -3.8916e+005 -3.5736e+006 -4.4995e+005 185935 192267,192345,192293
 4.8000e+001 192546 -4.1854e+005 -3.0015e+006 -3.1123e+005 185675 192419,192471,192445
 4.8000e+001 192523 -6.1816e+005 -1.9357e+006 -2.8365e+005 185675 192419,192497,192471
 4.8000e+001 192649 -2.6039e+005 -2.4777e+006 -2.4395e+005 185499 192571,192623,192597
 4.8000e+001 192801 -1.1321e+006 -8.7158e+005 -1.9399e+005 185301 192674,192726,192700
 4.8000e+001 192778 -5.0453e+005 -1.0093e+006  6.5706e+005 185301 192674,192752,192726
 4.8000e+001 193002 -1.3938e+005 -1.9545e+006 -4.7453e+005 185046 192852,192930,192878
 4.8000e+001 192979 -3.9502e+005 -2.9309e+006 -3.9244e+005 185046 192826,192930,192852
 4.8000e+001 192956  2.9775e+005 -3.5195e+006 -3.8389e+003 185046 192878,192930,192904
 4.8000e+001 193203 -1.8239e+006 -1.7625e+006 -8.7410e+005 184798 193079,193131,193105
 4.8000e+001 193180  4.9619e+005 -5.2585e+006 -1.9977e+006 184798 193027,193131,193079
 4.8000e+001 193157  3.9884e+005 -5.5645e+006  1.7176e+006 184798 193027,193079,193053
 4.8000e+001 193404 -2.3622e+005 -3.6809e+006 -7.2388e+005 184600 193254,193306,193280
 4.8000e+001 193381 -4.4015e+005 -2.2037e+006 -1.2256e+005 184600 193254,193332,193306
 4.8000e+001 193358 -1.0384e+006 -4.9752e+005 -4.2765e+005 184600 193228,193332,193254
 4.8000e+001 193556 -6.2846e+005 -8.7714e+005 -7.2833e+005 184402 193429,193481,193455
 4.8000e+001 193533 -7.9815e+005 -7.6079e+005 -8.1597e+005 184402 193429,193507,193481
 4.8000e+001 193708 -4.8801e+005 -4.3381e+006 -8.5848e+005 184204 193607,193659,193633
 4.8000e+001 193685 -5.4061e+005 -3.9914e+006 -7.9186e+005 184204 193581,193659,193607
 4.8000e+001 193860 -6.0580e+005 -2.1077e+006  2.8327e+005 183908 193759,193811,193785
 4.8000e+001 193837 -2.2991e+005 -2.0403e+006  4.5156e+005 183908 193733,193811,193759
 4.8000e+001 194061 -3.9492e+005 -1.6139e+006  1.9165e+005 183710 193911,193989,193937
 4.8000e+001 194038 -5.4055e+005 -1.5262e+006  4.1765e+005 183710 193885,193989,193911
 4.8000e+001 194015 -7.3115e+005 -1.1637e+006  2.4853e+005 183710 193937,193989,193963
 4.8000e+001 194262 -1.1557e+006 -4.1734e+006 -1.4672e+006 183420 194086,194164,194112
 4.8000e+001 194239 -7.9559e+005 -2.2578e+006 -5.4225e+005 183420 194086,194190,194164
 4.8000e+001 194216 -1.3954e+006 -1.0119e+007  1.5071e+006 183420 194112,194164,194138
 4.8000e+001 194414 -3.0505e+005 -4.8452e+006  2.9453e+005 183222 194287,194339,194313
 4.8000e+001 194391 -3.9217e+005 -4.4266e+005 -1.8876e+005 183222 194287,194365,194339
 4.8000e+001 194517 -9.5431e+005 -8.9958e+005 -7.3742e+004 183024 194439,194491,194465
 4.8000e+001 194718  2.3800e+006 -1.7704e+007  2.4296e+006 182734 194568,194620,194594
 4.8000e+001 194695 -1.1053e+006 -3.7642e+006 -3.4431e+006 182734 194542,194620,194568
 4.8000e+001 194672 -3.5952e+006 -2.1688e+006 -1.4968e+006 182734 194542,194646,194620
 4.8000e+001 194870 -4.1085e+005 -1.5437e+006  6.2083e+005 182444 194769,194821,194795
 4.8000e+001 194847 -3.9228e+005 -6.4514e+005 -1.9935e+005 182444 194743,194821,194769
 4.8000e+001 195071 -4.0972e+005 -3.3361e+006  1.0927e+006 182154 194895,194947,194921
 4.8000e+001 195048 -3.1624e+005 -1.6815e+006  3.3578e+005 182154 194895,194999,194947
 4.8000e+001 195025 -3.4239e+005 -9.8311e+005  3.7812e+005 182154 194947,194999,194973
 4.8000e+001 195223 -1.6886e+005 -1.6833e+006 -2.5171e+005 181814 195096,195148,195122
 4.8000e+001 195200 -2.8988e+005 -2.5169e+006 -9.3864e+005 181814 195096,195174,195148
 4.8000e+001 195375 -3.8591e+004 -5.1872e+005  1.0221e+005 181524 195248,195300,195274
 4.8000e+001 195352 -4.4829e+004 -1.0955e+006  2.3437e+005 181524 195248,195326,195300
 4.8000e+001 195527 -1.3335e+005 -7.7675e+005  4.7840e+005 181326 195426,195478,195452
 4.8000e+001 195504 -1.0033e+006 -2.1405e+006  1.1057e+006 181326 195400,195478,195426
 4.8000e+001 195679  1.7898e+005 -1.3262e+007 -6.1034e+005 180936 195578,195630,195604
 4.8000e+001 195656 -1.0154e+006 -4.4807e+006 -3.5991e+005 180936 195552,195630,195578
 4.8000e+001 195831 -5.1799e+005 -4.5767e+005 -2.3420e+005 180646 195704,195756,195730
 4.8000e+001 195808 -7.1290e+005 -9.0312e+004 -2.5549e+004 180646 195704,195782,195756
 4.8000e+001 196032 -7.1067e+005 -1.9365e+006  6.7338e+005 180306 195882,195960,195934
 4.8000e+001 196009 -6.6608e+005 -1.0495e+006  3.9859e+005 180306 195856,195960,195882
 4.8000e+001 195986  1.0355e+005 -2.9176e+006 -4.5620e+005 180306 195882,195934,195908
 4.8000e+001 196233 -4.1395e+005 -1.2104e+005 -7.3384e+005 179944 196057,196109,196083
 4.8000e+001 196210 -8.7353e+005 -2.4031e+006  3.6102e+005 179944 196057,196135,196109
 4.8000e+001 196187 -1.5011e+006  3.1562e+006 -1.0126e+006 179944 196057,196161,196135
 4.8000e+001 196385 -7.1716e+005 -8.7924e+005 -5.0532e+005 179604 196258,196310,196284
 4.8000e+001 196362 -1.1887e+006 -1.6502e+006 -1.4955e+006 179604 196258,196336,196310
 4.8000e+001 196586 -8.2602e+005 -7.4133e+005 -5.3773e+005 179114 196410,196488,196436
 4.8000e+001 196563  2.8029e+005 -3.6977e+006 -8.5184e+005 179114 196410,196514,196488
 4.8000e+001 196540 -6.0902e+003 -6.6360e+005 -6.7998e+004 179114 196436,196488,196462
 4.8000e+001 196738 -2.4389e+005 -2.1527e+006 -3.3919e+005 178674 196611,196663,196637
 4.8000e+001 196715 -1.0550e+005 -2.6964e+006 -1.8802e+005 178674 196611,196689,196663
 4.8000e+001 196939  1.5108e+006 -9.9399e+006 -1.9642e+006 178334 196789,196867,196841
 4.8000e+001 196916 -1.9418e+006 -1.0128e+007  1.4554e+006 178334 196763,196867,196789
 4.8000e+001 196893 -3.4874e+006 -6.3790e+006 -5.5194e+006 178334 196789,196841,196815
 4.8000e+001 197091 -2.3165e+005 -4.6735e+006 -4.0372e+005 177930 196990,197042,197016
 4.8000e+001 197068  9.4084e+004 -3.2310e+006 -2.3274e+005 177930 196964,197042,196990
 4.8000e+001 197194 -7.5831e+001 -7.1410e+005 -9.9406e+001 177732 197116,197168,197142
 4.8000e+001 197346 -2.9853e+005 -6.8783e+006 -1.7517e+005 177534 197219,197271,197245
 4.8000e+001 197323  1.7295e+005 -8.2984e+006  5.8038e+005 177534 197219,197297,197271
 4.8000e+001 197547 -3.7465e+005 -4.6052e+006 -1.0286e+006 177130 197397,197449,197423
 4.8000e+001 197524 -9.5282e+005 -4.6573e+006 -1.4816e+006 177130 197397,197475,197449
 4.8000e+001 197501 -9.1126e+005 -9.9001e+006 -2.0449e+006 177130 197371,197475,197397
 4.8000e+001 197748 -3.3210e+005 -7.3703e+006  1.5507e+005 176790 197598,197676,197624
 4.8000e+001 197725 -2.8000e+005 -5.1751e+006  3.3109e+005 176790 197572,197676,197598
 4.8000e+001 197702 -4.1728e+005 -5.5216e+006  5.5709e+005 176790 197624,197676,197650
 4.8000e+001 197900 -1.2787e+005 -4.7020e+006 -6.8010e+005 176300 197773,197825,197799
 4.8000e+001 197877  2.3848e+005 -5.4599e+006 -7.2985e+005 176300 197773,197851,197825
 4.8000e+001 198052 -6.2116e+005 -9.4328e+006 -1.7308e+006 176010 197925,197977,197951
 4.8000e+001 198029 -5.8114e+005 -6.3985e+006 -1.6266e+006 176010 197925,198003,197977
 4.8000e+001 198204 -1.6905e+006 -4.5250e+006 -1.5570e+006 175670 198103,198155,198129
 4.8000e+001 198181 -2.1180e+006 -5.5267e+006 -1.1031e+006 175670 198077,198155,198103
 4.8000e+001 198405  7.9327e+004 -6.4754e+006 -1.2859e+006 175266 198255,198307,198281
 4.8000e+001 198382  1.0489e+004 -6.6503e+006 -1.4295e+006 175266 198229,198307,198255
 4.8000e+001 198359 -1.3011e+006 -5.0966e+006 -2.5750e+006 175266 198229,198333,198307
 4.8000e+001 198606  2.3761e+003 -6.8398e+004  2.9089e+003 174876 198430,198508,198482
 4.8000e+001 198583 -2.5727e+003 -7.2089e+004  2.6299e+004 174876 198430,198534,198508
 4.8000e+001 198560 -1.2157e+004 -1.5835e+004 -1.3387e+004 174876 198430,198482,198456
 4.8000e+001 198758  7.8779e+002  1.0628e+003 -4.5235e+002 174536 198657,198709,198683
 4.8000e+001 198735  6.0602e+002  1.8232e+002 -6.2340e+002 174536 198631,198709,198657
 4.8000e+001 199008 -1.2106e+006 -7.7469e+006 -6.5981e+005 174132 198835,198913,198887
 4.8000e+001 198985  1.0025e+005 -3.0801e+006  3.9078e+005 174132 198809,198913,198835
 4.8000e+001 198962 -7.6545e+005 -3.7546e+006 -2.5923e+006 174132 198783,198913,198809
 4.8000e+001 198939 -5.8237e+005 -7.7083e+006 -4.7647e+005 174132 198835,198887,198861
 4.8000e+001 199160 -1.4891e+006 -2.9943e+006 -1.2868e+006 173842 199059,199111,199085
 4.8000e+001 199137 -6.9188e+005 -1.5972e+006 -5.9492e+005 173842 199033,199111,199059
 4.8000e+001 199361 -5.7005e+005 -9.8429e+006  1.1462e+006 173438 199237,199289,199263
 4.8000e+001 199338 -6.7763e+005 -7.2054e+006  1.6985e+006 173438 199211,199289,199237
 4.8000e+001 199315 -7.3411e+005 -9.3598e+006 -1.2978e+005 173438 199185,199289,199211
 4.8000e+001 199513  4.2431e+005 -1.2075e+007  1.9401e+006 173190 199386,199438,199412
 4.8000e+001 199490 -5.8979e+005 -8.8735e+006 -1.9414e+005 173190 199386,199464,199438
 4.8000e+001 199665 -3.3708e+005 -1.6040e+006  1.8136e+005 172750 199564,199616,199590
 4.8000e+001 199642 -6.4433e+005 -7.5751e+005 -5.5493e+003 172750 199538,199616,199564
 4.8000e+001 199817 -4.5515e+005 -8.3847e+006 -2.9286e+006 172524 199690,199742,199716
 4.8000e+001 199794 -3.2616e+006 -3.5673e+006 -1.8992e+006 172524 199690,199768,199742
 4.8000e+001 199969 -1.8746e+004 -8.6231e+006 -4.0540e+005 172348 199842,199894,199868
 4.8000e+001 199946  3.8098e+005 -8.5823e+006  8.7739e+004 172348 199842,199920,199894
 4.8000e+001 200121  2.5531e+005 -6.3639e+006 -9.8482e+005 172008 199994,200046,200020
 4.8000e+001 200098 -5.6000e+005 -2.4931e+006 -3.9032e+005 172008 199994,200072,200046
 4.8000e+001 200273 -2.7835e+005 -6.5036e+006  2.6198e+005 171668 200172,200224,200198
 4.8000e+001 200250 -3.6238e+005 -7.2564e+006  3.7623e+005 171668 200146,200224,200172
 4.8000e+001 200474  4.0172e+005 -6.6364e+006 -9.3953e+005 171264 200350,200402,200376
 4.8000e+001 200451 -1.4546e+005 -6.6311e+006 -1.0887e+006 171264 200324,200402,200350
 4.8000e+001 200428 -4.7348e+005 -4.5666e+006  1.4699e+006 171264 200298,200402,200324
 4.8000e+001 200626 -4.4107e+004 -6.9129e+006 -4.9051e+005 170832 200525,200577,200551
 4.8000e+001 200603 -1.9581e+005 -3.9881e+006 -3.7117e+005 170832 200499,200577,200525
 4.8000e+001 200827  5.5890e+005 -7.1829e+006  1.1785e+006 170492 200677,200729,200703
 4.8000e+001 200804 -1.5399e+006 -2.0149e+006 -2.6987e+006 170492 200651,200729,200677
 4.8000e+001 200781 -2.8637e+006 -2.5834e+006 -1.6799e+006 170492 200651,200755,200729
 4.8000e+001 201077  5.3071e+005 -5.2105e+006  1.5596e+005 170088 200878,200956,200904
 4.8000e+001 201054 -2.6175e+005 -3.7363e+006 -1.0274e+006 170088 200852,200956,200878
 4.8000e+001 201031  3.2504e+005 -3.3034e+006  3.4764e+006 170088 200904,200956,200930
 4.8000e+001 201008  3.2304e+006 -7.2805e+006  1.4321e+006 170088 200852,200982,200956
 4.8000e+001 201278  5.9680e+005 -1.0888e+006 -6.1828e+005 169798 201102,201154,201128
 4.8000e+001 201255 -1.9962e+006 -9.3066e+006 -2.4931e+006 169798 201102,201206,201154
 4.8000e+001 201232 -4.7040e+006  1.2009e+006  5.1374e+005 169798 201154,201206,201180
 4.8000e+001 201430 -6.1913e+005 -1.0724e+007 -1.8413e+006 169337 201303,201355,201329
 4.8000e+001 201407 -3.7158e+005 -3.7711e+006 -4.8515e+005 169337 201303,201381,201355
 4.8000e+001 201631 -6.5373e+005 -7.7428e+006 -1.4042e+005 168883 201481,201559,201507
 4.8000e+001 201608 -3.3995e+005 -5.9767e+006  9.8142e+005 168883 201455,201559,201481
 4.8000e+001 201585 -3.9496e+005 -6.0132e+006  1.0299e+005 168883 201507,201559,201533
 4.8000e+001 201832  1.8033e+005 -1.1057e+007  2.4897e+005 168479 201682,201734,201708
 4.8000e+001 201809 -2.7054e+006 -8.3555e+006 -2.1184e+006 168479 201656,201734,201682
 4.8000e+001 201786 -2.3663e+006 -7.0031e+006 -1.1974e+006 168479 201656,201760,201734
 4.8000e+001 202033 -3.2346e+005 -4.2812e+006  3.3986e+005 167825 201883,201935,201909
 4.8000e+001 202010 -1.7344e+006 -5.6316e+006 -2.1271e+006 167825 201857,201935,201883
 4.8000e+001 201987 -1.8304e+005 -1.2999e+007 -9.9447e+005 167825 201857,201961,201935
 4.8000e+001 202234 -6.4249e+005 -5.8321e+006 -1.7380e+006 167435 202058,202136,202084
 4.8000e+001 202211 -1.4205e+006 -8.8485e+006  1.7411e+006 167435 202058,202162,202136
 4.8000e+001 202188 -6.0123e+005 -2.7329e+006  4.6502e+005 167435 202084,202136,202110
 4.8000e+001 202386  3.0890e+005 -5.4925e+006 -1.9242e+005 167002 202285,202337,202311
 4.8000e+001 202363 -3.1354e+005 -1.0040e+006  2.3483e+005 167002 202259,202337,202285
 4.8000e+001 202538 -1.4848e+004 -4.1488e+006 -7.9968e+005 166662 202411,202463,202437
 4.8000e+001 202515 -2.4609e+005 -1.6479e+006 -6.5662e+005 166662 202411,202489,202463
 4.8000e+001 202690  9.7203e+004 -6.2482e+006 -1.7298e+006 166322 202589,202641,202615
 4.8000e+001 202667  1.3100e+005 -4.7757e+006 -5.5963e+005 166322 202563,202641,202589
 4.8000e+001 202891 -5.9251e+005 -7.4877e+005 -2.0882e+005 165918 202715,202767,202741
 4.8000e+001 202868 -8.7354e+005 -2.1199e+006 -8.8254e+005 165918 202715,202793,202767
 4.8000e+001 202845  3.2368e+005 -3.3761e+006 -4.7001e+005 165918 202715,202819,202793
 4.8000e+001 203092 -9.5945e+004 -6.9788e+006 -1.0276e+006 165628 202916,202968,202942
 4.8000e+001 203069  3.1079e+004 -9.0010e+006 -7.3699e+005 165628 202916,202994,202968
 4.8000e+001 203046 -1.1796e+006 -6.9362e+006 -2.6419e+006 165628 202916,203020,202994
 4.8000e+001 203293 -6.8347e+006 -5.7527e+006 -2.0353e+006 165266 203143,203195,203169
 4.8000e+001 203270 -3.1252e+006 -8.6078e+006 -3.2539e+005 165266 203143,203221,203195
 4.8000e+001 203247 -1.3714e+006 -1.1197e+007 -3.1586e+006 165266 203117,203221,203143
 4.8000e+001 203445 -3.7153e+005 -3.6901e+006  2.6731e+005 164826 203318,203370,203344
 4.8000e+001 203422 -2.6952e+005 -2.6352e+006 -5.4791e+005 164826 203318,203396,203370
 4.8000e+001 203597 -5.2701e+005 -3.1961e+006 -3.0711e+005 164386 203470,203522,203496
 4.8000e+001 203574 -8.2619e+005 -3.5723e+006 -9.2399e+005 164386 203470,203548,203522
 4.8000e+001 203798 -6.9613e+004 -4.7451e+006  7.6491e+005 163996 203622,203674,203648
 4.8000e+001 203775 -1.1388e+006 -4.4336e+005 -1.5400e+005 163996 203622,203726,203674
 4.8000e+001 203752 -1.9647e+006 -2.1463e+006  2.2783e+006 163996 203674,203726,203700
 4.8000e+001 203901 -3.0263e+004 -2.3621e+006 -9.4838e+005 163770 203823,203875,203849
 4.8000e+001 204053 -3.5989e+005 -2.6676e+006 -3.7878e+005 163474 203952,204004,203978
 4.8000e+001 204030 -3.4707e+005 -2.8153e+006 -6.5902e+005 163474 203926,204004,203952
 4.8000e+001 204205 -1.7660e+006 -4.2466e+006  2.6558e+005 163034 204104,204156,204130
 4.8000e+001 204182 -5.8614e+005 -9.4706e+006 -4.5850e+006 163034 204078,204156,204104
 4.8000e+001 204357 -7.2747e+005 -4.6631e+006  8.5691e+005 162624 204256,204308,204282
 4.8000e+001 204334 -3.7346e+005 -4.2498e+005  1.3676e+005 162624 204230,204308,204256
 4.8000e+001 204509  5.7395e+002  7.8420e+002  8.7708e+002 162200 204382,204434,204408
 4.8000e+001 204486  1.7433e+002  4.5687e+002  2.9965e+002 162200 204382,204460,204434
 4.8000e+001 204710 -1.0376e+005 -1.3231e+006  2.2047e+005 161810 204560,204638,204586
 4.8000e+001 204687  8.4578e+004 -2.8537e+006 -1.3121e+006 161810 204534,204638,204560
 4.8000e+001 204664 -1.6854e+005 -7.0186e+005 -8.9283e+004 161810 204586,204638,204612
 4.8000e+001 204862 -1.2928e+006 -3.7430e+006 -2.6050e+006 161406 204735,204787,204761
 4.8000e+001 204839 -1.7656e+006 -3.8058e+006 -2.5159e+006 161406 204735,204813,204787
 4.8000e+001 205014  9.4075e-002  2.5391e-001  1.5455e-001 161180 204887,204939,204913
 4.8000e+001 204991 -1.9556e-001 -5.2783e-001 -3.2128e-001 161180 204887,204965,204939
 4.8000e+001 205215  1.8579e+005 -8.3950e+005 -4.1406e+005 160726 205039,205091,205065
 4.8000e+001 205192 -5.6978e+005 -3.7366e+006 -7.2045e+005 160726 205039,205143,205091
 4.8000e+001 205169 -6.2062e+005 -1.0427e+006 -6.6192e+005 160726 205091,205143,205117
 4.8000e+001 205416 -4.5964e+003 -6.7655e+004 -1.4104e+004 160272 205292,205344,205318
 4.8000e+001 205393  2.5702e+003 -3.2494e+004 -8.2862e+003 160272 205240,205344,205292
 4.8000e+001 205370 -5.1933e+003 -6.9033e+004 -1.5631e+004 160272 205240,205292,205266
 4.8000e+001 205568 -2.7750e+000 -3.7734e-001 -1.0233e+000 159932 205441,205493,205467
 4.8000e+001 205545  7.5134e-001  1.0216e-001  2.7706e-001 159932 205441,205519,205493
 4.8000e+001 205720 -1.9180e+001  9.6675e+002 -7.9606e+002 159542 205593,205645,205619
 4.8000e+001 205697 -4.5508e+002  3.6092e+002 -3.7563e+002 159542 205593,205671,205645
 4.8000e+001 205872 -1.5117e+000 -2.0583e-003 -5.5781e-002 159252 205745,205797,205771
 4.8000e+001 205849  1.2644e+000  1.7216e-003  4.6656e-002 159252 205745,205823,205797
 4.8000e+001 206024 -1.3198e+006 -2.9793e+006 -8.9599e+005 159004 205923,205975,205949
 4.8000e+001 206001 -5.6729e+005 -3.1991e+006 -3.8530e+005 159004 205897,205975,205923
 4.8000e+001 206127 -3.2123e+006 -2.6934e+006  2.0421e+003 158364 206049,206101,206075
 4.8000e+001 206328  2.4680e+002 -6.0505e+002  4.0200e+002 157960 206178,206256,206204
 4.8000e+001 206305 -8.9001e+002 -2.0138e+003 -1.5523e+003 157960 206152,206256,206178
 4.8000e+001 206282 -3.2516e+002  1.5500e+003  5.6471e+002 157960 206204,206256,206230
 4.8000e+001 206529 -1.1964e+006 -1.1360e+007  8.1157e+005 157648 206405,206457,206431
 4.8000e+001 206506 -4.8900e+006 -6.7281e+006 -5.4162e+005 157648 206379,206457,206405
 4.8000e+001 206483 -2.6726e+006 -5.1054e+006  1.0225e+006 157648 206353,206457,206379
 4.8000e+001 206730  6.3329e+005 -4.1579e+006  6.0603e+004 157208 206554,206606,206580
 4.8000e+001 206707  3.3651e+005 -4.6299e+006  8.8353e+005 157208 206554,206632,206606
 4.8000e+001 206684 -3.2759e+006 -3.9201e+005 -1.6552e+006 157208 206554,206658,206632
 4.8000e+001 206882 -4.8477e-001 -1.0846e+000 -7.2512e-001 157010 206755,206807,206781
 4.8000e+001 206859  2.7915e-001  6.2455e-001  4.1754e-001 157010 206755,206833,206807
 4.8000e+001 207034 -5.3272e+004 -1.5590e+006 -3.3285e+004 156620 206907,206959,206933
 4.8000e+001 207011  4.6853e+004 -2.7187e+006  2.4208e+004 156620 206907,206985,206959
 4.8000e+001 207186 -3.3801e+004 -1.7212e+006  5.6747e+004 156330 207085,207137,207111
 4.8000e+001 207163 -2.2853e+005 -1.8559e+006 -8.0725e+005 156330 207059,207137,207085
 4.8000e+001 207387 -1.2434e+006 -4.8738e+006  1.8328e+006 155890 207211,207289,207237
 4.8000e+001 207364 -7.3275e+005 -4.9380e+006 -1.0520e+006 155890 207211,207315,207289
 4.8000e+001 207341 -1.3019e+006 -4.7313e+006  1.9159e+006 155890 207237,207289,207263
 4.8000e+001 207588  6.0536e+005 -2.7143e+007  8.0654e+006 155436 207438,207490,207464
 4.8000e+001 207565 -4.5641e+005 -2.1221e+007 -6.8611e+005 155436 207412,207490,207438
 4.8000e+001 207542 -2.1744e+006 -1.1918e+007 -1.0048e+006 155436 207412,207516,207490
 4.8000e+001 207789  2.1253e+006 -4.0618e+007 -2.4968e+006 155260 207639,207691,207665
 4.8000e+001 207766 -4.7040e+006 -1.4176e+007  5.7268e+006 155260 207613,207691,207639
 4.8000e+001 207743 -8.9947e+005 -1.1053e+007 -6.0455e+004 155260 207613,207717,207691
 4.8000e+001 207990 -5.8428e-003  6.3489e-001 -1.4947e-001 154920 207840,207918,207892
 4.8000e+001 207967 -1.4347e-002 -5.9577e-001  9.2454e-002 154920 207814,207918,207840
 4.8000e+001 207944  4.7196e-002  1.4527e-001  8.2802e-002 154920 207840,207892,207866
 4.8000e+001 208191 -3.4308e+005 -4.7545e+006 -1.2818e+006 154630 208015,208093,208041
 4.8000e+001 208168 -5.6545e+004 -2.6063e+006 -1.0259e+006 154630 208015,208119,208093
 4.8000e+001 208145 -1.6584e+006 -2.2554e+006 -1.9346e+006 154630 208041,208093,208067
 4.8000e+001 208343  7.3552e-002  2.2787e-004  4.0939e-003 154240 208216,208268,208242
 4.8000e+001 208320 -1.4063e-001 -4.3568e-004 -7.8275e-003 154240 208216,208294,208268
 4.8000e+001 208495  3.5438e+006 -2.5212e+007 -7.2431e+006 153950 208394,208446,208420
 4.8000e+001 208472 -1.6829e+006 -1.0111e+007  3.1154e+006 153950 208368,208446,208394
 4.8000e+001 208647 -1.6754e+006 -9.7374e+006  8.1456e+006 153603 208520,208572,208546
 4.8000e+001 208624 -5.0518e+006 -4.5856e+006 -4.6378e+006 153603 208520,208598,208572
 4.8000e+001 208848 -1.5644e+005 -1.3831e+006  5.4704e+005 153149 208698,208776,208724
 4.8000e+001 208825  2.1252e+005 -3.1096e+006 -3.2362e+005 153149 208672,208776,208698
 4.8000e+001 208802 -5.7990e+005 -7.8128e+005  3.7590e+005 153149 208724,208776,208750
 4.8000e+001 209000 -1.0884e+006 -9.0785e+006 -2.7312e+005 152859 208873,208925,208899
 4.8000e+001 208977 -1.1390e+005 -1.4645e+007  6.0850e+005 152859 208873,208951,208925
 4.8000e+001 209152  7.3082e+005 -1.2643e+007 -2.0299e+005 152569 209051,209103,209077
 4.8000e+001 209129  3.3532e+005 -1.3000e+007 -4.4391e+005 152569 209025,209103,209051
 4.8000e+001 209304 -3.1909e-001 -4.4371e-001 -3.7627e-001 152065 209177,209229,209203
 4.8000e+001 209281  7.2938e-001  1.0142e+000  8.6009e-001 152065 209177,209255,209229
 4.8000e+001 209456 -2.5908e+004 -1.0071e+007 -5.0565e+004 151775 209355,209407,209381
 4.8000e+001 209433  9.1731e+005 -1.5268e+007  5.8050e+004 151775 209329,209407,209355
 4.8000e+001 209608 -1.0120e+006 -1.3883e+007 -9.6323e+005 151371 209481,209533,209507
 4.8000e+001 209585  9.3153e+005 -1.9120e+007  5.1077e+005 151371 209481,209559,209533
 4.8000e+001 209760 -2.1604e+005 -2.9345e+006 -3.2818e+005 150981 209659,209711,209685
 4.8000e+001 209737 -9.0095e+005 -3.4487e+006 -2.2497e+006 150981 209633,209711,209659
 4.8000e+001 209912  2.8378e+006 -4.0931e+007 -3.4390e+006 150619 209811,209863,209837
 4.8000e+001 209889 -3.4969e+006 -1.8354e+007  4.3293e+006 150619 209785,209863,209811
 4.8000e+001 210064 -6.1878e+005 -7.4174e+005 -4.6732e+005 150279 209937,209989,209963
 4.8000e+001 210041  6.4960e+003 -6.7428e+006 -2.2202e+006 150279 209937,210015,209989
 4.8000e+001 210265 -2.0127e+006 -1.5473e+007  4.9137e+005 149989 210115,210167,210141
 4.8000e+001 210242 -3.6845e+005 -1.6699e+007 -1.0376e+006 149989 210115,210193,210167
 4.8000e+001 210219  2.3099e+005 -1.7710e+007 -6.5870e+005 149989 210089,210193,210115
 4.8000e+001 210417 -4.5677e+006 -2.3543e+006 -2.2907e+004 149599 210316,210368,210342
 4.8000e+001 210394 -2.6479e+006 -6.4267e+006 -1.8688e+005 149599 210290,210368,210316
 4.8000e+001 210618 -3.5308e+006 -1.5248e+007  4.2565e+006 149095 210468,210520,210494
 4.8000e+001 210595 -4.1332e+006 -1.5200e+007  2.0375e+006 149095 210442,210520,210468
 4.8000e+001 210572 -2.0692e+006 -2.6603e+007  3.2388e+006 149095 210442,210546,210520
 4.8000e+001 210819 -1.5850e+002  4.6704e+002 -1.1616e+003 148748 210695,210747,210721
 4.8000e+001 210796  7.3404e+001 -3.2894e+003  1.3770e+002 148748 210669,210747,210695
 4.8000e+001 210773 -1.1047e+003 -7.1984e+002  2.1961e+003 148748 210643,210747,210669
 4.8000e+001 210971 -5.7945e+001  1.7140e+002 -3.5220e+002 148408 210870,210922,210896
 4.8000e+001 210948  2.8219e+002  2.4213e+001  4.7800e+001 148408 210844,210922,210870
 4.8000e+001 211123 -6.0736e+005 -9.6131e+006  1.0937e+006 148118 210996,211048,211022
 4.8000e+001 211100 -6.0290e+005 -1.1225e+007  4.5819e+006 148118 210996,211074,211048
 4.8000e+001 211275 -2.0173e+006 -7.0759e+006  8.5565e+005 147778 211148,211200,211174
 4.8000e+001 211252 -6.1619e+005 -1.7725e+007  8.1156e+006 147778 211148,211226,211200
 4.8000e+001 211427 -6.1868e+005 -6.9181e+006  2.4462e+006 147324 211326,211378,211352
 4.8000e+001 211404  3.4876e+005 -8.8288e+006  1.9548e+006 147324 211300,211378,211326
 4.8000e+001 211628 -3.2713e+002 -1.6407e+002 -2.8740e+002 147012 211452,211504,211478
 4.8000e+001 211605 -1.9903e+002 -1.2577e+002 -4.4177e+002 147012 211452,211556,211504
 4.8000e+001 211582 -3.0404e+002  5.4274e+000 -6.4767e+002 147012 211504,211556,211530
 4.8000e+001 211829 -3.1601e+006 -5.4947e+006  2.4156e+006 146636 211679,211757,211731
 4.8000e+001 211806  2.8801e+006 -1.5069e+007  1.7355e+005 146636 211653,211757,211679
 4.8000e+001 211783  1.0685e+006 -6.0831e+006  3.9690e+006 146636 211679,211731,211705
 4.8000e+001 211981  2.5243e+002  6.5753e+002  7.1402e+002 146246 211880,211932,211906
 4.8000e+001 211958  1.8158e+002  8.1603e+002  6.5985e+002 146246 211854,211932,211880
 4.8000e+001 212133 -3.1768e+002 -1.2112e+002  7.6968e+001 145956 212006,212058,212032
 4.8000e+001 212110 -2.0035e+002  4.5231e+001 -3.0688e+001 145956 212006,212084,212058
 4.8000e+001 212285 -1.7292e+003  1.2279e+002  6.1575e+002 145544 212184,212236,212210
 4.8000e+001 212262 -2.2594e+003  5.4753e+002  9.3100e+001 145544 212158,212236,212184
 4.8000e+001 212486  8.1633e+004 -1.6670e+007  3.4402e+006 144990 212362,212414,212388
 4.8000e+001 212463  1.3407e+005 -1.2886e+007  5.4615e+006 144990 212310,212414,212362
 4.8000e+001 212440 -3.9160e+006 -2.8514e+006  2.5776e+006 144990 212310,212362,212336
 4.8000e+001 212638 -3.7494e+003 -2.5848e+004 -6.9875e+003 144600 212537,212589,212563
 4.8000e+001 212615 -3.5414e+003 -2.5809e+004 -8.2296e+003 144600 212511,212589,212537
 4.8000e+001 212839 -6.4280e+004 -8.3018e+005 -6.7722e+004 144210 212689,212741,212715
 4.8000e+001 212816 -5.3799e+004 -1.1469e+006  2.6333e+005 144210 212663,212741,212689
 4.8000e+001 212793 -8.7609e+004 -1.1885e+006  1.8442e+005 144210 212663,212767,212741
 4.8000e+001 212991  4.7671e+002 -2.7655e+003 -4.4163e+002 143920 212890,212942,212916
 4.8000e+001 212968  1.2777e+003 -3.3179e+003 -1.0982e+002 143920 212864,212942,212890
 4.8000e+001 213143  1.8351e+002  6.5451e+002 -1.2017e+003 143480 213016,213068,213042
 4.8000e+001 213120 -9.9390e+002 -8.6061e+002  1.4852e+002 143480 213016,213094,213068
 4.8000e+001 213295 -2.3890e+006 -8.6342e+006  5.4340e+006 142990 213194,213246,213220
 4.8000e+001 213272 -2.8789e+006 -3.5741e+006  2.2512e+006 142990 213168,213246,213194
 4.8000e+001 213447  3.8716e+004 -3.2511e+006  3.5090e+005 142600 213320,213372,213346
 4.8000e+001 213424 -2.0598e+005 -2.3276e+006 -4.3111e+005 142600 213320,213398,213372
 4.8000e+001 213599 -1.4504e+003 -1.9227e+005 -8.8352e+004 142260 213472,213524,213498
 4.8000e+001 213576  5.3130e+003 -2.1283e+005 -5.0255e+002 142260 213472,213550,213524
 4.8000e+001 213751 -1.2651e+005 -4.8572e+005 -2.3001e+005 141870 213624,213676,213650
 4.8000e+001 213728 -2.2949e+005 -4.5633e+005 -3.0508e+005 141870 213624,213702,213676
 4.8000e+001 213903 -1.2399e+006 -2.3021e+006 -1.7093e+006 141530 213776,213828,213802
 4.8000e+001 213880 -5.3836e+005 -2.5946e+006 -1.1023e+006 141530 213776,213854,213828
 4.8000e+001 214055 -4.3680e+002 -6.5610e+002  3.6480e+001 141218 213928,213980,213954
 4.8000e+001 214032 -5.2695e+002 -1.5451e+003  3.3122e+002 141218 213928,214006,213980
 4.8000e+001 214207 -3.8621e+002 -3.5490e+002 -3.6774e+002 140928 214080,214132,214106
 4.8000e+001 214184 -5.6340e+002 -4.0538e+002 -2.4803e+002 140928 214080,214158,214132
 4.8000e+001 214359 -1.8629e+005 -1.0579e+005 -2.0729e+005 140538 214232,214284,214258
 4.8000e+001 214336  1.1226e+005 -5.0559e+005  1.2270e+005 140538 214232,214310,214284
 4.8000e+001 214560 -1.0588e+005 -3.3779e+006  2.8600e+005 140248 214384,214462,214410
 4.8000e+001 214537  1.3909e+005 -1.5453e+006  2.1322e+004 140248 214384,214488,214462
 4.8000e+001 214514 -2.9493e+005 -2.0828e+006 -3.1868e+005 140248 214410,214462,214436
 4.8000e+001 214712 -1.0407e+006 -9.0929e+006  2.2571e+006 140000 214611,214663,214637
 4.8000e+001 214689 -1.1809e+006 -5.4469e+006  1.7835e+006 140000 214585,214663,214611
 4.8000e+001 214913 -5.1681e+005 -1.9055e+006 -1.1861e+006 139596 214737,214815,214763
 4.8000e+001 214890 -4.9067e+005 -3.8257e+005 -1.8747e+005 139596 214737,214841,214815
 4.8000e+001 214867  4.9705e+005 -4.5731e+006 -5.9729e+005 139596 214763,214815,214789
 4.8000e+001 215016 -3.4886e+003 -1.4682e+003 -1.7637e+000 139420 214938,214990,214964
 4.8000e+001 215168 -2.7806e+006 -1.1428e+007  5.7085e+006 139130 215067,215119,215093
 4.8000e+001 215145 -1.2971e+006 -1.2066e+007  2.8918e+006 139130 215041,215119,215067
 4.8000e+001 215320 -1.7698e+006 -5.9038e+006  2.9828e+006 138790 215219,215271,215245
 4.8000e+001 215297 -9.7720e+005 -1.2494e+007  4.8396e+006 138790 215193,215271,215219
 4.8000e+001 215472 -2.2072e+004 -8.0710e+004  4.7384e+004 138514 215345,215397,215371
 4.8000e+001 215449 -3.9640e+004 -1.0693e+005  6.7649e+004 138514 215345,215423,215397
 4.8000e+001 215624 -5.5320e+004 -1.1093e+007  1.5694e+006 138174 215497,215549,215523
 4.8000e+001 215601  2.1355e+004 -8.0472e+006  1.0674e+006 138174 215497,215575,215549
 4.8000e+001 215776 -4.4507e+005 -1.6622e+006  1.1818e+006 137734 215649,215701,215675
 4.8000e+001 215753 -5.0044e+005 -8.1726e+005 -8.3270e+005 137734 215649,215727,215701
 4.8000e+001 215977  7.2468e+005 -2.0384e+007  4.9529e+006 137344 215801,215879,215827
 4.8000e+001 215954 -1.7589e+006 -8.5716e+006 -3.7782e+006 137344 215801,215905,215879
 4.8000e+001 215931 -1.6518e+006 -2.4953e+007  1.3784e+006 137344 215827,215879,215853
 4.8000e+001 216129 -2.5409e+005 -5.3374e+006 -2.2335e+005 136940 216028,216080,216054
 4.8000e+001 216106 -6.8676e+005 -7.0112e+006 -3.7607e+005 136940 216002,216080,216028
 4.8000e+001 216330 -4.6672e+005 -1.0012e+007  1.3746e+006 136600 216180,216232,216206
 4.8000e+001 216307 -2.4509e+005 -1.0121e+007  2.3258e+006 136600 216154,216232,216180
 4.8000e+001 216284 -1.0885e+006 -7.1382e+006  8.2317e+005 136600 216154,216258,216232
 4.8000e+001 216482  6.5763e+005 -7.3482e+006  1.2312e+006 136260 216381,216433,216407
 4.8000e+001 216459  2.6165e+005 -7.9604e+006  9.4762e+005 136260 216355,216433,216381
 4.8000e+001 216634 -1.2748e+006 -8.8106e+006  3.0341e+006 135970 216533,216585,216559
 4.8000e+001 216611 -7.0287e+005 -1.1863e+007  3.5486e+006 135970 216507,216585,216533
 4.8000e+001 216835 -9.2983e+005 -3.4132e+006 -1.3572e+006 135608 216685,216763,216711
 4.8000e+001 216812 -1.9577e+005 -2.2059e+006  1.9026e+005 135608 216659,216763,216685
 4.8000e+001 216789 -6.7820e+005 -1.0744e+007  2.2219e+005 135608 216711,216763,216737
 4.8000e+001 217036 -1.1792e+006 -1.2459e+006  6.8836e+005 135312 216912,216964,216938
 4.8000e+001 217013 -9.3035e+005 -3.8148e+006  2.2955e+006 135312 216886,216964,216912
 4.8000e+001 216990  1.0974e+006 -8.7710e+006  1.2664e+006 135312 216860,216964,216886
 4.8000e+001 217237 -3.5992e+004 -4.6681e+005  1.6236e+005 134908 217061,217139,217113
 4.8000e+001 217214  1.8599e+004 -4.5520e+005  1.6894e+005 134908 217061,217165,217139
 4.8000e+001 217191  6.7338e+004 -6.3680e+005  2.1225e+005 134908 217061,217113,217087
 4.8000e+001 217438 -2.7940e+006 -2.3312e+007  1.4070e+006 134568 217288,217366,217314
 4.8000e+001 217415  2.8695e+006 -3.8170e+007  1.2952e+006 134568 217262,217366,217288
 4.8000e+001 217392 -5.6615e+005 -2.1601e+007 -6.6752e+005 134568 217314,217366,217340
 4.8000e+001 217590 -5.3773e+004 -1.2950e+005  1.0181e+005 134106 217463,217515,217489
 4.8000e+001 217567 -3.2505e+004 -8.4100e+004  3.8269e+004 134106 217463,217541,217515
 4.8000e+001 217791 -2.0745e+006 -3.1608e+007 -8.5977e+006 133816 217641,217693,217667
 4.8000e+001 217768  3.5276e+006 -3.6152e+007  3.7603e+006 133816 217641,217719,217693
 4.8000e+001 217745 -7.4139e+006 -4.0869e+006  5.3120e+006 133816 217615,217719,217641
 4.8000e+001 217992 -3.6381e+006 -5.6738e+006  4.6894e+006 133355 217842,217920,217894
 4.8000e+001 217969  1.2363e+006 -1.6349e+007 -6.0626e+004 133355 217816,217920,217842
 4.8000e+001 217946 -8.9351e+004 -3.1967e+006  1.0665e+006 133355 217842,217894,217868
 4.8000e+001 218193 -8.4478e+005 -9.0012e+006 -2.7323e+006 132851 218017,218095,218069
 4.8000e+001 218170 -3.9128e+006 -1.0999e+007  7.6976e+006 132851 218017,218121,218095
 4.8000e+001 218147 -3.6137e+006 -5.9620e+006 -2.7060e+006 132851 218017,218069,218043
 4.8000e+001 218345 -2.2351e+005 -2.2594e+006  6.3692e+005 132511 218244,218296,218270
 4.8000e+001 218322 -1.8541e+005 -2.9223e+006  7.6431e+005 132511 218218,218296,218244
 4.8000e+001 218497  1.1420e+006 -3.5136e+007 -1.0605e+006 132235 218396,218448,218422
 4.8000e+001 218474 -1.6181e+006 -1.0798e+007  4.5557e+005 132235 218370,218448,218396
 4.8000e+001 218698 -2.9710e+005 -1.0487e+007 -6.1794e+005 131945 218574,218626,218600
 4.8000e+001 218675 -2.4403e+006 -1.9692e+007 -4.3248e+005 131945 218522,218626,218574
 4.8000e+001 218652 -9.2382e+005 -1.6765e+007 -1.7758e+006 131945 218522,218574,218548
 4.8000e+001 218850 -3.2550e+005 -2.2283e+007 -2.9206e+005 131655 218723,218775,218749
 4.8000e+001 218827  4.5293e+005 -1.4197e+007 -2.6893e+005 131655 218723,218801,218775
 4.8000e+001 218953 -1.5628e+005 -4.8520e+006  3.0883e+005 131215 218875,218927,218901
 4.8000e+001 219105 -2.4506e+005 -6.7546e+006 -2.1424e+006 130875 218978,219030,219004
 4.8000e+001 219082 -7.1794e+005 -1.7288e+006 -6.1906e+005 130875 218978,219056,219030
 4.8000e+001 219306 -2.0920e+005 -5.2375e+006 -5.9280e+005 130429 219156,219234,219208
 4.8000e+001 219283 -6.5564e+005 -1.9854e+006  6.7806e+004 130429 219130,219234,219156
 4.8000e+001 219260 -3.1172e+006 -6.1182e+006  1.3865e+006 130429 219156,219208,219182
 4.8000e+001 219507 -8.5066e+004 -8.0772e+005  1.1613e+005 130025 219383,219435,219409
 4.8000e+001 219484 -5.0417e+004 -1.1965e+006  2.8219e+005 130025 219331,219435,219383
 4.8000e+001 219461 -9.8690e+004 -4.1223e+005 -6.1583e+004 130025 219331,219383,219357
 4.8000e+001 219659 -1.6638e+006 -7.0670e+006  8.3851e+005 129685 219558,219610,219584
 4.8000e+001 219636  1.8512e+005 -1.2107e+007 -5.6014e+006 129685 219532,219610,219558
 4.8000e+001 219860 -3.3157e+004 -3.7359e+006  9.8561e+005 129395 219710,219788,219762
 4.8000e+001 219837 -1.0600e+006 -2.1654e+006  4.9603e+005 129395 219684,219788,219710
 4.8000e+001 219814  6.3044e+005 -5.7858e+006 -5.3748e+005 129395 219710,219762,219736
 4.8000e+001 220061  2.5970e+005 -3.9413e+006  3.4434e+005 128991 219937,219989,219963
 4.8000e+001 220038  8.9804e+004 -3.6167e+006  3.4418e+005 128991 219885,219989,219937
 4.8000e+001 220015 -1.6677e+005 -4.9461e+006  5.9139e+005 128991 219885,219937,219911
 4.8000e+001 220262 -5.5455e+005 -2.4119e+006  2.4364e+005 128701 220086,220164,220112
 4.8000e+001 220239 -3.6990e+005 -3.3063e+006  5.9845e+005 128701 220086,220190,220164
 4.8000e+001 220216 -2.5477e+005 -2.7169e+006 -3.7985e+005 128701 220112,220164,220138
 4.8000e+001 220463 -3.8310e+006 -9.2946e+006  3.7915e+006 128297 220339,220391,220365
 4.8000e+001 220440  2.1903e+006 -2.1608e+007  8.4868e+005 128297 220313,220391,220339
 4.8000e+001 220417 -1.9863e+005 -2.5387e+007 -4.8660e+006 128297 220287,220391,220313
 4.8000e+001 220615 -1.2991e+006 -4.1705e+006 -1.0118e+006 128007 220488,220540,220514
 4.8000e+001 220592  1.2018e+006 -1.3008e+007  3.2588e+005 128007 220488,220566,220540
 4.8000e+001 220767 -1.1610e+004 -4.6825e+006  2.5510e+005 127567 220640,220692,220666
 4.8000e+001 220744 -1.4379e+005 -2.4981e+006  1.0558e+005 127567 220640,220718,220692
 4.8000e+001 220919 -6.5381e+005 -1.8740e+007 -1.8881e+006 127163 220792,220844,220818
 4.8000e+001 220896  1.3328e+006 -2.2174e+007  2.8325e+006 127163 220792,220870,220844
 4.8000e+001 221071 -1.3435e+006 -4.2048e+006  1.6182e+006 126915 220970,221022,220996
 4.8000e+001 221048 -9.3658e+005 -5.2706e+006  1.3368e+006 126915 220944,221022,220970
 4.8000e+001 221272 -2.2362e+006 -4.5050e+006  3.2889e+006 126461 221122,221174,221148
 4.8000e+001 221249 -4.9278e+006 -5.9543e+006  7.5043e+005 126461 221122,221200,221174
 4.8000e+001 221226  1.3418e+006 -1.4847e+007 -3.0724e+006 126461 221096,221200,221122
 4.8000e+001 221375  1.2755e+002 -1.0920e+005 -3.8924e+002 126213 221297,221349,221323
 4.8000e+001 221478  5.5451e+003 -1.5672e+004 -3.6767e+002 125766 221400,221452,221426
 4.8000e+001 221679 -1.3205e+005 -2.3308e+006  2.2474e+005 125212 221503,221555,221529
 4.8000e+001 221656 -1.8154e+005 -3.1307e+006 -3.9795e+004 125212 221503,221581,221555
 4.8000e+001 221633  4.9687e+005 -7.1076e+006  1.8491e+006 125212 221503,221607,221581
 4.8000e+001 221929  7.8237e+001 -2.1052e+002 -3.4000e+002 124872 221782,221834,221808
 4.8000e+001 221906 -6.9148e+002 -5.6445e+002  4.7769e+002 124872 221756,221834,221782
 4.8000e+001 221883 -6.4012e+002  1.5613e+002  3.9254e+002 124872 221704,221834,221756
 4.8000e+001 221860 -1.5370e+003 -7.5167e+002  1.5829e+003 124872 221704,221756,221730
 4.8000e+001 222130 -5.0121e+005 -1.0006e+007 -6.0908e+005 124582 221980,222058,222006
 4.8000e+001 222107 -2.6036e+006 -9.8033e+006 -2.9334e+005 124582 221954,222058,221980
 4.8000e+001 222084 -1.7103e+006 -1.0518e+007 -1.1901e+006 124582 222006,222058,222032
 4.8000e+001 222282 -2.3750e+006 -1.0703e+007 -2.6561e+006 124192 222181,222233,222207
 4.8000e+001 222259 -8.3330e+005 -9.7805e+006 -1.8630e+006 124192 222155,222233,222181
 4.8000e+001 222483 -9.2801e+004 -5.3465e+006 -3.0910e+006 123702 222333,222385,222359
 4.8000e+001 222460 -2.1663e+005 -2.6504e+006  2.5855e+005 123702 222333,222411,222385
 4.8000e+001 222437 -2.0305e+005 -7.7335e+005 -1.7733e+005 123702 222307,222411,222333
 4.8000e+001 222635 -7.9529e+005 -1.3424e+006 -6.9546e+005 123312 222508,222560,222534
 4.8000e+001 222612  4.4384e+005 -6.4879e+006 -4.0987e+005 123312 222508,222586,222560
 4.8000e+001 222787 -3.3934e+004 -1.8765e+006 -7.4229e+004 122858 222686,222738,222712
 4.8000e+001 222764 -1.5368e+005 -2.0360e+006 -3.7437e+005 122858 222660,222738,222686
 4.8000e+001 222939 -2.8847e+005 -1.7324e+006 -3.4015e+004 122568 222812,222864,222838
 4.8000e+001 222916 -3.2070e+005 -1.2900e+006  4.2561e+005 122568 222812,222890,222864
 4.8000e+001 223091 -1.6952e+005 -3.8132e+006 -7.8194e+005 122392 222964,223016,222990
 4.8000e+001 223068 -2.2264e+004 -3.9140e+006 -6.6093e+005 122392 222964,223042,223016
 4.8000e+001 223292 -1.8263e+005 -6.1250e+006 -3.6699e+005 121852 223142,223220,223194
 4.8000e+001 223269 -1.0427e+006 -6.5492e+006 -6.8853e+005 121852 223116,223220,223142
 4.8000e+001 223246 -1.0538e+005 -5.9635e+006 -7.9542e+005 121852 223142,223194,223168
 4.8000e+001 223493 -9.0762e+005 -6.2756e+006 -3.1323e+003 121406 223343,223395,223369
 4.8000e+001 223470 -2.9931e+006 -5.3594e+006 -1.0336e+006 121406 223343,223421,223395
 4.8000e+001 223447 -9.5671e+005 -3.5141e+006  1.2201e+006 121406 223317,223421,223343
 4.8000e+001 223645  3.4926e+005 -1.0726e+007  1.0707e+006 121002 223544,223596,223570
 4.8000e+001 223622 -1.1108e+006 -6.3011e+006  1.2886e+006 121002 223518,223596,223544
 4.8000e+001 223846 -2.5107e+005 -7.3343e+006  1.4621e+005 120662 223670,223748,223696
 4.8000e+001 223823  4.8015e+005 -4.2960e+006  6.3936e+004 120662 223670,223774,223748
 4.8000e+001 223800 -1.1226e+006 -2.9491e+006 -1.3774e+006 120662 223696,223748,223722
 4.8000e+001 224047 -4.7652e+005 -3.9171e+006  1.1528e+006 120222 223897,223949,223923
 4.8000e+001 224024  6.8190e+005 -5.5482e+006 -5.3258e+005 120222 223871,223949,223897
 4.8000e+001 224001 -7.8857e+005 -3.5340e+006 -1.0449e+006 120222 223871,223975,223949
 4.8000e+001 224248  1.8824e+005 -3.1616e+006 -1.4002e+006 119875 224124,224176,224150
 4.8000e+001 224225 -1.3334e+006 -6.7311e+006 -2.5613e+006 119875 224098,224176,224124
 4.8000e+001 224202 -3.9488e+005 -1.3196e+006  9.2124e+004 119875 224072,224176,224098
 4.8000e+001 224449 -1.2645e+005 -4.5166e+006 -3.2057e+005 119677 224325,224377,224351
 4.8000e+001 224426 -4.1244e+005 -5.6625e+006 -2.1967e+005 119677 224299,224377,224325
 4.8000e+001 224403 -5.7368e+004 -1.4242e+006 -2.7543e+004 119677 224273,224377,224299
 4.8000e+001 224552 -4.2582e+005 -1.3009e+006 -3.3624e+005 119273 224474,224526,224500
 4.8000e+001 224704 -3.4496e+005 -6.4878e+006 -2.3043e+005 118983 224603,224655,224629
 4.8000e+001 224681  1.1312e+005 -8.5053e+006 -1.3578e+006 118983 224577,224655,224603
 4.8000e+001 224856 -6.5431e+005 -5.0593e+006 -3.5278e+005 118529 224755,224807,224781
 4.8000e+001 224833  2.0084e+005 -9.9649e+006 -1.3719e+006 118529 224729,224807,224755
 4.8000e+001 225008 -8.5884e+005 -8.5352e+006  1.0319e+005 118353 224881,224933,224907
 4.8000e+001 224985 -3.6869e+005 -4.1233e+005 -8.2849e+004 118353 224881,224959,224933
 4.8000e+001 225209 -8.7265e+005 -5.8563e+006 -1.5067e+006 117949 225059,225137,225111
 4.8000e+001 225186 -2.2160e+005 -5.1730e+006 -4.3744e+005 117949 225033,225137,225059
 4.8000e+001 225163 -1.4348e+005 -8.4519e+006 -3.3767e+005 117949 225059,225111,225085
 4.8000e+001 225410 -7.8300e+004 -7.0726e+006  8.8319e+005 117559 225260,225338,225312
 4.8000e+001 225387 -1.0098e+006 -7.4856e+006  2.9056e+005 117559 225234,225338,225260
 4.8000e+001 225364 -5.7568e+005 -4.8773e+006 -1.6755e+006 117559 225260,225312,225286
 4.8000e+001 225611 -1.9428e+006 -9.2377e+006 -3.6659e+006 117361 225461,225513,225487
 4.8000e+001 225588 -7.1414e+005 -9.7874e+006  1.3198e+006 117361 225461,225539,225513
 4.8000e+001 225565 -1.3682e+006 -8.0304e+006  2.4532e+006 117361 225435,225539,225461
 4.8000e+001 225812  7.6214e+005 -7.9874e+006 -8.9007e+005 116900 225636,225714,225662
 4.8000e+001 225789 -5.3980e+005 -4.2368e+006 -1.2861e+006 116900 225636,225740,225714
 4.8000e+001 225766 -1.5201e+004 -8.2383e+006 -3.6725e+005 116900 225662,225714,225688
 4.8000e+001 225964  1.1343e+005 -4.3129e+006 -2.2786e+005 116560 225837,225889,225863
 4.8000e+001 225941  2.1593e+005 -3.7207e+006 -4.1437e+005 116560 225837,225915,225889
 4.8000e+001 226165  1.0869e+005 -5.1802e+006 -6.9744e+005 116106 226015,226093,226041
 4.8000e+001 226142 -1.3541e+006 -5.5259e+006 -3.7039e+006 116106 225989,226093,226015
 4.8000e+001 226119 -3.8050e+006 -1.8164e+006  1.3970e+006 116106 226041,226093,226067
 4.8000e+001 226268 -1.7402e+006 -5.4132e+006  8.8044e+005 115716 226190,226242,226216
 4.8000e+001 226420 -5.7239e+005 -8.6630e+006  1.9471e+006 115376 226293,226345,226319
 4.8000e+001 226397 -8.9128e+005 -8.8657e+006  2.1912e+006 115376 226293,226371,226345
 4.8000e+001 226621 -2.6083e+005 -1.2579e+006  7.2671e+004 114972 226497,226549,226523
 4.8000e+001 226598 -5.8023e+005 -7.6158e+006 -8.0716e+005 114972 226445,226549,226497
 4.8000e+001 226575 -1.6358e+005 -3.1005e+006  5.9025e+005 114972 226445,226497,226471
 4.8000e+001 226773 -6.9180e+005 -2.4580e+006 -1.0125e+006 114670 226646,226698,226672
 4.8000e+001 226750  3.6797e+005 -5.1102e+006  1.2014e+005 114670 226646,226724,226698
 4.8000e+001 226974  1.9767e+004 -1.0607e+006 -2.1109e+005 114082 226798,226850,226824
 4.8000e+001 226951  6.7949e+004 -1.4998e+006 -5.6540e+004 114082 226798,226902,226850
 4.8000e+001 226928  3.0591e+004 -2.0497e+006 -2.1577e+005 114082 226850,226902,226876
 4.8000e+001 227175 -6.4823e+005 -4.9536e+006 -2.2970e+006 113678 226999,227051,227025
 4.8000e+001 227152 -2.0372e+006 -8.8565e+006 -3.7052e+006 113678 226999,227077,227051
 4.8000e+001 227129 -2.1402e+006 -7.2613e+006 -3.6225e+006 113678 226999,227103,227077
 4.8000e+001 227425 -2.0121e+006 -8.4892e+006 -7.7785e+006 113274 227226,227278,227252
 4.8000e+001 227402  4.2574e+005 -7.7004e+006 -9.5333e+005 113274 227226,227330,227278
 4.8000e+001 227379 -1.6290e+006 -3.9423e+006 -7.4416e+005 113274 227200,227330,227226
 4.8000e+001 227356 -6.3659e+005 -1.2011e+006 -1.0897e+006 113274 227278,227330,227304
 4.8000e+001 227626  1.2475e+005 -4.1248e+006 -1.4704e+006 112934 227502,227554,227528
 4.8000e+001 227603  8.2586e+004 -2.8623e+006  7.8612e+003 112934 227450,227554,227502
 4.8000e+001 227580 -1.5906e+006 -1.3274e+006 -2.7674e+005 112934 227450,227502,227476
 4.8000e+001 227876 -5.2689e+005 -6.7911e+005  2.4419e+004 112437 227677,227755,227703
 4.8000e+001 227853 -8.6010e+005 -8.5732e+005  7.1610e+005 112437 227677,227781,227755
 4.8000e+001 227830 -2.7516e+005 -3.9192e+005  2.1661e+005 112437 227703,227755,227729
 4.8000e+001 227807 -2.6945e+005 -3.0417e+006 -1.5273e+004 112437 227651,227781,227677
 4.8000e+001 228126 -3.8682e+005 -4.6048e+006 -1.8397e+005 112041 227927,228005,227953
 4.8000e+001 228103 -5.9103e+005 -4.5512e+006 -1.6906e+005 112041 227927,228031,228005
 4.8000e+001 228080 -1.2268e+005 -5.3092e+006 -1.8861e+004 112041 227953,228005,227979
 4.8000e+001 228057 -1.6208e+006 -3.1019e+006 -8.5033e+005 112041 227901,228031,227927
 4.8000e+001 228327 -1.3607e+006 -3.2465e+006 -8.3518e+005 111693 228151,228203,228177
 4.8000e+001 228304 -9.9746e+005 -1.9244e+006 -1.1526e+006 111693 228151,228229,228203
 4.8000e+001 228281  1.7969e+004 -3.3626e+006 -1.0166e+005 111693 228151,228255,228229
 4.8000e+001 228479 -2.8796e+006 -2.5406e+006 -3.2017e+006 111253 228352,228404,228378
 4.8000e+001 228456 -1.9257e+006 -8.3028e+005 -1.8365e+005 111253 228352,228430,228404
 4.8000e+001 228582 -1.7256e+006 -3.0620e+006 -2.3663e+004 110906 228504,228556,228530
 4.8000e+001 228783 -1.0151e+005 -1.2513e+006  1.1445e+005 110416 228633,228711,228659
 4.8000e+001 228760 -1.7396e+004 -6.1399e+005 -8.8905e+003 110416 228607,228711,228633
 4.8000e+001 228737 -2.9258e+004 -7.5915e+005  7.3990e+004 110416 228659,228711,228685
 4.8000e+001 228935 -5.9675e+004 -3.2796e+006 -4.2066e+005 110012 228808,228860,228834
 4.8000e+001 228912 -7.4894e+005 -6.3130e+006 -1.1251e+006 110012 228808,228886,228860
 4.8000e+001 229087 -1.8999e+006 -3.0637e+006 -8.8719e+005 109672 228960,229012,228986
 4.8000e+001 229064 -1.3012e+006 -5.9820e+006  9.7175e+004 109672 228960,229038,229012
 4.8000e+001 229190  3.1553e+004 -7.3120e+005 -1.3022e+004 109332 229112,229164,229138
 4.8000e+001 229391  9.2767e+003 -2.7539e+004  7.7799e+003 109156 229267,229319,229293
 4.8000e+001 229368 -1.0971e+004 -1.6777e+005  6.4451e+003 109156 229215,229319,229267
 4.8000e+001 229345  2.0938e+004 -3.4564e+004  4.8123e+003 109156 229215,229267,229241
 4.8000e+001 229543  2.8229e+004 -8.7969e+006  1.0259e+006 108752 229416,229468,229442
 4.8000e+001 229520 -4.9030e+005 -7.5248e+006  6.4331e+005 108752 229416,229494,229468
 4.8000e+001 229744 -4.0169e+005 -6.3817e+006 -5.7928e+005 108198 229594,229646,229620
 4.8000e+001 229721  4.0145e+004 -6.4072e+006  1.0862e+006 108198 229594,229672,229646
 4.8000e+001 229698 -6.1770e+005 -7.0175e+006  6.7367e+005 108198 229568,229672,229594
 4.8000e+001 229847 -1.4853e+004 -3.0369e+005 -3.8821e+004 107758 229769,229821,229795
 4.8000e+001 230048 -7.9946e+005 -2.1579e+006 -5.0102e+005 107468 229898,229950,229924
 4.8000e+001 230025 -3.3530e+005 -2.0182e+006 -4.1900e+005 107468 229872,229950,229898
 4.8000e+001 230002 -7.2755e+005 -2.0908e+006 -3.7887e+005 107468 229872,229976,229950
 4.8000e+001 230298  1.0946e+005 -8.3881e+005  2.0849e+005 107121 230099,230203,230177
 4.8000e+001 230275  1.0938e+005 -6.3426e+005  2.1707e+005 107121 230073,230203,230099
 4.8000e+001 230252  1.3332e+005 -9.5461e+005 -8.3436e+004 107121 230099,230177,230151
 4.8000e+001 230229 -1.2353e+005 -7.4119e+005 -3.0396e+005 107121 230099,230151,230125
 4.8000e+001 230450  1.0725e+005 -1.2918e+006 -1.2300e+005 106823 230349,230401,230375
 4.8000e+001 230427 -7.3379e+004 -3.9467e+005  7.0568e+004 106823 230323,230401,230349
 4.8000e+001 230602 -1.1223e+006 -1.1761e+007 -5.8292e+006 106533 230501,230553,230527
 4.8000e+001 230579 -6.2007e+005 -1.0706e+007  2.0778e+006 106533 230475,230553,230501
 4.8000e+001 230803 -1.1902e+005 -1.2372e+006 -9.4838e+004 106029 230679,230731,230705
 4.8000e+001 230780 -4.5313e+004 -9.6419e+005  6.6343e+004 106029 230653,230731,230679
 4.8000e+001 230757 -1.8977e+003 -9.2269e+005  9.3213e+004 106029 230627,230731,230653
 4.8000e+001 231004 -1.8091e+005 -1.3926e+006 -1.6730e+004 105689 230854,230906,230880
 4.8000e+001 230981 -2.8914e+005 -2.2707e+006 -9.2523e+005 105689 230828,230906,230854
 4.8000e+001 230958 -6.2217e+005 -2.1696e+006 -1.0116e+006 105689 230828,230932,230906
 4.8000e+001 231156 -6.3593e+005 -4.9072e+006  6.8697e+005 105377 231055,231107,231081
 4.8000e+001 231133  6.8883e+005 -8.8355e+006 -2.9704e+005 105377 231029,231107,231055
 4.8000e+001 231406 -8.4719e+005 -8.3320e+006 -4.0647e+005 104858 231207,231259,231233
 4.8000e+001 231383 -2.3101e+006 -8.1323e+006 -1.0816e+006 104858 231207,231311,231259
 4.8000e+001 231360 -1.1034e+006 -1.1803e+007 -2.2427e+006 104858 231259,231311,231285
 4.8000e+001 231337 -8.0136e+005 -1.1509e+007 -1.7719e+006 104858 231181,231311,231207
 4.8000e+001 231558 -1.6457e+006 -1.3243e+007  5.1508e+006 104418 231457,231509,231483
 4.8000e+001 231535 -1.1848e+006 -1.3345e+007 -6.2333e+006 104418 231431,231509,231457
 4.8000e+001 231710 -1.4570e+006 -1.1600e+006 -4.8140e+005 103978 231583,231635,231609
 4.8000e+001 231687 -1.1251e+006 -1.1252e+006 -6.7426e+005 103978 231583,231661,231635
 4.8000e+001 231862 -1.5383e+004 -1.5079e+006 -1.1190e+005 103588 231761,231813,231787
 4.8000e+001 231839  3.5201e+003 -1.4376e+006 -1.0426e+005 103588 231735,231813,231761
 4.8000e+001 232014 -1.5928e+006 -8.3206e+006 -2.0816e+006 103248 231887,231939,231913
 4.8000e+001 231991 -9.3397e+005 -1.7088e+007 -4.9940e+006 103248 231887,231965,231939
 4.8000e+001 232215 -1.5805e+005 -2.6779e+006  1.0488e+005 102844 232039,232117,232065
 4.8000e+001 232192  1.0491e+005 -1.4262e+006  1.0445e+005 102844 232039,232143,232117
 4.8000e+001 232169 -3.4625e+005 -1.7788e+006 -5.1428e+005 102844 232065,232117,232091
 4.8000e+001 232416 -3.7301e+006 -9.9667e+006 -2.9174e+006 102554 232240,232318,232292
 4.8000e+001 232393  8.0720e+005 -1.5612e+007  5.6184e+005 102554 232240,232344,232318
 4.8000e+001 232370 -4.0454e+006 -3.6411e+006 -9.9142e+005 102554 232240,232292,232266
 4.8000e+001 232568 -1.9424e+004 -1.5239e+006  4.5725e+004 102100 232441,232493,232467
 4.8000e+001 232545 -3.0418e+005 -1.5973e+006  6.7749e+004 102100 232441,232519,232493
 4.8000e+001 232769 -2.9622e+004 -4.3000e+005 -6.8804e+002 101596 232645,232697,232671
 4.8000e+001 232746  1.3509e+003 -3.0653e+005 -1.9492e+004 101596 232593,232697,232645
 4.8000e+001 232723  2.1470e+004 -6.8248e+005 -1.1135e+003 101596 232593,232645,232619
 4.8000e+001 232921  5.0505e+002  2.3491e+001 -6.1045e+001 101420 232794,232846,232820
 4.8000e+001 232898  4.1496e+002 -3.7095e+002 -2.3166e+001 101420 232794,232872,232846
 4.8000e+001 233073 -1.0444e+006 -9.8971e+005 -6.5961e+005 101023 232946,232998,232972
 4.8000e+001 233050  2.0078e+005 -2.7547e+006  6.7900e+005 101023 232946,233024,232998
 4.8000e+001 233225  1.3265e+005 -2.6493e+006 -1.1991e+004 100661 233098,233150,233124
 4.8000e+001 233202 -8.5049e+004 -1.6819e+006 -6.2937e+004 100661 233098,233176,233150
 4.8000e+001 233426 -2.1829e+006 -7.4336e+006 -2.5074e+006 100265 233276,233328,233302
 4.8000e+001 233403 -1.2492e+006 -6.1782e+006  1.9913e+005 100265 233276,233354,233328
 4.8000e+001 233380 -1.7945e+006 -1.0132e+007 -8.2196e+005 100265 233250,233354,233276
 4.8000e+001 233578 -6.5198e+002 -6.5537e+004  2.3024e+003 100032 233451,233503,233477
 4.8000e+001 233555 -3.2427e+004 -7.3064e+004  2.5079e+004 100032 233451,233529,233503
 4.8000e+001 233681 -5.3818e+005 -3.4661e+004  2.3826e+004 99742 233603,233655,233629
 4.8000e+001 233784 -2.8163e+005 -3.1413e+006 -3.5939e+005 99402 233706,233758,233732
 4.8000e+001 233936 -6.4714e+005 -1.6656e+006 -1.5539e+004 99062 233835,233887,233861
 4.8000e+001 233913 -5.6807e+005 -1.4023e+006  2.0530e+005 99062 233809,233887,233835
 4.8000e+001 234088 -6.4585e+005 -4.1293e+006  1.2599e+006 98772 233987,234039,234013
 4.8000e+001 234065 -3.3364e+005 -4.0862e+006  1.1015e+006 98772 233961,234039,233987
 4.8000e+001 234240 -1.7097e+004 -6.7847e+004  2.3286e+004 98160 234139,234191,234165
 4.8000e+001 234217 -2.2900e+004 -7.7898e+004 -9.5619e+003 98160 234113,234191,234139
 4.8000e+001 234441  1.0146e+003 -2.7030e+002  6.2137e+002 97820 234317,234369,234343
 4.8000e+001 234418  9.4058e+002 -1.0158e+003 -1.5807e+003 97820 234291,234369,234317
 4.8000e+001 234395 -2.5054e+003 -7.3400e+002 -3.1704e+003 97820 234265,234369,234291
 4.8000e+001 234593 -7.1530e+005 -1.2342e+006 -4.2619e+005 97366 234466,234518,234492
 4.8000e+001 234570  3.4996e+005 -4.2908e+006 -7.2552e+005 97366 234466,234544,234518
 4.8000e+001 234794 -1.0137e+006 -1.5794e+006 -1.0976e+006 96976 234618,234670,234644
 4.8000e+001 234771 -1.3564e+005 -3.2750e+006 -9.1359e+005 96976 234618,234722,234670
 4.8000e+001 234748 -5.2810e+005 -3.0840e+006 -1.6110e+006 96976 234670,234722,234696
 4.8000e+001 234946 -7.1171e+005 -2.5158e+006  1.1874e+006 96568 234845,234897,234871
 4.8000e+001 234923 -4.4842e+005 -1.2031e+006  1.0082e+006 96568 234819,234897,234845
 4.8000e+001 235196 -1.9224e+005 -9.4302e+005 -1.9131e+005 96216 234997,235075,235049
 4.8000e+001 235173  3.5807e+004 -4.2616e+006  1.1808e+006 96216 234997,235101,235075
 4.8000e+001 235150 -5.2576e+005 -1.4731e+006  2.2001e+005 96216 234997,235049,235023
 4.8000e+001 235127 -1.1822e+005 -4.7212e+006  2.9698e+005 96216 234971,235101,234997
 4.8000e+001 235348 -1.1323e+006 -2.5621e+006 -3.2295e+005 95863 235247,235299,235273
 4.8000e+001 235325 -1.1017e+006 -1.2558e+006 -6.7298e+005 95863 235221,235299,235247
 4.8000e+001 235500 -9.7319e+005 -2.7022e+006 -1.5584e+006 95339 235373,235425,235399
 4.8000e+001 235477 -4.5223e+005 -4.8940e+006  3.1000e+006 95339 235373,235451,235425
 4.8000e+001 235701  2.1071e+005 -3.8971e+006  7.0748e+005 95023 235525,235577,235551
 4.8000e+001 235678 -1.3532e+005 -3.7993e+006  6.2155e+005 95023 235525,235629,235577
 4.8000e+001 235655  4.3422e+004 -6.1506e+006  1.0395e+006 95023 235577,235629,235603
 4.8000e+001 235853  1.0050e+006 -1.0906e+007  1.2494e+006 94671 235726,235778,235752
 4.8000e+001 235830 -3.4667e+005 -8.3174e+006 -6.9394e+005 94671 235726,235804,235778
 4.8000e+001 236005 -1.0771e+006 -8.2219e+006 -1.2731e+006 94261 235904,235956,235930
 4.8000e+001 235982 -7.1638e+005 -9.1922e+006 -2.2202e+006 94261 235878,235956,235904
 4.8000e+001 236206 -5.4535e+005 -5.0121e+005  9.4449e+005 93853 236056,236134,236082
 4.8000e+001 236183 -1.2500e+006 -7.0338e+005  3.8862e+005 93853 236030,236134,236056
 4.8000e+001 236160 -8.4618e+005 -7.9151e+005  7.6562e+005 93853 236082,236134,236108
 4.8000e+001 236407 -6.6529e+005 -6.6866e+006  4.4003e+005 93557 236257,236309,236283
 4.8000e+001 236384 -1.7817e+006 -7.4943e+006 -2.0118e+006 93557 236231,236309,236257
 4.8000e+001 236361 -6.6014e+005 -1.2613e+007 -2.6123e+005 93557 236231,236335,236309
 4.8000e+001 236559 -4.0418e+003 -5.4605e+004  2.1029e+004 93149 236432,236484,236458
 4.8000e+001 236536  1.6879e+004 -1.5689e+004  4.3529e+004 93149 236432,236510,236484
 4.8000e+001 236711 -6.7068e+004 -1.2757e+005  9.6177e+003 92853 236584,236636,236610
 4.8000e+001 236688 -1.6456e+004 -5.3613e+005  7.8970e+004 92853 236584,236662,236636
 4.8000e+001 236912 -2.8489e+005 -3.4055e+006  1.3495e+006 92501 236736,236788,236762
 4.8000e+001 236889 -4.4952e+005 -1.8056e+006  4.3707e+005 92501 236736,236840,236788
 4.8000e+001 236866 -6.8706e+005 -2.7189e+006  5.1300e+005 92501 236788,236840,236814
 4.8000e+001 237113 -9.9073e+004 -5.0750e+006  4.8823e+005 92291 236963,237041,237015
 4.8000e+001 237090 -2.9299e+004 -2.8656e+006  6.9369e+004 92291 236937,237041,236963
 4.8000e+001 237067 -2.5344e+005 -4.7508e+006  1.0963e+006 92291 236963,237015,236989
 4.8000e+001 237265  1.8625e+005 -1.4544e+006 -5.7345e+005 91871 237138,237190,237164
 4.8000e+001 237242 -9.9642e+005 -3.8064e+006 -1.5425e+006 91871 237138,237216,237190
 4.8000e+001 237368 -1.5749e+003 -1.4795e+006  9.8697e+002 91581 237290,237342,237316
 4.8000e+001 237520 -2.5423e+004 -1.6027e+005  3.4314e+004 91184 237419,237471,237445
 4.8000e+001 237497 -4.8612e+004 -3.5059e+005 -1.3258e+005 91184 237393,237471,237419
 4.8000e+001 237672 -4.9401e+005 -1.4013e+006 -4.9445e+005 90894 237545,237597,237571
 4.8000e+001 237649 -1.5453e+005 -5.6349e+006  1.4236e+006 90894 237545,237623,237597
 4.8000e+001 237873 -1.2734e+006 -5.0513e+006  9.9103e+005 90490 237749,237801,237775
 4.8000e+001 237850 -7.6060e+005 -4.2311e+006  1.4008e+006 90490 237723,237801,237749
 4.8000e+001 237827 -9.2732e+005 -4.2872e+006 -4.5612e+005 90490 237697,237801,237723
 4.8000e+001 238074 -8.6805e+005 -6.0692e+006  5.8288e+005 90100 237898,237976,237950
 4.8000e+001 238051 -1.3107e+006 -6.1288e+006  5.4510e+005 90100 237898,238002,237976
 4.8000e+001 238028 -5.5092e+005 -5.9818e+006  3.3876e+005 90100 237898,237950,237924
 4.8000e+001 238275 -2.1079e+005 -2.7345e+006  1.1809e+006 89696 238125,238177,238151
 4.8000e+001 238252 -3.5910e+005 -1.7054e+006 -9.4270e+005 89696 238099,238177,238125
 4.8000e+001 238229 -6.4145e+005 -2.2840e+006 -7.2805e+005 89696 238099,238203,238177
 4.8000e+001 238427 -6.9660e+003 -1.1844e+005 -5.7460e+004 89206 238326,238378,238352
 4.8000e+001 238404 -3.6950e+004 -3.7497e+005 -8.8179e+004 89206 238300,238378,238326
 4.8000e+001 238579 -1.0701e+006 -4.2969e+006  2.0322e+006 88908 238452,238504,238478
 4.8000e+001 238556 -1.9252e+005 -3.2210e+006  4.2830e+004 88908 238452,238530,238504
 4.8000e+001 238682  2.0937e+002 -4.7686e+005  5.5170e+002 88568 238604,238656,238630
 4.8000e+001 238883  2.4923e+005 -6.5963e+006  1.8897e+006 88278 238733,238811,238785
 4.8000e+001 238860 -8.3123e+005 -3.5331e+006  1.6401e+006 88278 238707,238811,238733
 4.8000e+001 238837 -2.4875e+005 -6.9753e+006  1.3205e+006 88278 238733,238785,238759
 4.8000e+001 239035 -1.4729e+006 -4.2914e+006 -4.3127e+005 87988 238908,238960,238934
 4.8000e+001 239012 -1.5769e+006 -2.0334e+006  2.1505e+005 87988 238908,238986,238960
 4.8000e+001 239138  2.2292e+004 -7.0998e+005  1.3235e+005 87648 239060,239112,239086
 4.8000e+001 239339 -1.0899e+006 -3.3275e+006 -2.0395e+006 87358 239163,239215,239189
 4.8000e+001 239316 -1.0934e+006 -2.1502e+006 -4.9261e+005 87358 239163,239241,239215
 4.8000e+001 239293 -8.5577e+005 -1.1497e+006 -9.2965e+005 87358 239163,239267,239241
 4.8000e+001 239589 -4.7860e+002 -2.7296e+003  9.3514e+001 86961 239390,239468,239416
 4.8000e+001 239566 -4.6317e+003 -1.6577e+003  3.1556e+003 86961 239390,239494,239468
 4.8000e+001 239543 -6.0289e+002 -1.6677e+002 -8.7819e+001 86961 239416,239468,239442
 4.8000e+001 239520 -6.1294e+003 -2.6186e+003  2.4151e+003 86961 239364,239494,239390
 4.8000e+001 239741 -1.0070e+006 -3.5932e+006 -4.9767e+005 86621 239640,239692,239666
 4.8000e+001 239718 -2.0053e+004 -4.1379e+006 -8.5360e+005 86621 239614,239692,239640
 4.8000e+001 239893 -5.7117e+005 -5.9439e+006  1.6921e+006 86217 239792,239844,239818
 4.8000e+001 239870 -6.9141e+005 -4.6229e+006  1.0773e+006 86217 239766,239844,239792
 4.8000e+001 240045 -1.0172e+006 -4.0093e+006  1.0704e+006 85827 239918,239970,239944
 4.8000e+001 240022 -2.3252e+005 -3.7882e+006  3.1932e+005 85827 239918,239996,239970
 4.8000e+001 240197 -7.6395e+005 -8.5461e+006  1.1279e+006 85437 240096,240148,240122
 4.8000e+001 240174 -1.6991e+006 -1.6542e+006 -5.0317e+005 85437 240070,240148,240096
 4.8000e+001 240349 -1.4142e+005 -1.8908e+006  6.9730e+005 85147 240222,240274,240248
 4.8000e+001 240326 -1.2477e+005 -1.0139e+006 -1.4105e+005 85147 240222,240300,240274
 4.8000e+001 240501 -2.5581e+005 -1.1470e+006  4.7276e+005 84807 240374,240426,240400
 4.8000e+001 240478 -1.9129e+006 -2.2832e+006  1.4543e+006 84807 240374,240452,240426
 4.8000e+001 240653 -3.7574e+003 -2.7031e+002 -3.1257e+003 84303 240552,240604,240578
 4.8000e+001 240630 -3.3609e+003  1.1132e+003 -2.9219e+003 84303 240526,240604,240552
 4.8000e+001 240854 -1.8163e+005 -1.2360e+007 -5.6365e+006 83929 240704,240756,240730
 4.8000e+001 240831  1.7454e+006 -1.0053e+007  2.5020e+006 83929 240704,240782,240756
 4.8000e+001 240808 -3.5166e+006  1.8501e+006  2.9168e+006 83929 240678,240782,240704
 4.8000e+001 241055 -4.5752e+003 -2.3948e+004 -6.3121e+003 83539 240879,240957,240931
 4.8000e+001 241032 -2.1500e+004 -2.4213e+004 -1.1153e+004 83539 240879,240983,240957
 4.8000e+001 241009 -1.0169e+004 -5.6230e+003 -7.2839e+003 83539 240879,240931,240905
 4.8000e+001 241207  1.1473e+005 -2.3120e+006  2.0345e+005 83079 241106,241158,241132
 4.8000e+001 241184 -1.4646e+005 -9.9158e+005  2.8144e+005 83079 241080,241158,241106
 4.8000e+001 241408  1.2273e+006 -4.0191e+006  2.7654e+005 82665 241232,241284,241258
 4.8000e+001 241385 -1.6959e+006 -1.3480e+007 -3.9431e+006 82665 241232,241336,241284
 4.8000e+001 241362 -4.1763e+006  4.7683e+006  6.9754e+006 82665 241284,241336,241310
 4.8000e+001 241658 -1.9981e+005 -4.4307e+006  5.6820e+005 82375 241485,241563,241511
 4.8000e+001 241635  5.2718e+004 -2.6293e+006  2.5538e+005 82375 241433,241563,241485
 4.8000e+001 241612 -7.0234e+004 -3.1014e+006  2.9282e+005 82375 241433,241485,241459
 4.8000e+001 241589 -6.6385e+005 -4.9285e+006  8.5639e+005 82375 241511,241563,241537
 4.8000e+001 241810 -9.8818e+005 -3.2602e+006 -4.3958e+005 82035 241683,241735,241709
 4.8000e+001 241787 -1.5342e+006 -4.2522e+006  8.0459e+005 82035 241683,241761,241735
 4.8000e+001 241962 -7.6373e+005 -3.2180e+006  4.0301e+005 81695 241861,241913,241887
 4.8000e+001 241939 -2.1515e+005 -3.6869e+006 -5.5678e+005 81695 241835,241913,241861
 4.8000e+001 242114 -1.2277e+006 -7.0342e+006  2.4504e+006 81355 242013,242065,242039
 4.8000e+001 242091 -2.3803e+005 -3.9146e+006  1.1316e+006 81355 241987,242065,242013
 4.8000e+001 242266 -9.7504e+004 -5.2108e+005 -1.2133e+005 80951 242139,242191,242165
 4.8000e+001 242243 -2.9232e+005 -1.2846e+006 -1.8654e+005 80951 242139,242217,242191
 4.8000e+001 242467 -4.8521e+005 -5.3160e+006  5.8890e+005 80311 242291,242369,242343
 4.8000e+001 242444  2.1775e+004 -3.0545e+006  5.1315e+005 80311 242291,242395,242369
 4.8000e+001 242421 -4.2082e+005 -2.1787e+006  9.9697e+004 80311 242291,242343,242317
 4.8000e+001 242619 -1.6346e+006 -3.8037e+006  5.3963e+005 80021 242492,242544,242518
 4.8000e+001 242596 -1.4975e+006 -3.3427e+006  1.7260e+006 80021 242492,242570,242544
 4.8000e+001 242869 -3.6950e+005 -1.1749e+006  1.5747e+005 79631 242644,242722,242696
 4.8000e+001 242846 -6.6935e+004 -1.7909e+006  2.3269e+005 79631 242644,242774,242722
 4.8000e+001 242823 -1.0177e+005 -1.9537e+006  2.1495e+005 79631 242722,242774,242748
 4.8000e+001 242800 -3.9137e+005 -1.4126e+006  3.0221e+005 79631 242644,242696,242670
 4.8000e+001 243070  1.1847e+004 -1.7089e+007  3.6054e+006 79341 242920,242972,242946
 4.8000e+001 243047 -7.6501e+005 -9.4139e+006 -2.7482e+005 79341 242920,242998,242972
 4.8000e+001 243024 -1.1370e+006 -6.1474e+006  2.6443e+006 79341 242894,242998,242920
 4.8000e+001 243222 -4.1175e+005 -4.1852e+006  1.6508e+006 78801 243121,243173,243147
 4.8000e+001 243199 -6.0280e+005 -4.9813e+006  1.6302e+006 78801 243095,243173,243121
 4.8000e+001 243423 -9.1779e+005 -4.9586e+006 -5.3576e+005 78511 243273,243325,243299
 4.8000e+001 243400  7.6147e+005 -9.9708e+006  2.0761e+006 78511 243273,243351,243325
 4.8000e+001 243377 -6.2250e+003 -1.0276e+007  2.5636e+005 78511 243247,243351,243273
 4.8000e+001 243624 -4.2293e+005 -4.5237e+006 -1.3227e+006 78107 243474,243552,243526
 4.8000e+001 243601 -4.0368e+005 -4.5621e+006 -1.2857e+006 78107 243448,243552,243474
 4.8000e+001 243578 -5.1691e+005 -5.2823e+006 -2.0363e+006 78107 243474,243526,243500
 4.8000e+001 243776 -6.7895e+005 -4.7494e+006 -8.6305e+005 77653 243649,243701,243675
 4.8000e+001 243753 -1.6137e+006 -7.8726e+006 -3.2534e+005 77653 243649,243727,243701
 4.8000e+001 243977 -4.3778e+005 -6.2116e+006  2.5614e+004 77093 243801,243853,243827
 4.8000e+001 243954 -7.9273e+004 -5.1225e+006  7.2289e+005 77093 243801,243879,243853
 4.8000e+001 243931  2.1907e+003 -2.8896e+006 -3.2417e+004 77093 243801,243905,243879
 4.8000e+001 244080 -1.1723e+006 -4.6762e+006  6.7305e+005 76791 244002,244054,244028
 4.8000e+001 244232 -3.5603e+005 -4.7894e+006  5.0795e+004 76311 244131,244183,244157
 4.8000e+001 244209 -2.3979e+005 -9.9402e+006  6.5864e+005 76311 244105,244183,244131
 4.8000e+001 244433 -1.8470e+006 -1.9110e+007  4.2605e+006 75903 244283,244335,244309
 4.8000e+001 244410 -1.3133e+006 -1.3591e+007  1.6767e+005 75903 244283,244361,244335
 4.8000e+001 244387 -2.9914e+006 -1.1264e+007  1.8465e+006 75903 244257,244361,244283
 4.8000e+001 244585  5.0229e+004 -1.8662e+007  1.8125e+006 75419 244458,244510,244484
 4.8000e+001 244562 -8.3620e+005 -1.2045e+007  3.1913e+005 75419 244458,244536,244510
 4.8000e+001 244737 -5.0934e+005 -2.2259e+006 -2.1366e+005 75215 244636,244688,244662
 4.8000e+001 244714 -5.3147e+005 -2.5863e+006 -2.3969e+005 75215 244610,244688,244636
 4.8000e+001 244889 -9.5993e+005 -5.3428e+006 -4.3626e+005 74857 244788,244840,244814
 4.8000e+001 244866 -2.0574e+005 -2.4074e+006 -2.4168e+005 74857 244762,244840,244788
 4.8000e+001 245041  3.6139e+004 -3.6228e+005 -2.3348e+005 74653 244940,244992,244966
 4.8000e+001 245018 -4.5875e+004 -8.4545e+004  1.4049e+005 74653 244914,244992,244940
 4.8000e+001 245144 -7.8891e+005 -8.1209e+006 -1.5985e+006 74359 245066,245118,245092
 4.8000e+001 245296 -1.0602e+005 -1.6751e+006 -5.2366e+005 74007 245169,245221,245195
 4.8000e+001 245273 -5.9887e+005 -2.8882e+006 -8.9434e+005 74007 245169,245247,245221
 4.8000e+001 245448 -1.0477e+006 -8.3734e+006  1.7550e+006 73711 245321,245373,245347
 4.8000e+001 245425 -2.6139e+005 -8.1195e+006 -2.9543e+006 73711 245321,245399,245373
 4.8000e+001 245600  5.3807e+005 -1.4553e+007 -1.1272e+006 73301 245499,245551,245525
 4.8000e+001 245577 -1.7888e+006 -1.0721e+007  1.8930e+006 73301 245473,245551,245499
 4.8000e+001 245752 -2.1759e+006 -3.2092e+006 -1.9513e+006 72995 245625,245677,245651
 4.8000e+001 245729  6.9222e+005 -1.2786e+007 -1.6232e+006 72995 245625,245703,245677
 4.8000e+001 245953 -2.8135e+006 -1.2527e+007  1.4822e+006 72585 245777,245829,245803
 4.8000e+001 245930 -1.3204e+006 -1.7057e+007  4.3285e+006 72585 245777,245855,245829
 4.8000e+001 245907 -4.2734e+005 -1.0193e+007  1.8900e+006 72585 245777,245881,245855
 4.8000e+001 246154 -3.8799e+005 -7.1938e+006  1.3204e+006 72127 246030,246082,246056
 4.8000e+001 246131 -1.3191e+006 -1.0001e+007  6.3955e+005 72127 245978,246082,246030
 4.8000e+001 246108 -5.9767e+004 -9.9538e+006 -4.3149e+004 72127 245978,246030,246004
 4.8000e+001 246257 -6.5256e+005 -1.5508e+006 -5.9523e+005 71737 246179,246231,246205
 4.8000e+001 246360  1.6452e+005 -3.3505e+006  4.3310e+005 71447 246282,246334,246308
 4.8000e+001 246512 -4.0063e+005 -2.8495e+006  1.1384e+006 71157 246385,246437,246411
 4.8000e+001 246489 -9.3895e+004 -2.1332e+006 -1.0762e+005 71157 246385,246463,246437
 4.8000e+001 246664 -1.4222e+005 -2.7719e+006 -3.9933e+005 70753 246537,246589,246563
 4.8000e+001 246641 -5.9683e+005 -1.4953e+006 -2.1469e+005 70753 246537,246615,246589
 4.8000e+001 246865 -2.3684e+006 -1.2055e+007  7.5163e+006 70249 246715,246767,246741
 4.8000e+001 246842 -2.4717e+006 -1.0876e+007 -4.2963e+005 70249 246715,246793,246767
 4.8000e+001 246819 -5.6944e+005 -1.4327e+007 -2.4684e+006 70249 246689,246793,246715
 4.8000e+001 247066  5.9069e+004 -2.3785e+006  2.1810e+005 70023 246916,246994,246942
 4.8000e+001 247043 -6.5551e+004 -2.2062e+006  2.7974e+005 70023 246890,246994,246916
 4.8000e+001 247020  9.7341e+004 -2.4460e+006  4.3129e+005 70023 246942,246994,246968
 4.8000e+001 247267 -4.5061e+005 -4.9294e+006 -6.6107e+005 69633 247091,247143,247117
 4.8000e+001 247244 -1.0821e+005 -3.4373e+006 -4.5458e+005 69633 247091,247169,247143
 4.8000e+001 247221 -7.2380e+004 -3.1670e+006 -4.4875e+005 69633 247091,247195,247169
 4.8000e+001 247419 -1.0005e+006 -6.1305e+006  3.2678e+005 69457 247318,247370,247344
 4.8000e+001 247396 -1.4150e+006 -2.5307e+006  5.7043e+005 69457 247292,247370,247318
 4.8000e+001 247522 -1.4844e+002  1.1918e+001  6.3497e+001 69209 247444,247496,247470
 4.8000e+001 247625 -1.5601e+006 -1.6373e+006 -1.1124e+006 68919 247547,247599,247573
 4.8000e+001 247777  1.2746e+005 -6.5532e+006 -1.8775e+005 68579 247650,247702,247676
 4.8000e+001 247754 -2.2553e+005 -1.8519e+006 -6.8883e+004 68579 247650,247728,247702
 4.8000e+001 247929  1.3778e+005 -4.5328e+006  2.0464e+006 68289 247802,247854,247828
 4.8000e+001 247906 -2.3389e+005 -1.8775e+006 -3.2951e+005 68289 247802,247880,247854
 4.8000e+001 248081 -3.6317e+005 -4.7305e+006  1.3900e+006 67949 247980,248032,248006
 4.8000e+001 248058 -5.2516e+005 -8.1968e+005  1.0199e+005 67949 247954,248032,247980
 4.8000e+001 248233 -1.1412e+006 -7.2734e+006 -7.8446e+005 67616 248132,248184,248158
 4.8000e+001 248210 -6.9851e+005 -5.8946e+006 -2.8739e+005 67616 248106,248184,248132
 4.8000e+001 248434 -1.2349e+005 -4.1467e+006 -1.7500e+005 67212 248284,248336,248310
 4.8000e+001 248411 -6.9428e+004 -4.1676e+006 -2.8864e+005 67212 248258,248336,248284
 4.8000e+001 248388 -1.5447e+006 -2.1248e+006 -5.9383e+005 67212 248258,248362,248336
 4.8000e+001 248586 -8.6247e+004 -5.3084e+006  4.2019e+005 66872 248485,248537,248511
 4.8000e+001 248563 -6.2532e+005 -1.4415e+006 -1.8547e+005 66872 248459,248537,248485
 4.8000e+001 248738 -5.2482e+005 -6.7348e+006  2.2863e+005 66510 248637,248689,248663
 4.8000e+001 248715 -7.0019e+005 -7.8556e+006  1.3759e+005 66510 248611,248689,248637
 4.8000e+001 248890 -2.4369e+004 -6.1024e+005  1.2184e+005 66220 248789,248841,248815
 4.8000e+001 248867 -6.2618e+004 -7.8348e+005 -2.0680e+005 66220 248763,248841,248789
 4.8000e+001 249091 -1.1050e+006 -1.0500e+007  3.3235e+006 65759 248915,248967,248941
 4.8000e+001 249068 -8.6868e+005 -9.5291e+006  3.3316e+006 65759 248915,248993,248967
 4.8000e+001 249045 -5.2332e+005 -6.6254e+006  1.2411e+006 65759 248915,249019,248993
 4.8000e+001 249243  1.1519e+005 -9.0090e+006  1.5868e+006 65419 249142,249194,249168
 4.8000e+001 249220  2.3183e+005 -3.0614e+006  1.3175e+004 65419 249116,249194,249142
 4.8000e+001 249395 -3.5871e+005 -2.9064e+006 -4.7672e+005 65079 249268,249320,249294
 4.8000e+001 249372 -4.1046e+005 -3.8699e+006 -6.8149e+005 65079 249268,249346,249320
 4.8000e+001 249547 -1.7489e+005 -1.9034e+006  2.5854e+005 64739 249420,249472,249446
 4.8000e+001 249524  2.6937e+005 -1.6392e+006 -1.3490e+005 64739 249420,249498,249472
 4.8000e+001 249650 -1.5318e+006 -5.7703e+006 -2.5989e+006 64342 249572,249624,249598
 4.8000e+001 249851 -6.2124e+005 -4.7247e+006 -4.3845e+005 63938 249701,249779,249753
 4.8000e+001 249828 -1.7360e+005 -4.8855e+006  1.1763e+006 63938 249675,249779,249701
 4.8000e+001 249805 -5.0244e+005 -8.0437e+006 -2.9566e+005 63938 249701,249753,249727
 4.8000e+001 250052 -6.2283e+005 -5.8074e+006 -1.0233e+006 63341 249876,249954,249902
 4.8000e+001 250029 -1.2381e+006 -6.2887e+006 -4.1701e+005 63341 249876,249980,249954
 4.8000e+001 250006  1.0004e+006 -7.6492e+006  5.1955e+005 63341 249902,249954,249928
 4.8000e+001 250253 -7.5560e+004 -4.2940e+006 -5.9606e+005 63058 250077,250129,250103
 4.8000e+001 250230 -6.4624e+005 -2.9069e+006  1.9931e+004 63058 250077,250155,250129
 4.8000e+001 250207 -1.6134e+005 -2.5355e+006 -4.4323e+005 63058 250077,250181,250155
 4.8000e+001 250454 -8.6425e+005 -7.5179e+006  1.0958e+006 62832 250304,250382,250330
 4.8000e+001 250431  1.4675e+005 -9.2704e+006 -2.3724e+006 62832 250278,250382,250304
 4.8000e+001 250408 -1.9512e+006 -5.1367e+006  2.6903e+005 62832 250330,250382,250356
 4.8000e+001 250606  1.2493e+005 -1.8215e+007 -4.3510e+005 62428 250479,250531,250505
 4.8000e+001 250583 -8.9031e+005 -1.5194e+007 -8.4857e+005 62428 250479,250557,250531
 4.8000e+001 250758  2.1118e+005 -8.1278e+006  7.7123e+005 62202 250631,250683,250657
 4.8000e+001 250735 -1.7955e+005 -8.1675e+006  7.2370e+005 62202 250631,250709,250683
 4.8000e+001 250861 -8.9133e+005 -3.7760e+006 -2.9748e+005 61954 250783,250835,250809
 4.8000e+001 251062 -2.2993e+006 -1.3626e+007 -1.0697e+005 61557 250912,250990,250938
 4.8000e+001 251039  2.8347e+004 -1.5919e+007 -7.2558e+004 61557 250886,250990,250912
 4.8000e+001 251016 -9.1655e+005 -1.6148e+007 -2.6727e+006 61557 250938,250990,250964
 4.8000e+001 251263 -9.4716e+005 -8.3094e+006 -3.1350e+005 61167 251113,251165,251139
 4.8000e+001 251240 -4.7404e+005 -7.7107e+006 -6.3092e+005 61167 251113,251191,251165
 4.8000e+001 251217 -1.2023e+006 -7.4311e+006  1.8865e+006 61167 251087,251191,251113
 4.8000e+001 251415 -7.9604e+005 -5.4311e+006  1.2222e+006 60827 251288,251340,251314
 4.8000e+001 251392 -4.7735e+005 -2.9693e+006 -1.0467e+005 60827 251288,251366,251340
 4.8000e+001 251567  1.8552e+005 -5.2302e+006  2.4491e+004 60487 251466,251518,251492
 4.8000e+001 251544 -5.7337e+004 -5.1602e+006 -4.2916e+005 60487 251440,251518,251466
 4.8000e+001 251719  2.1865e+004 -1.1085e+007 -1.1949e+005 59983 251592,251644,251618
 4.8000e+001 251696 -6.6510e+005 -8.8588e+006 -6.2476e+004 59983 251592,251670,251644
 4.8000e+001 251920 -1.6685e+005 -2.5170e+006 -3.9547e+004 59807 251770,251848,251796
 4.8000e+001 251897 -8.9148e+004 -1.7906e+006 -1.1893e+005 59807 251744,251848,251770
 4.8000e+001 251874 -1.3552e+005 -2.2074e+006  6.5303e+004 59807 251796,251848,251822
 4.8000e+001 252023  7.0714e+005 -5.4693e+006 -1.2041e+005 59517 251945,251997,251971
 4.8000e+001 252175  1.7536e+006 -1.5156e+007 -3.1623e+005 59269 252074,252126,252100
 4.8000e+001 252152 -2.0684e+005 -9.4096e+006  1.7463e+005 59269 252048,252126,252074
 4.8000e+001 252278 -5.0415e+005 -6.4910e+006  1.0679e+006 58979 252200,252252,252226
 4.8000e+001 252381 -2.6576e+006 -1.8466e+006  1.0492e+006 58689 252303,252355,252329
 4.8000e+001 252533 -7.1334e+005 -4.4549e+006 -8.0550e+005 58249 252432,252484,252458
 4.8000e+001 252510 -1.3030e+006 -7.5098e+006 -1.2188e+006 58249 252406,252484,252432
 4.8000e+001 252734 -4.6041e+005 -4.5444e+006  5.1780e+004 57902 252584,252662,252610
 4.8000e+001 252711  4.4864e+005 -6.1388e+006 -6.4391e+005 57902 252558,252662,252584
 4.8000e+001 252688 -4.7967e+005 -3.6014e+006 -6.2958e+005 57902 252610,252662,252636
 4.8000e+001 252886  3.4188e+005 -6.3962e+006 -4.8970e+005 57540 252785,252837,252811
 4.8000e+001 252863  3.4334e+005 -4.0937e+006  1.9685e+005 57540 252759,252837,252785
 4.8000e+001 253038 -6.6969e+005 -7.1462e+006  1.7339e+006 57086 252937,252989,252963
 4.8000e+001 253015 -8.6996e+004 -1.9149e+006  1.5325e+005 57086 252911,252989,252937
 4.8000e+001 253239 -2.0095e+006 -6.8521e+006 -2.8165e+006 56796 253063,253141,253115
 4.8000e+001 253216  2.3153e+005 -9.2930e+006  4.2030e+005 56796 253063,253167,253141
 4.8000e+001 253193 -2.5700e+006 -5.6598e+006 -2.5180e+006 56796 253063,253115,253089
 4.8000e+001 253342 -6.5326e+005 -1.9303e+007  9.5578e+003 56349 253264,253316,253290
 4.8000e+001 253543 -7.3908e+005 -7.5165e+006 -8.0853e+005 56009 253367,253419,253393
 4.8000e+001 253520 -4.8927e+005 -4.3106e+006 -5.0686e+005 56009 253367,253445,253419
 4.8000e+001 253497 -3.2495e+005 -5.4591e+006  4.3534e+004 56009 253367,253471,253445
 4.8000e+001 253695 -7.8147e+005 -1.3299e+006  6.7063e+005 55733 253594,253646,253620
 4.8000e+001 253672 -9.6585e+005 -5.6223e+005  6.6032e+005 55733 253568,253646,253594
 4.8000e+001 253798 -5.1564e+005 -2.2127e+006 -3.5526e+005 55557 253720,253772,253746
 4.8000e+001 253950 -6.7052e+005 -4.6970e+006 -6.3745e+003 55153 253849,253901,253875
 4.8000e+001 253927  2.2622e+004 -5.1906e+006 -6.2007e+005 55153 253823,253901,253849
 4.8000e+001 254151 -1.1035e+006 -5.2971e+006  3.8803e+005 54863 253975,254053,254001
 4.8000e+001 254128 -5.6041e+005 -5.0973e+006 -2.2636e+005 54863 253975,254079,254053
 4.8000e+001 254105 -6.0501e+005 -5.1186e+006  2.2323e+005 54863 254001,254053,254027
 4.8000e+001 254303 -4.7653e+004 -1.0683e+006  1.6595e+005 54373 254176,254228,254202
 4.8000e+001 254280 -5.4925e+003 -1.7089e+006  3.0309e+005 54373 254176,254254,254228
 4.8000e+001 254455  7.6067e+004 -6.4779e+006 -4.6096e+005 53975 254354,254406,254380
 4.8000e+001 254432 -4.8242e+005 -1.5060e+006  2.7327e+005 53975 254328,254406,254354
 4.8000e+001 254607 -9.5011e+004 -6.3243e+006 -3.5987e+005 53585 254480,254532,254506
 4.8000e+001 254584 -4.0792e+005 -5.8254e+006 -3.2784e+005 53585 254480,254558,254532
 4.8000e+001 254808 -8.0016e+005 -4.2255e+006 -2.9040e+005 53245 254658,254736,254684
 4.8000e+001 254785 -1.1534e+006 -2.1629e+006 -9.4113e+005 53245 254632,254736,254658
 4.8000e+001 254762 -4.5099e+005 -2.8711e+006 -4.2848e+005 53245 254684,254736,254710
 4.8000e+001 254911 -1.9356e+005 -3.5386e+006  1.2637e+005 52955 254833,254885,254859
 4.8000e+001 255063 -4.5625e+005 -7.8763e+006 -2.7360e+005 52551 254962,255014,254988
 4.8000e+001 255040 -5.7998e+005 -8.0554e+006 -3.7373e+005 52551 254936,255014,254962
 4.8000e+001 255264 -3.9424e+005 -7.1790e+005  6.7470e+005 52261 255114,255166,255140
 4.8000e+001 255241 -1.6030e+006 -1.5999e+006  1.3056e+006 52261 255114,255192,255166
 4.8000e+001 255218  5.9175e+005 -3.6031e+006 -5.9533e+005 52261 255088,255192,255114
 4.8000e+001 255416 -6.0356e+005 -6.4625e+006  1.9332e+006 51971 255289,255341,255315
 4.8000e+001 255393 -1.3051e+005 -5.7652e+006 -8.3408e+005 51971 255289,255367,255341
 4.8000e+001 255568 -1.1076e+006 -6.8489e+005 -4.4953e+005 51681 255441,255493,255467
 4.8000e+001 255545 -2.1681e+005 -6.5856e+006  6.1897e+005 51681 255441,255519,255493
 4.8000e+001 255769 -1.9207e+005 -3.6869e+006 -1.9794e+005 51291 255619,255697,255671
 4.8000e+001 255746 -1.5879e+005 -3.3994e+006 -3.7351e+005 51291 255593,255697,255619
 4.8000e+001 255723 -1.7698e+005 -4.9270e+006 -4.9306e+005 51291 255619,255671,255645
 4.8000e+001 255921 -3.9204e+005 -3.1006e+006  6.1546e+005 50951 255820,255872,255846
 4.8000e+001 255898 -1.4483e+005 -2.2961e+006  1.1936e+005 50951 255794,255872,255820
 4.8000e+001 256171 -1.1277e+006 -5.3629e+006 -1.6477e+004 50547 256024,256076,256050
 4.8000e+001 256148 -8.7026e+005 -5.0376e+006  2.7448e+005 50547 255972,256076,256024
 4.8000e+001 256125 -2.5932e+005 -5.6852e+006 -1.9800e+005 50547 255946,256076,255972
 4.8000e+001 256102 -9.6555e+005 -4.5519e+006  1.4405e+005 50547 255972,256024,255998
 4.8000e+001 256323  6.0988e+005 -6.5440e+006  9.6458e+005 50093 256196,256248,256222
 4.8000e+001 256300 -1.1105e+006 -3.5436e+006 -1.4246e+006 50093 256196,256274,256248
 4.8000e+001 256426  5.4107e+002 -3.2021e+002  2.6772e+002 49845 256348,256400,256374
 4.8000e+001 256627 -1.7830e+005 -5.1488e+006  6.7446e+004 49555 256477,256555,256503
 4.8000e+001 256604 -3.4252e+005 -4.1242e+006  4.6894e+004 49555 256451,256555,256477
 4.8000e+001 256581 -3.8450e+005 -4.5842e+006  1.8220e+005 49555 256503,256555,256529
 4.8000e+001 256828 -6.5955e+005 -2.7318e+006 -2.5696e+005 49056 256652,256730,256678
 4.8000e+001 256805 -2.7900e+005 -3.3122e+006 -5.2325e+005 49056 256652,256756,256730
 4.8000e+001 256782 -6.4996e+005 -2.1577e+006 -6.4643e+005 49056 256678,256730,256704
 4.8000e+001 256931 -7.4061e+004 -1.9535e+005  5.6260e+004 48766 256853,256905,256879
 4.8000e+001 257083 -9.6727e+005 -4.4199e+006 -7.2698e+005 48568 256982,257034,257008
 4.8000e+001 257060 -8.5372e+005 -3.9909e+006 -4.8076e+005 48568 256956,257034,256982
 4.8000e+001 257186  4.8357e+002 -3.3713e+006 -2.3647e+002 48228 257108,257160,257134
 4.8000e+001 257338 -4.3843e+005 -1.5041e+006  5.5786e+005 47888 257237,257289,257263
 4.8000e+001 257315 -4.0351e+005 -1.8000e+006  7.2382e+005 47888 257211,257289,257237
 4.8000e+001 257539 -3.0572e+005 -5.1832e+006  2.6320e+005 47548 257363,257441,257415
 4.8000e+001 257516 -9.4185e+005 -4.7927e+006 -5.2917e+005 47548 257363,257467,257441
 4.8000e+001 257493 -6.7889e+005 -3.8302e+006 -6.4470e+004 47548 257363,257415,257389
 4.8000e+001 257740 -2.5574e+005 -4.9218e+006  4.3088e+005 46994 257564,257642,257616
 4.8000e+001 257717 -4.2448e+005 -4.0383e+006  9.0445e+004 46994 257564,257668,257642
 4.8000e+001 257694 -7.4551e+005 -5.1258e+006  3.7584e+004 46994 257564,257616,257590
 4.8000e+001 257843 -9.2991e+005 -2.2331e+006 -3.9772e+005 46654 257765,257817,257791
 4.8000e+001 257995 -5.9258e+005 -4.1257e+006  2.6489e+005 46364 257894,257946,257920
 4.8000e+001 257972 -6.9888e+005 -4.2990e+006  1.5676e+005 46364 257868,257946,257894
 4.8000e+001 258147 -3.0234e+004 -4.3750e+006  3.0621e+004 46024 258046,258098,258072
 4.8000e+001 258124 -3.6701e+005 -3.3583e+006  3.6419e+005 46024 258020,258098,258046
 4.8000e+001 258250 -6.7224e+005 -2.6338e+006  9.4044e+005 45741 258172,258224,258198
 4.8000e+001 258402 -3.1354e+005 -2.7246e+006  2.3150e+005 45401 258301,258353,258327
 4.8000e+001 258379 -4.9431e+005 -2.0230e+006  2.3556e+005 45401 258275,258353,258301
 4.8000e+001 258603 -8.1732e+005 -2.6982e+006 -2.0579e+004 45071 258427,258505,258479
 4.8000e+001 258580 -5.7963e+004 -6.5176e+006  3.3652e+005 45071 258427,258531,258505
 4.8000e+001 258557 -1.9874e+005 -3.6947e+006  2.8772e+005 45071 258427,258479,258453
 4.8000e+001 258755 -2.4191e+005 -4.8468e+006 -5.1184e+005 44681 258654,258706,258680
 4.8000e+001 258732 -1.7452e+005 -4.7194e+006 -4.6149e+005 44681 258628,258706,258654
 4.8000e+001 258907 -7.7694e+005 -8.3357e+005 -7.6219e+004 44157 258806,258858,258832
 4.8000e+001 258884 -2.4840e+005 -1.2477e+006 -6.6398e+004 44157 258780,258858,258806
 4.8000e+001 259010 -7.2736e+005 -3.5427e+005  1.6106e+004 43705 258932,258984,258958
 4.8000e+001 259113 -5.1895e+005 -2.7917e+006  1.1883e+005 43284 259035,259087,259061
 4.8000e+001 259216 -6.8944e+005 -2.5827e+006 -8.8341e+004 42954 259138,259190,259164
 4.8000e+001 259319 -9.1430e+005 -2.2525e+006  6.9959e+004 42116 259241,259293,259267
 4.8000e+001 259422 -3.3941e+005 -3.2037e+006 -1.5476e+005 41804 259344,259396,259370
 4.8000e+001 259525 -6.1793e+005 -5.8928e+006  8.1779e+005 41219 259447,259499,259473
 4.8000e+001 259628 -9.1731e+005 -3.4602e+006 -4.4804e+005 385 259550,259602,259576
 5.0000e+001 190120 -4.9486e+005 -2.5434e+006 -2.2171e+005 189630 189993,190045,190019
 5.0000e+001 190097 -5.7644e+005 -2.1721e+006 -8.2671e+004 189630 189993,190071,190045
 5.0000e+001 190319 -1.7648e+005 -5.2502e+006  1.2550e+005 189312 190169,190221,190195
 5.0000e+001 190296 -1.2580e+006 -3.4630e+006 -1.6642e+006 189312 190169,190247,190221
 5.0000e+001 190273 -6.4949e+005 -2.6732e+006 -4.3858e+005 189312 190143,190247,190169
 5.0000e+001 190518 -4.7520e+005  3.0910e+004  1.1649e+004 189124 190368,190446,190420
 5.0000e+001 190495 -5.5999e+005  1.5860e+004  6.3158e+002 189124 190342,190446,190368
 5.0000e+001 190472 -8.9042e+005 -5.7043e+004 -2.3054e+004 189124 190368,190420,190394
 5.0000e+001 190619 -4.5006e+005 -6.1471e+004 -5.3842e+003 188926 190541,190593,190567
 5.0000e+001 190771 -4.8654e+005 -8.0332e+004  2.5310e+004 188614 190670,190722,190696
 5.0000e+001 190748 -5.6776e+005  1.5700e+005  6.2006e+004 188614 190644,190722,190670
 5.0000e+001 190972 -2.0775e+005 -6.8042e+005 -3.4426e+005 188324 190848,190900,190874
 5.0000e+001 190949 -3.3281e+005 -9.2779e+005 -4.9607e+005 188324 190796,190900,190848
 5.0000e+001 190926 -1.1464e+005 -5.9873e+005 -3.4085e+005 188324 190796,190848,190822
 5.0000e+001 191124 -6.8955e+005 -1.4441e+006 -2.0421e+005 188034 191023,191075,191049
 5.0000e+001 191101 -1.6262e+005 -1.5821e+006 -1.5553e+005 188034 190997,191075,191023
 5.0000e+001 191276 -3.1668e+005 -2.2903e+006 -1.0024e+005 187836 191149,191201,191175
 5.0000e+001 191253 -3.4197e+005 -1.9063e+006  1.1263e+005 187836 191149,191227,191201
 5.0000e+001 191379 -4.5676e+005 -2.7136e+005 -8.3026e+004 187546 191301,191353,191327
 5.0000e+001 191531 -2.6027e+005 -6.4327e+006 -1.9081e+006 187256 191430,191482,191456
 5.0000e+001 191508 -9.4727e+005 -4.8340e+006  4.2426e+005 187256 191404,191482,191430
 5.0000e+001 191634 -7.4614e+005 -1.6654e+004 -3.4769e+004 187058 191556,191608,191582
 5.0000e+001 191835 -2.9387e+005 -1.2726e+005 -5.5913e+004 186860 191659,191711,191685
 5.0000e+001 191812 -3.7447e+005 -1.3638e+005 -8.5603e+004 186860 191659,191737,191711
 5.0000e+001 191789 -3.5827e+005 -1.3054e+004 -5.1411e+004 186860 191659,191763,191737
 5.0000e+001 191987 -2.9487e+003 -1.7259e+006  1.4476e+005 186662 191886,191938,191912
 5.0000e+001 191964 -3.8096e+005 -1.6495e+006  1.0037e+005 186662 191860,191938,191886
 5.0000e+001 192090 -5.6904e+005 -1.8270e+006  8.0910e+003 186486 192012,192064,192038
 5.0000e+001 192242 -4.1084e+005 -6.7265e+006 -7.9457e+004 186288 192115,192167,192141
 5.0000e+001 192219 -5.9002e+005 -5.2672e+006  2.1082e+005 186288 192115,192193,192167
 5.0000e+001 192394 -3.5822e+004 -5.7642e+006 -2.6223e+005 185935 192293,192345,192319
 5.0000e+001 192371 -4.6302e+005 -4.5173e+006 -5.4034e+005 185935 192267,192345,192293
 5.0000e+001 192546 -4.4685e+005 -2.9770e+006 -3.5384e+005 185675 192419,192471,192445
 5.0000e+001 192523 -6.2394e+005 -2.0892e+006 -3.3693e+005 185675 192419,192497,192471
 5.0000e+001 192649 -2.4801e+005 -2.5881e+006 -2.8916e+005 185499 192571,192623,192597
 5.0000e+001 192801 -1.1293e+006 -8.5577e+005 -1.6903e+005 185301 192674,192726,192700
 5.0000e+001 192778 -5.6408e+005 -9.9450e+005  6.4586e+005 185301 192674,192752,192726
 5.0000e+001 193002 -1.3486e+005 -1.9076e+006 -5.2601e+005 185046 192852,192930,192878
 5.0000e+001 192979 -4.6346e+005 -3.1327e+006 -3.9564e+005 185046 192826,192930,192852
 5.0000e+001 192956  3.6956e+005 -3.8975e+006  8.4803e+004 185046 192878,192930,192904
 5.0000e+001 193203 -1.6658e+006 -3.2731e+006 -9.7613e+005 184798 193079,193131,193105
 5.0000e+001 193180  3.9595e+005 -5.9528e+006 -2.0001e+006 184798 193027,193131,193079
 5.0000e+001 193157  4.6237e+005 -6.2084e+006  1.7434e+006 184798 193027,193079,193053
 5.0000e+001 193404 -1.8292e+005 -4.2204e+006 -8.6007e+005 184600 193254,193306,193280
 5.0000e+001 193381 -4.0737e+005 -2.3542e+006 -1.6301e+005 184600 193254,193332,193306
 5.0000e+001 193358 -1.0915e+006 -6.1773e+005 -4.6040e+005 184600 193228,193332,193254
 5.0000e+001 193556 -6.3406e+005 -7.7231e+005 -7.1076e+005 184402 193429,193481,193455
 5.0000e+001 193533 -7.6684e+005 -6.8387e+005 -7.7741e+005 184402 193429,193507,193481
 5.0000e+001 193708 -7.7885e+005 -4.3399e+006 -8.7872e+005 184204 193607,193659,193633
 5.0000e+001 193685 -6.1116e+005 -5.0971e+006 -1.0033e+006 184204 193581,193659,193607
 5.0000e+001 193860 -5.9914e+005 -2.1523e+006  2.3481e+005 183908 193759,193811,193785
 5.0000e+001 193837 -2.6993e+005 -1.8456e+006  4.3216e+005 183908 193733,193811,193759
 5.0000e+001 194061 -4.5122e+005 -1.2149e+006  2.5978e+005 183710 193911,193989,193937
 5.0000e+001 194038 -6.2559e+005 -1.3951e+006  4.6050e+005 183710 193885,193989,193911
 5.0000e+001 194015 -7.4301e+005 -1.2526e+006  3.9118e+005 183710 193937,193989,193963
 5.0000e+001 194262 -9.1109e+005 -3.8381e+006 -1.3001e+006 183420 194086,194164,194112
 5.0000e+001 194239 -7.2770e+005 -2.9967e+006 -1.1113e+006 183420 194086,194190,194164
 5.0000e+001 194216 -6.7827e+005 -9.4031e+006  1.4445e+006 183420 194112,194164,194138
 5.0000e+001 194414 -3.8074e+005 -5.5034e+006  1.8759e+005 183222 194287,194339,194313
 5.0000e+001 194391 -3.0304e+005 -6.5363e+005 -2.0363e+005 183222 194287,194365,194339
 5.0000e+001 194517 -1.0091e+006 -1.0450e+006 -4.1279e+004 183024 194439,194491,194465
 5.0000e+001 194718  2.8678e+006 -1.8423e+007  2.2308e+006 182734 194568,194620,194594
 5.0000e+001 194695 -1.1398e+006 -4.1758e+006 -3.7823e+006 182734 194542,194620,194568
 5.0000e+001 194672 -3.8026e+006 -2.3727e+006 -1.7294e+006 182734 194542,194646,194620
 5.0000e+001 194870 -3.1254e+005 -1.4672e+006  6.5772e+005 182444 194769,194821,194795
 5.0000e+001 194847 -2.3646e+005 -4.7648e+005 -1.4176e+004 182444 194743,194821,194769
 5.0000e+001 195071 -3.6954e+005 -3.2459e+006  1.0405e+006 182154 194895,194947,194921
 5.0000e+001 195048 -2.9939e+005 -1.7882e+006  3.3133e+005 182154 194895,194999,194947
 5.0000e+001 195025 -3.4485e+005 -9.4661e+005  3.7271e+005 182154 194947,194999,194973
 5.0000e+001 195223 -2.1847e+005 -1.6707e+006 -2.9315e+005 181814 195096,195148,195122
 5.0000e+001 195200 -3.6283e+005 -2.6236e+006 -1.0231e+006 181814 195096,195174,195148
 5.0000e+001 195375 -3.7516e+004 -4.9694e+005  9.7906e+004 181524 195248,195300,195274
 5.0000e+001 195352 -4.2988e+004 -1.0432e+006  2.2376e+005 181524 195248,195326,195300
 5.0000e+001 195527 -2.2065e+005 -2.4535e+006  7.3357e+004 181326 195426,195478,195452
 5.0000e+001 195504 -1.2899e+006 -3.4015e+006  7.8967e+005 181326 195400,195478,195426
 5.0000e+001 195679 -5.9700e+004 -1.3173e+007 -1.0219e+006 180936 195578,195630,195604
 5.0000e+001 195656 -8.6849e+005 -5.0375e+006 -6.5894e+005 180936 195552,195630,195578
 5.0000e+001 195831 -4.6829e+005 -3.9160e+005 -1.8799e+005 180646 195704,195756,195730
 5.0000e+001 195808 -7.3740e+005 -3.4726e+004  8.6067e+003 180646 195704,195782,195756
 5.0000e+001 196032 -5.9969e+005 -1.7067e+006  6.0271e+005 180306 195882,195960,195934
 5.0000e+001 196009 -4.9073e+005 -9.3479e+005  4.9782e+005 180306 195856,195960,195882
 5.0000e+001 195986  3.6256e+004 -2.4695e+006 -2.7136e+005 180306 195882,195934,195908
 5.0000e+001 196233 -4.7170e+005 -1.0083e+005 -8.0203e+005 179944 196057,196109,196083
 5.0000e+001 196210 -8.9843e+005 -2.2870e+006  3.8445e+005 179944 196057,196135,196109
 5.0000e+001 196187 -1.4977e+006  3.2840e+006 -1.0014e+006 179944 196057,196161,196135
 5.0000e+001 196385 -6.8737e+005 -9.0481e+005 -5.3321e+005 179604 196258,196310,196284
 5.0000e+001 196362 -1.1094e+006 -1.5883e+006 -1.4249e+006 179604 196258,196336,196310
 5.0000e+001 196586 -8.6131e+005 -8.0622e+005 -6.2399e+005 179114 196410,196488,196436
 5.0000e+001 196563  2.0689e+005 -3.7387e+006 -9.1724e+005 179114 196410,196514,196488
 5.0000e+001 196540 -6.5964e+003 -7.3958e+005 -7.4701e+004 179114 196436,196488,196462
 5.0000e+001 196738 -2.9140e+005 -1.8152e+006 -3.9192e+005 178674 196611,196663,196637
 5.0000e+001 196715 -6.9840e+003 -2.9973e+006 -5.5530e+004 178674 196611,196689,196663
 5.0000e+001 196939  1.9119e+006 -9.9902e+006 -2.3176e+006 178334 196789,196867,196841
 5.0000e+001 196916 -1.9149e+006 -1.0165e+007  2.2962e+006 178334 196763,196867,196789
 5.0000e+001 196893 -4.7154e+006 -5.7836e+006 -6.3736e+006 178334 196789,196841,196815
 5.0000e+001 197091 -3.2583e+005 -5.3463e+006 -7.6397e+005 177930 196990,197042,197016
 5.0000e+001 197068 -9.4197e+004 -4.3335e+006 -6.5229e+005 177930 196964,197042,196990
 5.0000e+001 197194 -1.3513e+002 -6.5201e+005 -1.9230e+002 177732 197116,197168,197142
 5.0000e+001 197346 -3.4843e+005 -6.4018e+006 -1.9149e+005 177534 197219,197271,197245
 5.0000e+001 197323  1.5004e+005 -7.9931e+006  6.5803e+005 177534 197219,197297,197271
 5.0000e+001 197547 -3.6189e+005 -4.2470e+006 -9.8807e+005 177130 197397,197449,197423
 5.0000e+001 197524 -9.0901e+005 -4.2937e+006 -1.4085e+006 177130 197397,197475,197449
 5.0000e+001 197501 -8.8557e+005 -9.1121e+006 -1.9503e+006 177130 197371,197475,197397
 5.0000e+001 197748 -3.7491e+005 -6.8472e+006  1.6424e+005 176790 197598,197676,197624
 5.0000e+001 197725 -2.3365e+005 -5.1021e+006  3.6502e+005 176790 197572,197676,197598
 5.0000e+001 197702 -3.6153e+005 -5.2059e+006  4.1607e+005 176790 197624,197676,197650
 5.0000e+001 197900 -1.3785e+005 -4.3475e+006 -5.9488e+005 176300 197773,197825,197799
 5.0000e+001 197877  2.2347e+005 -5.2645e+006 -6.1510e+005 176300 197773,197851,197825
 5.0000e+001 198052 -1.1049e+006 -7.6017e+006 -1.4104e+006 176010 197925,197977,197951
 5.0000e+001 198029 -5.5923e+005 -6.7018e+006 -1.8345e+006 176010 197925,198003,197977
 5.0000e+001 198204 -1.2314e+006 -5.1443e+006 -2.2005e+006 175670 198103,198155,198129
 5.0000e+001 198181 -1.9058e+006 -5.9740e+006 -1.1138e+006 175670 198077,198155,198103
 5.0000e+001 198405 -1.0535e+005 -5.4232e+006 -1.0569e+006 175266 198255,198307,198281
 5.0000e+001 198382 -4.4723e+004 -6.2990e+006 -1.7927e+006 175266 198229,198307,198255
 5.0000e+001 198359 -1.3241e+006 -5.1771e+006 -2.6177e+006 175266 198229,198333,198307
 5.0000e+001 198606  3.6785e+003 -6.2604e+004 -2.1618e+002 174876 198430,198508,198482
 5.0000e+001 198583 -2.0421e+003 -6.6716e+004  2.5650e+004 174876 198430,198534,198508
 5.0000e+001 198560 -1.1120e+004 -1.5981e+004 -1.4260e+004 174876 198430,198482,198456
 5.0000e+001 198758 -6.3115e+002 -2.2710e+002 -9.6703e+002 174536 198657,198709,198683
 5.0000e+001 198735 -7.6051e+002 -3.1456e+001 -1.7835e+002 174536 198631,198709,198657
 5.0000e+001 199008 -1.2757e+006 -7.0692e+006 -7.5320e+005 174132 198835,198913,198887
 5.0000e+001 198985  6.2436e+004 -2.8608e+006  3.0116e+005 174132 198809,198913,198835
 5.0000e+001 198962 -7.8404e+005 -3.5156e+006 -2.6080e+006 174132 198783,198913,198809
 5.0000e+001 198939 -6.5943e+005 -6.7501e+006 -4.8084e+005 174132 198835,198887,198861
 5.0000e+001 199160 -1.4299e+006 -2.9255e+006 -1.2563e+006 173842 199059,199111,199085
 5.0000e+001 199137 -6.6534e+005 -1.6104e+006 -5.8895e+005 173842 199033,199111,199059
 5.0000e+001 199361 -7.0326e+005 -8.2867e+006  9.7236e+005 173438 199237,199289,199263
 5.0000e+001 199338 -4.2168e+005 -6.4173e+006  1.4987e+006 173438 199211,199289,199237
 5.0000e+001 199315 -5.2498e+005 -8.6090e+006 -3.5170e+005 173438 199185,199289,199211
 5.0000e+001 199513  4.6424e+005 -1.0434e+007  1.5221e+006 173190 199386,199438,199412
 5.0000e+001 199490 -7.2810e+005 -7.8459e+006 -2.0786e+005 173190 199386,199464,199438
 5.0000e+001 199665 -3.1573e+005 -1.4048e+006  1.7051e+005 172750 199564,199616,199590
 5.0000e+001 199642 -6.0554e+005 -6.8433e+005 -8.0919e+003 172750 199538,199616,199564
 5.0000e+001 199817 -3.6920e+005 -7.1833e+006 -2.4937e+006 172524 199690,199742,199716
 5.0000e+001 199794 -2.6071e+006 -3.1398e+006 -1.6983e+006 172524 199690,199768,199742
 5.0000e+001 199969 -1.4667e+004 -8.1335e+006 -3.5204e+005 172348 199842,199894,199868
 5.0000e+001 199946 -1.9144e+005 -8.2203e+006  4.1106e+004 172348 199842,199920,199894
 5.0000e+001 200121  2.2011e+005 -5.1409e+006 -7.6871e+005 172008 199994,200046,200020
 5.0000e+001 200098 -4.5757e+005 -1.9737e+006 -3.1843e+005 172008 199994,200072,200046
 5.0000e+001 200273 -1.4247e+005 -4.4898e+006  1.4207e+005 171668 200172,200224,200198
 5.0000e+001 200250 -4.2138e+005 -6.8360e+006  4.5850e+005 171668 200146,200224,200172
 5.0000e+001 200474  2.7124e+005 -5.7639e+006 -9.3419e+005 171264 200350,200402,200376
 5.0000e+001 200451 -2.2780e+005 -5.9296e+006 -1.1255e+006 171264 200324,200402,200350
 5.0000e+001 200428 -4.1077e+005 -3.9765e+006  1.2775e+006 171264 200298,200402,200324
 5.0000e+001 200626 -3.9386e+004 -6.0342e+006 -4.3817e+005 170832 200525,200577,200551
 5.0000e+001 200603 -1.7624e+005 -3.4184e+006 -3.3073e+005 170832 200499,200577,200525
 5.0000e+001 200827  5.1740e+005 -5.8163e+006  1.0228e+006 170492 200677,200729,200703
 5.0000e+001 200804 -1.3011e+006 -1.4451e+006 -2.1947e+006 170492 200651,200729,200677
 5.0000e+001 200781 -2.3691e+006 -2.0805e+006 -1.3650e+006 170492 200651,200755,200729
 5.0000e+001 201077  4.2243e+005 -4.4055e+006  1.1734e+005 170088 200878,200956,200904
 5.0000e+001 201054 -2.7649e+005 -3.1509e+006 -9.1855e+005 170088 200852,200956,200878
 5.0000e+001 201031  2.8859e+005 -2.6347e+006  2.9173e+006 170088 200904,200956,200930
 5.0000e+001 201008  2.7419e+006 -6.3466e+006  1.3014e+006 170088 200852,200982,200956
 5.0000e+001 201278  2.7460e+005 -1.7182e+006 -1.1930e+006 169798 201102,201154,201128
 5.0000e+001 201255 -2.0022e+006 -8.7830e+006 -2.8538e+006 169798 201102,201206,201154
 5.0000e+001 201232 -4.7636e+006  1.1457e+006  1.1603e+005 169798 201154,201206,201180
 5.0000e+001 201430 -4.5201e+005 -8.6099e+006 -1.4518e+006 169337 201303,201355,201329
 5.0000e+001 201407 -2.9320e+005 -3.0303e+006 -3.9326e+005 169337 201303,201381,201355
 5.0000e+001 201631 -6.2058e+005 -6.6440e+006 -1.6090e+005 168883 201481,201559,201507
 5.0000e+001 201608 -4.7364e+005 -5.1026e+006  8.0747e+005 168883 201455,201559,201481
 5.0000e+001 201585 -4.1157e+005 -4.8011e+006  5.2535e+004 168883 201507,201559,201533
 5.0000e+001 201832  2.4893e+005 -1.0241e+007  7.7718e+004 168479 201682,201734,201708
 5.0000e+001 201809 -2.8326e+006 -7.6328e+006 -2.2194e+006 168479 201656,201734,201682
 5.0000e+001 201786 -2.4969e+006 -6.2949e+006 -1.0806e+006 168479 201656,201760,201734
 5.0000e+001 202033 -3.2302e+005 -3.6379e+006  2.1986e+005 167825 201883,201935,201909
 5.0000e+001 202010 -1.7628e+006 -4.9747e+006 -2.2010e+006 167825 201857,201935,201883
 5.0000e+001 201987 -1.1794e+005 -1.2008e+007 -1.1821e+006 167825 201857,201961,201935
 5.0000e+001 202234 -1.0510e+006 -5.1980e+006 -1.7800e+006 167435 202058,202136,202084
 5.0000e+001 202211 -1.4416e+006 -8.1377e+006  1.5796e+006 167435 202058,202162,202136
 5.0000e+001 202188 -9.3346e+005 -2.6098e+006  1.0313e+005 167435 202084,202136,202110
 5.0000e+001 202386  2.5370e+005 -4.5573e+006 -1.8824e+005 167002 202285,202337,202311
 5.0000e+001 202363 -2.5945e+005 -8.2385e+005  1.9264e+005 167002 202259,202337,202285
 5.0000e+001 202538 -4.7629e+004 -4.3595e+006 -9.2185e+005 166662 202411,202463,202437
 5.0000e+001 202515 -2.9064e+005 -1.9242e+006 -7.8253e+005 166662 202411,202489,202463
 5.0000e+001 202690  9.9408e+004 -5.1713e+006 -1.4720e+006 166322 202589,202641,202615
 5.0000e+001 202667  8.7743e+004 -3.7711e+006 -3.8962e+005 166322 202563,202641,202589
 5.0000e+001 202891 -3.2377e+005 -7.8069e+005 -2.1853e+005 165918 202715,202767,202741
 5.0000e+001 202868 -5.6552e+005 -2.1205e+006 -1.1280e+006 165918 202715,202793,202767
 5.0000e+001 202845  5.0966e+005 -3.9125e+006 -4.2714e+005 165918 202715,202819,202793
 5.0000e+001 203092  5.2475e+004 -5.8851e+006 -7.7691e+005 165628 202916,202968,202942
 5.0000e+001 203069  3.0987e+004 -7.2554e+006 -5.2042e+005 165628 202916,202994,202968
 5.0000e+001 203046 -9.5451e+005 -5.4122e+006 -2.2711e+006 165628 202916,203020,202994
 5.0000e+001 203293 -6.4138e+006 -5.1386e+006 -2.2344e+006 165266 203143,203195,203169
 5.0000e+001 203270 -2.8874e+006 -8.1210e+006 -4.3240e+005 165266 203143,203221,203195
 5.0000e+001 203247 -1.2917e+006 -1.0283e+007 -2.8126e+006 165266 203117,203221,203143
 5.0000e+001 203445 -4.0666e+005 -3.0418e+006  1.6980e+005 164826 203318,203370,203344
 5.0000e+001 203422 -2.1522e+005 -2.2534e+006 -4.6258e+005 164826 203318,203396,203370
 5.0000e+001 203597 -4.6794e+005 -3.2507e+006 -1.5569e+005 164386 203470,203522,203496
 5.0000e+001 203574 -8.5127e+005 -3.7215e+006 -9.5106e+005 164386 203470,203548,203522
 5.0000e+001 203798 -1.3758e+005 -4.4265e+006  6.9802e+005 163996 203622,203674,203648
 5.0000e+001 203775 -1.3450e+006 -3.5161e+005 -1.1412e+005 163996 203622,203726,203674
 5.0000e+001 203752 -2.0428e+006 -1.8990e+006  1.7713e+006 163996 203674,203726,203700
 5.0000e+001 203901 -5.3370e+003 -2.6146e+006 -1.0679e+006 163770 203823,203875,203849
 5.0000e+001 204053 -4.0070e+005 -2.8387e+006 -4.5033e+005 163474 203952,204004,203978
 5.0000e+001 204030 -4.0866e+005 -3.0253e+006 -7.8756e+005 163474 203926,204004,203952
 5.0000e+001 204205 -1.5369e+006 -3.7885e+006  3.3307e+005 163034 204104,204156,204130
 5.0000e+001 204182 -4.3292e+005 -8.4605e+006 -4.0419e+006 163034 204078,204156,204104
 5.0000e+001 204357 -5.9005e+005 -4.3425e+006  8.2172e+005 162624 204256,204308,204282
 5.0000e+001 204334 -2.6753e+005 -4.0754e+005  1.4135e+005 162624 204230,204308,204256
 5.0000e+001 204509  2.1002e+000  1.0920e-001 -4.7891e-001 162200 204382,204434,204408
 5.0000e+001 204486 -4.1287e+000 -2.1468e-001  9.4147e-001 162200 204382,204460,204434
 5.0000e+001 204710 -8.6725e+004 -1.0855e+006  1.9093e+005 161810 204560,204638,204586
 5.0000e+001 204687  7.4728e+004 -2.3659e+006 -1.0944e+006 161810 204534,204638,204560
 5.0000e+001 204664 -1.3773e+005 -5.4861e+005 -6.7390e+004 161810 204586,204638,204612
 5.0000e+001 204862 -1.6014e+006 -3.2565e+006 -2.5876e+006 161406 204735,204787,204761
 5.0000e+001 204839 -2.2330e+006 -3.3985e+006 -2.4368e+006 161406 204735,204813,204787
 5.0000e+001 205014  9.4718e-002  2.5363e-001  1.5500e-001 161180 204887,204939,204913
 5.0000e+001 204991 -1.9689e-001 -5.2723e-001 -3.2219e-001 161180 204887,204965,204939
 5.0000e+001 205215  1.2613e+005 -9.8552e+005 -4.7171e+005 160726 205039,205091,205065
 5.0000e+001 205192 -6.5842e+005 -3.9959e+006 -8.0625e+005 160726 205039,205143,205091
 5.0000e+001 205169 -9.2150e+005 -1.3294e+006 -9.0662e+005 160726 205091,205143,205117
 5.0000e+001 205416 -8.9395e+003 -1.1803e+005 -2.5241e+004 160272 205292,205344,205318
 5.0000e+001 205393  4.5492e+003 -5.6681e+004 -1.4547e+004 160272 205240,205344,205292
 5.0000e+001 205370 -8.5388e+003 -1.1855e+005 -2.6288e+004 160272 205240,205292,205266
 5.0000e+001 205568 -2.7845e+000 -3.8012e-001 -1.0288e+000 159932 205441,205493,205467
 5.0000e+001 205545  7.5391e-001  1.0292e-001  2.7855e-001 159932 205441,205519,205493
 5.0000e+001 205720  9.3707e-001 -6.1803e-002  3.3074e-001 159542 205593,205645,205619
 5.0000e+001 205697 -1.5428e+000 -2.6924e-001 -5.0305e-001 159542 205593,205671,205645
 5.0000e+001 205872 -1.5264e+000 -2.1674e-003 -5.7524e-002 159252 205745,205797,205771
 5.0000e+001 205849  1.2767e+000  1.8132e-003  4.8113e-002 159252 205745,205823,205797
 5.0000e+001 206024 -1.0209e+006 -2.4838e+006 -7.3657e+005 159004 205923,205975,205949
 5.0000e+001 206001 -4.5876e+005 -2.6727e+006 -3.3630e+005 159004 205897,205975,205923
 5.0000e+001 206127 -3.6904e+006 -3.1008e+006  1.2036e+003 158364 206049,206101,206075
 5.0000e+001 206328  3.3354e-001  4.3721e-001 -4.0575e-001 157960 206178,206256,206204
 5.0000e+001 206305 -2.3375e-001 -2.5707e-002  9.3392e-002 157960 206152,206256,206178
 5.0000e+001 206282 -4.8080e-001 -3.3703e-001  3.5500e-001 157960 206204,206256,206230
 5.0000e+001 206529 -1.3652e+006 -1.1578e+007  9.2658e+005 157648 206405,206457,206431
 5.0000e+001 206506 -5.1128e+006 -6.7019e+006 -4.2446e+005 157648 206379,206457,206405
 5.0000e+001 206483 -2.9374e+006 -5.0717e+006  1.1565e+006 157648 206353,206457,206379
 5.0000e+001 206730  5.6168e+005 -3.2948e+006  6.9265e+004 157208 206554,206606,206580
 5.0000e+001 206707  2.6533e+005 -3.6690e+006  7.7153e+005 157208 206554,206632,206606
 5.0000e+001 206684 -2.7236e+006 -3.0879e+005 -1.4989e+006 157208 206554,206658,206632
 5.0000e+001 206882 -4.7863e-001 -1.0630e+000 -7.1328e-001 157010 206755,206807,206781
 5.0000e+001 206859  2.7561e-001  6.1208e-001  4.1072e-001 157010 206755,206833,206807
 5.0000e+001 207034 -4.2520e+004 -1.2120e+006 -2.6911e+004 156620 206907,206959,206933
 5.0000e+001 207011  3.7940e+004 -2.1395e+006  1.8852e+004 156620 206907,206985,206959
 5.0000e+001 207186 -3.4558e+004 -1.6680e+006  5.4389e+004 156330 207085,207137,207111
 5.0000e+001 207163 -2.8058e+005 -1.8041e+006 -7.0343e+005 156330 207059,207137,207085
 5.0000e+001 207387 -1.0608e+006 -4.7359e+006  1.6056e+006 155890 207211,207289,207237
 5.0000e+001 207364 -8.3176e+005 -4.8649e+006 -1.2220e+006 155890 207211,207315,207289
 5.0000e+001 207341 -1.2618e+006 -4.4830e+006  1.7465e+006 155890 207237,207289,207263
 5.0000e+001 207588  2.9593e+005 -2.7561e+007  8.6065e+006 155436 207438,207490,207464
 5.0000e+001 207565 -7.6986e+005 -2.1235e+007 -7.4218e+005 155436 207412,207490,207438
 5.0000e+001 207542 -2.4296e+006 -1.2031e+007 -1.0828e+006 155436 207412,207516,207490
 5.0000e+001 207789  2.0007e+006 -4.1066e+007 -2.3914e+006 155260 207639,207691,207665
 5.0000e+001 207766 -4.7987e+006 -1.4384e+007  5.9188e+006 155260 207613,207691,207639
 5.0000e+001 207743 -9.4086e+005 -1.1191e+007 -2.4323e+004 155260 207613,207717,207691
 5.0000e+001 207990 -6.1861e-003  6.3524e-001 -1.4882e-001 154920 207840,207918,207892
 5.0000e+001 207967 -1.4147e-002 -5.9604e-001  9.1829e-002 154920 207814,207918,207840
 5.0000e+001 207944  4.7418e-002  1.4521e-001  8.2980e-002 154920 207840,207892,207866
 5.0000e+001 208191 -2.9752e+005 -3.8986e+006 -1.0809e+006 154630 208015,208093,208041
 5.0000e+001 208168 -5.1711e+004 -2.1086e+006 -8.5767e+005 154630 208015,208119,208093
 5.0000e+001 208145 -1.3915e+006 -1.8226e+006 -1.5927e+006 154630 208041,208093,208067
 5.0000e+001 208343  7.3552e-002  2.2787e-004  4.0939e-003 154240 208216,208268,208242
 5.0000e+001 208320 -1.4063e-001 -4.3568e-004 -7.8275e-003 154240 208216,208294,208268
 5.0000e+001 208495  3.4534e+006 -2.3504e+007 -6.7591e+006 153950 208394,208446,208420
 5.0000e+001 208472 -1.5785e+006 -9.3205e+006  2.9220e+006 153950 208368,208446,208394
 5.0000e+001 208647 -1.8094e+006 -8.6369e+006  7.7367e+006 153603 208520,208572,208546
 5.0000e+001 208624 -4.8032e+006 -4.4666e+006 -4.3742e+006 153603 208520,208598,208572
 5.0000e+001 208848 -1.2365e+005 -1.0785e+006  4.3199e+005 153149 208698,208776,208724
 5.0000e+001 208825  1.6759e+005 -2.4437e+006 -2.5663e+005 153149 208672,208776,208698
 5.0000e+001 208802 -4.5882e+005 -5.9632e+005  2.9716e+005 153149 208724,208776,208750
 5.0000e+001 209000 -9.9708e+005 -8.4620e+006 -2.3219e+005 152859 208873,208925,208899
 5.0000e+001 208977 -1.0576e+005 -1.3555e+007  5.8498e+005 152859 208873,208951,208925
 5.0000e+001 209152  6.7423e+005 -1.1795e+007 -1.6197e+005 152569 209051,209103,209077
 5.0000e+001 209129  2.0425e+005 -1.1985e+007 -3.1441e+005 152569 209025,209103,209051
 5.0000e+001 209304 -3.1909e-001 -4.4371e-001 -3.7627e-001 152065 209177,209229,209203
 5.0000e+001 209281  7.2938e-001  1.0142e+000  8.6009e-001 152065 209177,209255,209229
 5.0000e+001 209456 -4.6148e+005 -9.3228e+006 -4.1738e+004 151775 209355,209407,209381
 5.0000e+001 209433  6.0931e+005 -1.4256e+007  1.7384e+005 151775 209329,209407,209355
 5.0000e+001 209608 -1.0256e+006 -1.3056e+007 -1.0503e+006 151371 209481,209533,209507
 5.0000e+001 209585  9.4987e+005 -1.8324e+007  4.3999e+005 151371 209481,209559,209533
 5.0000e+001 209760 -2.1898e+005 -2.4215e+006 -2.6819e+005 150981 209659,209711,209685
 5.0000e+001 209737 -7.7241e+005 -2.8063e+006 -1.8461e+006 150981 209633,209711,209659
 5.0000e+001 209912  2.8770e+006 -4.1248e+007 -3.4865e+006 150619 209811,209863,209837
 5.0000e+001 209889 -3.4811e+006 -1.8443e+007  4.3689e+006 150619 209785,209863,209811
 5.0000e+001 210064 -4.7129e+005 -5.8941e+005 -4.1115e+005 150279 209937,209989,209963
 5.0000e+001 210041 -1.9318e+004 -5.4943e+006 -1.8607e+006 150279 209937,210015,209989
 5.0000e+001 210265 -2.0458e+006 -1.4664e+007  4.1282e+005 149989 210115,210167,210141
 5.0000e+001 210242 -2.5612e+005 -1.5769e+007 -9.9705e+005 149989 210115,210193,210167
 5.0000e+001 210219  1.8910e+005 -1.6818e+007 -7.2224e+005 149989 210089,210193,210115
 5.0000e+001 210417 -3.7562e+006 -2.1127e+006  3.4286e+003 149599 210316,210368,210342
 5.0000e+001 210394 -2.2878e+006 -5.2751e+006 -1.0877e+005 149599 210290,210368,210316
 5.0000e+001 210618 -3.3108e+006 -1.5871e+007  4.6099e+006 149095 210468,210520,210494
 5.0000e+001 210595 -3.9218e+006 -1.5832e+007  2.4036e+006 149095 210442,210520,210468
 5.0000e+001 210572 -2.0406e+006 -2.6025e+007  3.4754e+006 149095 210442,210546,210520
 5.0000e+001 210819 -6.1339e+001 -4.8008e+003 -5.2914e+002 148748 210695,210747,210721
 5.0000e+001 210796  5.9925e+000 -4.4743e+003 -5.1968e+002 148748 210669,210747,210695
 5.0000e+001 210773 -7.6402e+002 -2.1696e+003  1.2722e+003 148748 210643,210747,210669
 5.0000e+001 210971 -2.2185e+001 -5.6899e+000  9.2773e+001 148408 210870,210922,210896
 5.0000e+001 210948  1.1915e+001 -4.3945e+001  1.3572e+002 148408 210844,210922,210870
 5.0000e+001 211123 -5.8587e+005 -8.8864e+006  1.0680e+006 148118 210996,211048,211022
 5.0000e+001 211100 -8.0673e+005 -1.0287e+007  4.4264e+006 148118 210996,211074,211048
 5.0000e+001 211275 -1.8234e+006 -6.4848e+006  8.6211e+005 147778 211148,211200,211174
 5.0000e+001 211252 -8.8257e+005 -1.6266e+007  7.6188e+006 147778 211148,211226,211200
 5.0000e+001 211427 -4.8666e+005 -6.8051e+006  2.3982e+006 147324 211326,211378,211352
 5.0000e+001 211404 -8.9961e+004 -7.8563e+006  2.1042e+006 147324 211300,211378,211326
 5.0000e+001 211628 -5.4751e+001 -6.7157e+002 -5.0397e+000 147012 211452,211504,211478
 5.0000e+001 211605 -4.3168e+001 -2.7893e+002  5.9174e+001 147012 211452,211556,211504
 5.0000e+001 211582 -1.4436e+001 -1.8360e+002  7.6641e+001 147012 211504,211556,211530
 5.0000e+001 211829 -2.9924e+006 -5.1327e+006  2.2861e+006 146636 211679,211757,211731
 5.0000e+001 211806  2.6101e+006 -1.3701e+007  3.8611e+005 146636 211653,211757,211679
 5.0000e+001 211783  1.0953e+006 -5.5855e+006  3.6788e+006 146636 211679,211731,211705
 5.0000e+001 211981  1.6184e+003 -6.8829e+003  1.0151e+003 146246 211880,211932,211906
 5.0000e+001 211958 -3.9284e+002  4.2599e+002 -5.6462e+002 146246 211854,211932,211880
 5.0000e+001 212133 -4.1058e+002  2.4535e+002  5.3062e+000 145956 212006,212058,212032
 5.0000e+001 212110  3.7445e+001 -2.0816e+001  1.2530e+002 145956 212006,212084,212058
 5.0000e+001 212285 -1.9845e+003 -9.5728e+003  9.8758e+002 145544 212184,212236,212210
 5.0000e+001 212262 -2.1737e+003 -7.3709e+002  1.4438e+002 145544 212158,212236,212184
 5.0000e+001 212486 -1.6056e+005 -1.7205e+007  3.7828e+006 144990 212362,212414,212388
 5.0000e+001 212463  1.4558e+005 -1.3554e+007  5.7646e+006 144990 212310,212414,212362
 5.0000e+001 212440 -4.1396e+006 -2.9476e+006  2.7188e+006 144990 212310,212362,212336
 5.0000e+001 212638 -1.0973e+003 -2.5625e+004 -5.9895e+003 144600 212537,212589,212563
 5.0000e+001 212615 -8.8998e+002 -2.4472e+004 -5.5429e+003 144600 212511,212589,212537
 5.0000e+001 212839 -1.5564e+005 -1.4048e+006  3.2053e+004 144210 212689,212741,212715
 5.0000e+001 212816 -1.3676e+005 -1.7808e+006  4.3700e+005 144210 212663,212741,212689
 5.0000e+001 212793 -1.8754e+005 -1.9090e+006  3.6529e+005 144210 212663,212767,212741
 5.0000e+001 212991 -2.9272e+002 -1.1384e+003  2.5165e+002 143920 212890,212942,212916
 5.0000e+001 212968  4.7445e+002 -1.0002e+004 -4.7364e+002 143920 212864,212942,212890
 5.0000e+001 213143 -9.7433e+002 -5.3145e+002  1.4617e+002 143480 213016,213068,213042
 5.0000e+001 213120 -3.9329e+002 -1.7199e+002 -1.4460e+002 143480 213016,213094,213068
 5.0000e+001 213295 -2.2360e+006 -8.4760e+006  5.1421e+006 142990 213194,213246,213220
 5.0000e+001 213272 -2.5864e+006 -3.6983e+006  2.2802e+006 142990 213168,213246,213194
 5.0000e+001 213447  6.7400e+004 -3.0307e+006  2.6798e+005 142600 213320,213372,213346
 5.0000e+001 213424 -1.8469e+005 -2.2326e+006 -4.2079e+005 142600 213320,213398,213372
 5.0000e+001 213599  2.9665e+003 -1.8905e+005 -8.0653e+004 142260 213472,213524,213498
 5.0000e+001 213576  5.0358e+003 -2.0820e+005  6.1705e+002 142260 213472,213550,213524
 5.0000e+001 213751 -1.1960e+005 -3.9020e+005 -1.8542e+005 141870 213624,213676,213650
 5.0000e+001 213728 -3.0976e+005 -3.8964e+005 -2.4290e+005 141870 213624,213702,213676
 5.0000e+001 213903 -1.0752e+006 -1.9178e+006 -1.4599e+006 141530 213776,213828,213802
 5.0000e+001 213880 -4.5966e+005 -2.1702e+006 -9.3511e+005 141530 213776,213854,213828
 5.0000e+001 214055 -2.8910e+001 -7.7530e+002 -1.1121e+001 141218 213928,213980,213954
 5.0000e+001 214032 -1.6382e+001 -1.5996e+003  2.3347e+002 141218 213928,214006,213980
 5.0000e+001 214207 -6.3526e+001 -2.9735e+002 -5.4168e+001 140928 214080,214132,214106
 5.0000e+001 214184 -2.0353e+002 -3.4481e+002  1.5832e+002 140928 214080,214158,214132
 5.0000e+001 214359 -1.9075e+005 -1.0368e+005 -2.0255e+005 140538 214232,214284,214258
 5.0000e+001 214336  1.0348e+005 -4.9044e+005  1.1944e+005 140538 214232,214310,214284
 5.0000e+001 214560 -1.8786e+005 -3.7193e+006  4.7849e+005 140248 214384,214462,214410
 5.0000e+001 214537  1.4623e+005 -1.3874e+006  1.3801e+005 140248 214384,214488,214462
 5.0000e+001 214514 -3.1347e+005 -2.2119e+006 -2.6755e+005 140248 214410,214462,214436
 5.0000e+001 214712 -1.1059e+006 -9.1441e+006  2.3396e+006 140000 214611,214663,214637
 5.0000e+001 214689 -1.2174e+006 -5.5865e+006  1.8819e+006 140000 214585,214663,214611
 5.0000e+001 214913 -4.3403e+005 -1.5987e+006 -9.8844e+005 139596 214737,214815,214763
 5.0000e+001 214890 -4.1054e+005 -3.2733e+005 -1.5512e+005 139596 214737,214841,214815
 5.0000e+001 214867  4.2676e+005 -3.9590e+006 -4.5958e+005 139596 214763,214815,214789
 5.0000e+001 215016 -4.2212e+002 -6.9925e+001 -1.1706e+002 139420 214938,214990,214964
 5.0000e+001 215168 -3.4926e+006 -1.1437e+007  6.3584e+006 139130 215067,215119,215093
 5.0000e+001 215145 -1.3725e+006 -1.2404e+007  2.5276e+006 139130 215041,215119,215067
 5.0000e+001 215320 -1.7624e+006 -6.6791e+006  3.6090e+006 138790 215219,215271,215245
 5.0000e+001 215297 -1.3731e+006 -1.1649e+007  4.8835e+006 138790 215193,215271,215219
 5.0000e+001 215472 -2.7984e+002 -5.3697e+002  4.5583e+002 138514 215345,215397,215371
 5.0000e+001 215449 -1.8569e+001 -8.2935e+001  1.0398e+002 138514 215345,215423,215397
 5.0000e+001 215624 -6.9313e+004 -1.0790e+007  1.6686e+006 138174 215497,215549,215523
 5.0000e+001 215601  5.7822e+004 -7.9385e+006  1.1611e+006 138174 215497,215575,215549
 5.0000e+001 215776 -4.5937e+005 -1.6651e+006  1.2391e+006 137734 215649,215701,215675
 5.0000e+001 215753 -5.0204e+005 -8.1420e+005 -8.3904e+005 137734 215649,215727,215701
 5.0000e+001 215977  9.7620e+005 -1.9557e+007  4.6649e+006 137344 215801,215879,215827
 5.0000e+001 215954 -1.6926e+006 -8.3113e+006 -3.6581e+006 137344 215801,215905,215879
 5.0000e+001 215931 -1.7958e+006 -2.3365e+007  1.7036e+006 137344 215827,215879,215853
 5.0000e+001 216129 -1.8542e+005 -5.0823e+006 -1.1578e+005 136940 216028,216080,216054
 5.0000e+001 216106 -6.6424e+005 -6.5047e+006 -4.7194e+005 136940 216002,216080,216028
 5.0000e+001 216330 -7.0973e+005 -9.8294e+006  1.4090e+006 136600 216180,216232,216206
 5.0000e+001 216307 -3.0432e+005 -9.8758e+006  2.3205e+006 136600 216154,216232,216180
 5.0000e+001 216284 -1.1828e+006 -7.1005e+006  9.1081e+005 136600 216154,216258,216232
 5.0000e+001 216482  3.8293e+005 -7.1602e+006  1.3358e+006 136260 216381,216433,216407
 5.0000e+001 216459 -9.4105e+004 -7.4946e+006  1.0604e+006 136260 216355,216433,216381
 5.0000e+001 216634 -1.3690e+006 -8.8836e+006  3.1423e+006 135970 216533,216585,216559
 5.0000e+001 216611 -7.6034e+005 -1.2059e+007  3.7084e+006 135970 216507,216585,216533
 5.0000e+001 216835 -7.7897e+005 -2.8378e+006 -1.1336e+006 135608 216685,216763,216711
 5.0000e+001 216812 -1.5796e+005 -1.8354e+006  1.4838e+005 135608 216659,216763,216685
 5.0000e+001 216789 -5.7564e+005 -9.0259e+006  1.8874e+005 135608 216711,216763,216737
 5.0000e+001 217036 -7.7779e+005 -1.2859e+006  7.7298e+005 135312 216912,216964,216938
 5.0000e+001 217013 -7.1853e+005 -3.4063e+006  1.8522e+006 135312 216886,216964,216912
 5.0000e+001 216990  8.8275e+005 -7.4941e+006  1.0201e+006 135312 216860,216964,216886
 5.0000e+001 217237 -3.6187e+004 -4.1861e+005  1.3783e+005 134908 217061,217139,217113
 5.0000e+001 217214 -4.6043e+004 -4.3353e+005  1.8919e+005 134908 217061,217165,217139
 5.0000e+001 217191  1.3457e+004 -5.5272e+005  1.8331e+005 134908 217061,217113,217087
 5.0000e+001 217438 -2.9311e+006 -2.1792e+007  1.4918e+006 134568 217288,217366,217314
 5.0000e+001 217415  2.6604e+006 -3.6948e+007  1.3029e+006 134568 217262,217366,217288
 5.0000e+001 217392 -6.2447e+005 -1.9938e+007 -6.4482e+005 134568 217314,217366,217340
 5.0000e+001 217590 -9.5602e+002 -2.1144e+003  1.6052e+003 134106 217463,217515,217489
 5.0000e+001 217567 -4.9123e+002 -1.2296e+003  3.8490e+002 134106 217463,217541,217515
 5.0000e+001 217791 -1.9796e+006 -3.0159e+007 -8.2609e+006 133816 217641,217693,217667
 5.0000e+001 217768  3.2072e+006 -3.4531e+007  3.5354e+006 133816 217641,217719,217693
 5.0000e+001 217745 -7.1096e+006 -4.4883e+006  5.0929e+006 133816 217615,217719,217641
 5.0000e+001 217992 -3.8972e+006 -5.6272e+006  4.7640e+006 133355 217842,217920,217894
 5.0000e+001 217969  9.9904e+005 -1.5716e+007  3.9555e+005 133355 217816,217920,217842
 5.0000e+001 217946 -4.1663e+005 -3.1624e+006  1.0543e+006 133355 217842,217894,217868
 5.0000e+001 218193 -9.6764e+005 -9.2880e+006 -1.9238e+006 132851 218017,218095,218069
 5.0000e+001 218170 -3.9310e+006 -1.0849e+007  7.6478e+006 132851 218017,218121,218095
 5.0000e+001 218147 -3.2391e+006 -5.5307e+006 -2.3366e+006 132851 218017,218069,218043
 5.0000e+001 218345 -1.8719e+005 -1.7909e+006  5.0235e+005 132511 218244,218296,218270
 5.0000e+001 218322 -1.4750e+005 -2.4585e+006  6.3249e+005 132511 218218,218296,218244
 5.0000e+001 218497  1.2833e+006 -3.3491e+007 -5.9110e+005 132235 218396,218448,218422
 5.0000e+001 218474 -1.3571e+006 -1.0310e+007  5.4540e+005 132235 218370,218448,218396
 5.0000e+001 218698 -1.5668e+005 -9.6980e+006 -6.6625e+005 131945 218574,218626,218600
 5.0000e+001 218675 -2.1011e+006 -1.7996e+007 -5.5799e+005 131945 218522,218626,218574
 5.0000e+001 218652 -7.4313e+005 -1.5685e+007 -1.6636e+006 131945 218522,218574,218548
 5.0000e+001 218850 -3.3129e+005 -2.1169e+007  3.6528e+004 131655 218723,218775,218749
 5.0000e+001 218827  5.1284e+005 -1.3600e+007 -8.5139e+004 131655 218723,218801,218775
 5.0000e+001 218953 -1.8303e+005 -4.8771e+006  3.1498e+005 131215 218875,218927,218901
 5.0000e+001 219105 -2.0247e+005 -5.8032e+006 -2.0664e+006 130875 218978,219030,219004
 5.0000e+001 219082 -6.9601e+005 -1.2940e+006 -6.1399e+005 130875 218978,219056,219030
 5.0000e+001 219306 -1.6479e+005 -4.5665e+006 -5.1636e+005 130429 219156,219234,219208
 5.0000e+001 219283 -6.5322e+005 -1.4850e+006  8.6721e+004 130429 219130,219234,219156
 5.0000e+001 219260 -2.9705e+006 -5.3855e+006  1.0030e+006 130429 219156,219208,219182
 5.0000e+001 219507 -1.4965e+005 -5.3718e+005  1.4629e+005 130025 219383,219435,219409
 5.0000e+001 219484 -1.1131e+005 -9.4892e+005  3.2309e+005 130025 219331,219435,219383
 5.0000e+001 219461 -1.3752e+005 -3.1984e+005  4.6346e+004 130025 219331,219383,219357
 5.0000e+001 219659 -1.7861e+006 -6.8795e+006  9.1225e+005 129685 219558,219610,219584
 5.0000e+001 219636  2.0964e+005 -1.1822e+007 -5.4399e+006 129685 219532,219610,219558
 5.0000e+001 219860 -3.6468e+004 -3.3156e+006  8.6841e+005 129395 219710,219788,219762
 5.0000e+001 219837 -9.1050e+005 -1.7162e+006  4.7174e+005 129395 219684,219788,219710
 5.0000e+001 219814  4.4685e+005 -4.8969e+006 -3.0570e+005 129395 219710,219762,219736
 5.0000e+001 220061  2.1786e+005 -3.1950e+006  2.9258e+005 128991 219937,219989,219963
 5.0000e+001 220038  9.6555e+004 -2.9985e+006  2.8491e+005 128991 219885,219989,219937
 5.0000e+001 220015 -2.0815e+005 -4.4879e+006  4.9573e+005 128991 219885,219937,219911
 5.0000e+001 220262 -4.9723e+005 -1.8934e+006  2.0373e+005 128701 220086,220164,220112
 5.0000e+001 220239 -2.7804e+005 -2.7485e+006  5.3562e+005 128701 220086,220190,220164
 5.0000e+001 220216 -2.1161e+005 -2.1880e+006 -3.9570e+005 128701 220112,220164,220138
 5.0000e+001 220463 -3.7747e+006 -8.8553e+006  3.8159e+006 128297 220339,220391,220365
 5.0000e+001 220440  2.0595e+006 -2.0579e+007  1.0057e+006 128297 220313,220391,220339
 5.0000e+001 220417 -2.2053e+005 -2.4176e+007 -4.4757e+006 128297 220287,220391,220313
 5.0000e+001 220615 -1.3124e+006 -3.9790e+006 -1.0479e+006 128007 220488,220540,220514
 5.0000e+001 220592  1.1907e+006 -1.2826e+007  2.9038e+005 128007 220488,220566,220540
 5.0000e+001 220767  4.3609e+002 -4.7394e+006  1.9994e+005 127567 220640,220692,220666
 5.0000e+001 220744 -2.3905e+005 -2.3484e+006  7.6986e+004 127567 220640,220718,220692
 5.0000e+001 220919 -6.0994e+005 -1.7880e+007 -1.7183e+006 127163 220792,220844,220818
 5.0000e+001 220896  1.0990e+006 -2.1144e+007  2.9541e+006 127163 220792,220870,220844
 5.0000e+001 221071 -1.4708e+006 -4.3823e+006  1.8593e+006 126915 220970,221022,220996
 5.0000e+001 221048 -1.1544e+006 -5.2944e+006  1.6162e+006 126915 220944,221022,220970
 5.0000e+001 221272 -2.2996e+006 -4.4132e+006  3.3587e+006 126461 221122,221174,221148
 5.0000e+001 221249 -4.7908e+006 -5.9075e+006  5.3211e+005 126461 221122,221200,221174
 5.0000e+001 221226  1.3541e+006 -1.4451e+007 -3.1276e+006 126461 221096,221200,221122
 5.0000e+001 221375 -8.1022e+001 -9.4836e+004  2.3990e+002 126213 221297,221349,221323
 5.0000e+001 221478 -6.8609e+001 -1.6451e+004  6.2376e+000 125766 221400,221452,221426
 5.0000e+001 221679 -1.2317e+005 -1.7809e+006  1.7083e+005 125212 221503,221555,221529
 5.0000e+001 221656 -1.5497e+005 -2.4510e+006 -7.0776e+004 125212 221503,221581,221555
 5.0000e+001 221633  5.7975e+005 -6.3497e+006  1.7730e+006 125212 221503,221607,221581
 5.0000e+001 221929 -3.9968e+003 -6.0500e+002 -1.2772e+003 124872 221782,221834,221808
 5.0000e+001 221906 -1.0801e+004 -1.3402e+003  6.1068e+003 124872 221756,221834,221782
 5.0000e+001 221883 -2.7934e+004 -1.3952e+003 -1.6915e+004 124872 221704,221834,221756
 5.0000e+001 221860 -6.3597e+004 -2.0366e+004  3.4392e+004 124872 221704,221756,221730
 5.0000e+001 222130 -4.6118e+005 -9.4087e+006 -3.7990e+005 124582 221980,222058,222006
 5.0000e+001 222107 -2.4958e+006 -9.2557e+006 -1.2569e+005 124582 221954,222058,221980
 5.0000e+001 222084 -1.6726e+006 -9.6052e+006 -8.9753e+005 124582 222006,222058,222032
 5.0000e+001 222282 -2.2887e+006 -9.7299e+006 -2.4179e+006 124192 222181,222233,222207
 5.0000e+001 222259 -8.2527e+005 -8.8743e+006 -1.6934e+006 124192 222155,222233,222181
 5.0000e+001 222483 -1.0450e+004 -5.5156e+006 -3.2294e+006 123702 222333,222385,222359
 5.0000e+001 222460 -1.8804e+005 -2.5373e+006  3.1008e+005 123702 222333,222411,222385
 5.0000e+001 222437 -1.4346e+005 -7.0250e+005 -1.1254e+005 123702 222307,222411,222333
 5.0000e+001 222635 -8.0416e+005 -1.3597e+006 -7.0008e+005 123312 222508,222560,222534
 5.0000e+001 222612  4.5126e+005 -6.6127e+006 -4.2001e+005 123312 222508,222586,222560
 5.0000e+001 222787 -2.2881e+004 -1.4685e+006 -6.1040e+004 122858 222686,222738,222712
 5.0000e+001 222764 -1.2614e+005 -1.6227e+006 -3.0505e+005 122858 222660,222738,222686
 5.0000e+001 222939 -2.8240e+005 -1.4131e+006 -3.3347e+004 122568 222812,222864,222838
 5.0000e+001 222916 -3.5466e+005 -1.1216e+006  4.4163e+005 122568 222812,222890,222864
 5.0000e+001 223091 -1.5247e+005 -3.8738e+006 -7.5408e+005 122392 222964,223016,222990
 5.0000e+001 223068 -1.0000e+005 -3.9271e+006 -6.8979e+005 122392 222964,223042,223016
 5.0000e+001 223292 -2.7137e+005 -5.2465e+006 -2.4627e+005 121852 223142,223220,223194
 5.0000e+001 223269 -1.4573e+006 -5.4767e+006 -4.8442e+005 121852 223116,223220,223142
 5.0000e+001 223246 -8.4380e+005 -5.1150e+006 -1.0721e+006 121852 223142,223194,223168
 5.0000e+001 223493 -7.0839e+005 -5.2930e+006 -2.3502e+003 121406 223343,223395,223369
 5.0000e+001 223470 -2.9119e+006 -4.4753e+006 -9.7243e+005 121406 223343,223421,223395
 5.0000e+001 223447 -8.4975e+005 -2.8108e+006  9.6540e+005 121406 223317,223421,223343
 5.0000e+001 223645  3.4948e+005 -1.0378e+007  1.0613e+006 121002 223544,223596,223570
 5.0000e+001 223622 -1.0917e+006 -6.0481e+006  1.2701e+006 121002 223518,223596,223544
 5.0000e+001 223846 -2.6321e+005 -6.1955e+006 -1.2295e+004 120662 223670,223748,223696
 5.0000e+001 223823  3.3542e+005 -3.4847e+006  4.3162e+004 120662 223670,223774,223748
 5.0000e+001 223800 -1.0260e+006 -2.5854e+006 -1.2982e+006 120662 223696,223748,223722
 5.0000e+001 224047 -3.7015e+005 -3.4240e+006  6.0749e+005 120222 223897,223949,223923
 5.0000e+001 224024  5.5507e+005 -4.4416e+006 -4.2764e+005 120222 223871,223949,223897
 5.0000e+001 224001 -6.2782e+005 -2.8403e+006 -8.5716e+005 120222 223871,223975,223949
 5.0000e+001 224248  6.6053e+004 -2.5849e+006 -1.3172e+006 119875 224124,224176,224150
 5.0000e+001 224225 -1.3783e+006 -5.6577e+006 -2.4259e+006 119875 224098,224176,224124
 5.0000e+001 224202 -3.3200e+005 -1.1066e+006  5.4610e+004 119875 224072,224176,224098
 5.0000e+001 224449 -1.1651e+005 -3.8252e+006 -2.4934e+005 119677 224325,224377,224351
 5.0000e+001 224426 -2.8605e+005 -4.5044e+006 -1.9560e+005 119677 224299,224377,224325
 5.0000e+001 224403 -7.7289e+003 -1.1025e+006 -4.6256e+004 119677 224273,224377,224299
 5.0000e+001 224552 -3.4607e+005 -8.5947e+005 -2.9375e+005 119273 224474,224526,224500
 5.0000e+001 224704 -3.3316e+005 -5.2690e+006 -9.7332e+004 118983 224603,224655,224629
 5.0000e+001 224681 -3.3880e+004 -7.0910e+006 -1.1096e+006 118983 224577,224655,224603
 5.0000e+001 224856 -5.6107e+005 -4.0871e+006 -2.7652e+005 118529 224755,224807,224781
 5.0000e+001 224833  1.8617e+005 -8.3275e+006 -1.1318e+006 118529 224729,224807,224755
 5.0000e+001 225008 -7.5856e+005 -7.4277e+006  8.8859e+004 118353 224881,224933,224907
 5.0000e+001 224985 -3.1820e+005 -2.2327e+004 -7.5490e+004 118353 224881,224959,224933
 5.0000e+001 225209 -9.1885e+005 -5.6126e+006 -1.5691e+006 117949 225059,225137,225111
 5.0000e+001 225186 -2.1642e+005 -4.8128e+006 -3.3483e+005 117949 225033,225137,225059
 5.0000e+001 225163 -1.4997e+005 -8.4421e+006 -2.5920e+005 117949 225059,225111,225085
 5.0000e+001 225410 -9.5668e+004 -6.8265e+006  9.0072e+005 117559 225260,225338,225312
 5.0000e+001 225387 -9.7684e+005 -7.2289e+006  3.0430e+005 117559 225234,225338,225260
 5.0000e+001 225364 -5.5161e+005 -4.6718e+006 -1.6050e+006 117559 225260,225312,225286
 5.0000e+001 225611 -1.8989e+006 -8.7644e+006 -3.3008e+006 117361 225461,225513,225487
 5.0000e+001 225588 -9.5840e+005 -9.3136e+006  1.2687e+006 117361 225461,225539,225513
 5.0000e+001 225565 -1.1989e+006 -7.9659e+006  2.1494e+006 117361 225435,225539,225461
 5.0000e+001 225812  8.0191e+005 -8.0694e+006 -8.8424e+005 116900 225636,225714,225662
 5.0000e+001 225789 -7.8020e+005 -3.8276e+006 -1.3303e+006 116900 225636,225740,225714
 5.0000e+001 225766 -1.1627e+004 -8.3254e+006 -3.1268e+005 116900 225662,225714,225688
 5.0000e+001 225964  1.6357e+005 -4.2492e+006 -1.9229e+005 116560 225837,225889,225863
 5.0000e+001 225941  2.3056e+005 -3.3036e+006 -4.6258e+005 116560 225837,225915,225889
 5.0000e+001 226165 -1.8947e+004 -4.4205e+006 -8.4525e+005 116106 226015,226093,226041
 5.0000e+001 226142 -1.4234e+006 -4.5069e+006 -3.2859e+006 116106 225989,226093,226015
 5.0000e+001 226119 -3.3623e+006 -1.7146e+006  1.1782e+006 116106 226041,226093,226067
 5.0000e+001 226268 -1.6659e+006 -4.9737e+006  1.0626e+006 115716 226190,226242,226216
 5.0000e+001 226420 -6.2738e+005 -8.4332e+006  1.9698e+006 115376 226293,226345,226319
 5.0000e+001 226397 -9.4881e+005 -8.6180e+006  2.1812e+006 115376 226293,226371,226345
 5.0000e+001 226621 -2.5979e+005 -1.1801e+006  8.0197e+004 114972 226497,226549,226523
 5.0000e+001 226598 -5.7919e+005 -7.1352e+006 -7.6183e+005 114972 226445,226549,226497
 5.0000e+001 226575 -2.2963e+005 -2.9496e+006  6.3705e+005 114972 226445,226497,226471
 5.0000e+001 226773 -6.0713e+005 -2.4359e+006 -9.4712e+005 114670 226646,226698,226672
 5.0000e+001 226750  3.2813e+005 -4.7822e+006  8.4787e+004 114670 226646,226724,226698
 5.0000e+001 226974  1.8432e+004 -9.9817e+005 -1.9183e+005 114082 226798,226850,226824
 5.0000e+001 226951  6.3263e+004 -1.4006e+006 -5.0273e+004 114082 226798,226902,226850
 5.0000e+001 226928  2.5310e+004 -1.9223e+006 -1.9624e+005 114082 226850,226902,226876
 5.0000e+001 227175 -6.1080e+005 -5.0215e+006 -2.3398e+006 113678 226999,227051,227025
 5.0000e+001 227152 -2.0043e+006 -9.0574e+006 -3.7185e+006 113678 226999,227077,227051
 5.0000e+001 227129 -2.6112e+006 -6.1090e+006 -3.2779e+006 113678 226999,227103,227077
 5.0000e+001 227425 -2.5395e+006 -8.4208e+006 -8.3770e+006 113274 227226,227278,227252
 5.0000e+001 227402  3.0017e+005 -7.6775e+006 -8.9322e+005 113274 227226,227330,227278
 5.0000e+001 227379 -1.9816e+006 -3.3496e+006 -5.6523e+005 113274 227200,227330,227226
 5.0000e+001 227356 -6.1507e+005 -1.0907e+006 -1.0552e+006 113274 227278,227330,227304
 5.0000e+001 227626  4.1772e+004 -3.1790e+006 -1.2546e+006 112934 227502,227554,227528
 5.0000e+001 227603  7.4412e+004 -2.2458e+006 -4.3924e+004 112934 227450,227554,227502
 5.0000e+001 227580 -1.2794e+006 -9.6349e+005 -1.8222e+005 112934 227450,227502,227476
 5.0000e+001 227876 -5.7158e+005 -5.5205e+005  2.4134e+004 112437 227677,227755,227703
 5.0000e+001 227853 -9.0201e+005 -7.3074e+005  7.2830e+005 112437 227677,227781,227755
 5.0000e+001 227830 -2.7893e+005 -3.0380e+005  1.9586e+005 112437 227703,227755,227729
 5.0000e+001 227807 -2.7108e+005 -2.8892e+006  1.6811e+004 112437 227651,227781,227677
 5.0000e+001 228126 -3.1630e+005 -4.2210e+006 -2.3326e+005 112041 227927,228005,227953
 5.0000e+001 228103 -5.2744e+005 -3.8217e+006 -1.5785e+004 112041 227927,228031,228005
 5.0000e+001 228080  3.4787e+004 -5.0416e+006 -8.5111e+003 112041 227953,228005,227979
 5.0000e+001 228057 -1.5242e+006 -2.4799e+006 -6.8168e+005 112041 227901,228031,227927
 5.0000e+001 228327 -1.4336e+006 -2.8806e+006 -7.1720e+005 111693 228151,228203,228177
 5.0000e+001 228304 -9.5390e+005 -1.7479e+006 -1.0913e+006 111693 228151,228229,228203
 5.0000e+001 228281  1.7701e+004 -3.1201e+006 -8.8130e+004 111693 228151,228255,228229
 5.0000e+001 228479 -2.9035e+006 -2.0981e+006 -3.1095e+006 111253 228352,228404,228378
 5.0000e+001 228456 -1.8908e+006 -4.6459e+005 -1.2348e+005 111253 228352,228430,228404
 5.0000e+001 228582 -1.4282e+006 -2.4188e+006  2.8014e+004 110906 228504,228556,228530
 5.0000e+001 228783 -1.3175e+005 -1.1381e+006  1.7528e+005 110416 228633,228711,228659
 5.0000e+001 228760 -5.0176e+004 -4.3016e+005 -5.4423e+003 110416 228607,228711,228633
 5.0000e+001 228737 -4.7235e+004 -5.1719e+005  1.2481e+005 110416 228659,228711,228685
 5.0000e+001 228935 -6.4407e+004 -2.5584e+006 -3.8717e+005 110012 228808,228860,228834
 5.0000e+001 228912 -6.4613e+005 -4.9221e+006 -9.8941e+005 110012 228808,228886,228860
 5.0000e+001 229087 -1.6793e+006 -2.8077e+006 -6.2233e+005 109672 228960,229012,228986
 5.0000e+001 229064 -1.2960e+006 -4.7830e+006  5.3028e+004 109672 228960,229038,229012
 5.0000e+001 229190 -3.0398e+004 -1.0835e+006  5.1091e+004 109332 229112,229164,229138
 5.0000e+001 229391  3.2411e+002 -1.0689e+003 -7.9177e+001 109156 229267,229319,229293
 5.0000e+001 229368 -1.1313e+003 -9.1590e+003 -4.4155e+002 109156 229215,229319,229267
 5.0000e+001 229345  4.4371e+002 -1.7063e+003  7.6274e+001 109156 229215,229267,229241
 5.0000e+001 229543  3.7404e+004 -8.5755e+006  1.0600e+006 108752 229416,229468,229442
 5.0000e+001 229520 -6.7035e+005 -6.5895e+006  4.3950e+005 108752 229416,229494,229468
 5.0000e+001 229744 -3.3196e+005 -6.1037e+006 -5.1995e+005 108198 229594,229646,229620
 5.0000e+001 229721  2.0650e+005 -6.0792e+006  8.6494e+005 108198 229594,229672,229646
 5.0000e+001 229698 -7.7459e+005 -6.1411e+006  7.4214e+005 108198 229568,229672,229594
 5.0000e+001 229847 -3.9696e+002 -1.5487e+004 -2.2599e+003 107758 229769,229821,229795
 5.0000e+001 230048 -7.3607e+005 -1.9195e+006 -3.9457e+005 107468 229898,229950,229924
 5.0000e+001 230025 -3.2044e+005 -1.8209e+006 -3.7492e+005 107468 229872,229950,229898
 5.0000e+001 230002 -7.0788e+005 -1.8631e+006 -3.6163e+005 107468 229872,229976,229950
 5.0000e+001 230298  9.5370e+004 -6.6426e+005  1.7136e+005 107121 230099,230203,230177
 5.0000e+001 230275  1.0852e+005 -4.2607e+005  1.8789e+005 107121 230073,230203,230099
 5.0000e+001 230252  5.5714e+004 -7.1343e+005  8.0350e+004 107121 230099,230177,230151
 5.0000e+001 230229 -7.1883e+004 -4.5607e+005 -1.8109e+005 107121 230099,230151,230125
 5.0000e+001 230450  8.4243e+004 -1.0879e+006 -9.0548e+004 106823 230349,230401,230375
 5.0000e+001 230427 -5.3844e+004 -4.2103e+005  5.2103e+004 106823 230323,230401,230349
 5.0000e+001 230602 -1.3871e+006 -1.1231e+007 -6.2247e+006 106533 230501,230553,230527
 5.0000e+001 230579 -4.4448e+005 -1.0480e+007  1.7915e+006 106533 230475,230553,230501
 5.0000e+001 230803 -1.2301e+005 -1.0852e+006 -7.0720e+004 106029 230679,230731,230705
 5.0000e+001 230780 -6.2827e+004 -8.4974e+005  1.1233e+005 106029 230653,230731,230679
 5.0000e+001 230757 -4.3510e+003 -7.3005e+005  1.5868e+005 106029 230627,230731,230653
 5.0000e+001 231004 -1.7204e+005 -1.2059e+006 -3.4136e+004 105689 230854,230906,230880
 5.0000e+001 230981 -3.2969e+005 -2.0589e+006 -9.0963e+005 105689 230828,230906,230854
 5.0000e+001 230958 -6.0321e+005 -2.0186e+006 -9.4684e+005 105689 230828,230932,230906
 5.0000e+001 231156 -3.8607e+005 -5.1401e+006  4.1654e+005 105377 231055,231107,231081
 5.0000e+001 231133  7.4698e+005 -7.7170e+006 -1.5957e+005 105377 231029,231107,231055
 5.0000e+001 231406 -7.0951e+005 -8.3524e+006 -5.5588e+005 104858 231207,231259,231233
 5.0000e+001 231383 -2.1443e+006 -8.2140e+006 -1.1369e+006 104858 231207,231311,231259
 5.0000e+001 231360 -1.0131e+006 -1.1392e+007 -2.2106e+006 104858 231259,231311,231285
 5.0000e+001 231337 -8.3343e+005 -1.1318e+007 -1.7891e+006 104858 231181,231311,231207
 5.0000e+001 231558 -1.5161e+006 -1.3098e+007  4.4840e+006 104418 231457,231509,231483
 5.0000e+001 231535 -1.5663e+006 -1.3048e+007 -6.5750e+006 104418 231431,231509,231457
 5.0000e+001 231710 -1.6258e+006 -1.0218e+006 -4.3541e+005 103978 231583,231635,231609
 5.0000e+001 231687 -1.1770e+006 -1.0743e+006 -6.8685e+005 103978 231583,231661,231635
 5.0000e+001 231862 -1.4107e+004 -1.2669e+006 -1.1353e+005 103588 231761,231813,231787
 5.0000e+001 231839 -2.4658e+003 -1.2230e+006 -1.0932e+005 103588 231735,231813,231761
 5.0000e+001 232014 -1.7140e+006 -8.4301e+006 -2.2532e+006 103248 231887,231939,231913
 5.0000e+001 231991 -1.1745e+006 -1.7359e+007 -5.4531e+006 103248 231887,231965,231939
 5.0000e+001 232215 -1.2445e+005 -2.2138e+006  8.7624e+004 102844 232039,232117,232065
 5.0000e+001 232192  9.2068e+004 -1.1937e+006  8.3070e+004 102844 232039,232143,232117
 5.0000e+001 232169 -2.8913e+005 -1.4521e+006 -4.3672e+005 102844 232065,232117,232091
 5.0000e+001 232416 -3.8984e+006 -1.0124e+007 -3.1146e+006 102554 232240,232318,232292
 5.0000e+001 232393  8.1925e+005 -1.5983e+007  5.0618e+005 102554 232240,232344,232318
 5.0000e+001 232370 -4.4416e+006 -3.8247e+006 -8.9142e+005 102554 232240,232292,232266
 5.0000e+001 232568 -2.0753e+004 -1.1770e+006  5.2451e+004 102100 232441,232493,232467
 5.0000e+001 232545 -2.3757e+005 -1.2617e+006  1.4867e+005 102100 232441,232519,232493
 5.0000e+001 232769 -9.9104e+003 -1.7209e+005 -4.1135e+003 101596 232645,232697,232671
 5.0000e+001 232746  1.0101e+003 -1.2845e+005 -8.2071e+003 101596 232593,232697,232645
 5.0000e+001 232723  1.0287e+004 -2.9138e+005 -8.3919e+002 101596 232593,232645,232619
 5.0000e+001 232921 -5.9725e+002 -5.7981e+002  8.7455e+001 101420 232794,232846,232820
 5.0000e+001 232898 -1.0590e+003 -1.7975e+002  7.1257e+002 101420 232794,232872,232846
 5.0000e+001 233073 -9.5649e+005 -9.5679e+005 -6.7253e+005 101023 232946,232998,232972
 5.0000e+001 233050  1.6803e+004 -2.4185e+006  4.3356e+005 101023 232946,233024,232998
 5.0000e+001 233225  1.0273e+005 -2.1712e+006 -9.4915e+003 100661 233098,233150,233124
 5.0000e+001 233202 -6.4947e+004 -1.4307e+006 -4.7993e+004 100661 233098,233176,233150
 5.0000e+001 233426 -2.2728e+006 -7.3611e+006 -2.5244e+006 100265 233276,233328,233302
 5.0000e+001 233403 -1.2129e+006 -6.0574e+006  2.3682e+005 100265 233276,233354,233328
 5.0000e+001 233380 -1.8211e+006 -9.7585e+006 -7.5980e+005 100265 233250,233354,233276
 5.0000e+001 233578  1.0567e+002 -2.9661e+004  5.3730e+002 100032 233451,233503,233477
 5.0000e+001 233555 -3.0130e+002 -3.0201e+004 -5.7404e+003 100032 233451,233529,233503
 5.0000e+001 233681 -7.0694e+005  1.2268e+004  2.5417e+004 99742 233603,233655,233629
 5.0000e+001 233784 -3.2587e+005 -2.9967e+006 -3.9126e+005 99402 233706,233758,233732
 5.0000e+001 233936 -6.0098e+005 -1.4933e+006 -1.8141e+004 99062 233835,233887,233861
 5.0000e+001 233913 -5.4907e+005 -1.3500e+006  2.4975e+005 99062 233809,233887,233835
 5.0000e+001 234088 -7.1315e+005 -3.6978e+006  1.1437e+006 98772 233987,234039,234013
 5.0000e+001 234065 -3.1908e+005 -3.6356e+006  1.0069e+006 98772 233961,234039,233987
 5.0000e+001 234240 -1.5744e+004 -6.4459e+004  2.2007e+004 98160 234139,234191,234165
 5.0000e+001 234217 -2.0521e+004 -7.4678e+004 -9.3679e+003 98160 234113,234191,234139
 5.0000e+001 234441  1.6782e+001 -1.8842e+002 -5.7749e+001 97820 234317,234369,234343
 5.0000e+001 234418 -3.5488e+001 -4.7904e+002 -3.0488e+002 97820 234291,234369,234317
 5.0000e+001 234395 -5.4575e+002 -1.0993e+003 -6.4229e+002 97820 234265,234369,234291
 5.0000e+001 234593 -6.6500e+005 -1.0426e+006 -4.3328e+005 97366 234466,234518,234492
 5.0000e+001 234570  3.3410e+005 -3.9277e+006 -7.1220e+005 97366 234466,234544,234518
 5.0000e+001 234794 -9.3979e+005 -1.4586e+006 -1.0237e+006 96976 234618,234670,234644
 5.0000e+001 234771 -1.6697e+005 -2.9838e+006 -8.5383e+005 96976 234618,234722,234670
 5.0000e+001 234748 -6.4933e+005 -3.0027e+006 -1.6294e+006 96976 234670,234722,234696
 5.0000e+001 234946 -7.6041e+005 -2.3533e+006  1.0428e+006 96568 234845,234897,234871
 5.0000e+001 234923 -4.7238e+005 -1.2616e+006  1.1425e+006 96568 234819,234897,234845
 5.0000e+001 235196 -1.8054e+005 -8.1520e+005 -2.3091e+005 96216 234997,235075,235049
 5.0000e+001 235173  9.4491e+004 -3.8986e+006  1.0699e+006 96216 234997,235101,235075
 5.0000e+001 235150 -4.0831e+005 -1.0414e+006  8.7868e+004 96216 234997,235049,235023
 5.0000e+001 235127 -1.2212e+005 -4.1955e+006  5.7552e+005 96216 234971,235101,234997
 5.0000e+001 235348 -1.2072e+006 -2.4206e+006 -4.9973e+005 95863 235247,235299,235273
 5.0000e+001 235325 -1.1446e+006 -1.2788e+006 -7.4994e+005 95863 235221,235299,235247
 5.0000e+001 235500 -8.6141e+005 -2.4389e+006 -1.3281e+006 95339 235373,235425,235399
 5.0000e+001 235477 -3.9716e+005 -4.2620e+006  2.8600e+006 95339 235373,235451,235425
 5.0000e+001 235701  1.7063e+005 -3.4923e+006  6.3403e+005 95023 235525,235577,235551
 5.0000e+001 235678 -1.4349e+005 -3.5343e+006  6.6066e+005 95023 235525,235629,235577
 5.0000e+001 235655 -4.8191e+004 -5.9657e+006  1.1270e+006 95023 235577,235629,235603
 5.0000e+001 235853  1.0538e+006 -1.1265e+007  1.2806e+006 94671 235726,235778,235752
 5.0000e+001 235830 -3.4933e+005 -8.6274e+006 -6.9924e+005 94671 235726,235804,235778
 5.0000e+001 236005 -1.0358e+006 -8.3814e+006 -1.2953e+006 94261 235904,235956,235930
 5.0000e+001 235982 -4.9335e+005 -9.4785e+006 -2.3787e+006 94261 235878,235956,235904
 5.0000e+001 236206 -5.8972e+005 -4.2741e+005  8.8000e+005 93853 236056,236134,236082
 5.0000e+001 236183 -1.3312e+006 -6.3415e+005  4.2300e+005 93853 236030,236134,236056
 5.0000e+001 236160 -8.0519e+005 -7.4097e+005  7.2557e+005 93853 236082,236134,236108
 5.0000e+001 236407 -6.5479e+005 -6.7744e+006  5.7586e+005 93557 236257,236309,236283
 5.0000e+001 236384 -1.7994e+006 -7.6478e+006 -2.1471e+006 93557 236231,236309,236257
 5.0000e+001 236361 -7.0427e+005 -1.3082e+007 -2.6824e+005 93557 236231,236335,236309
 5.0000e+001 236559 -2.2918e+003 -5.3858e+004  1.7189e+004 93149 236432,236484,236458
 5.0000e+001 236536  1.7288e+004 -1.7191e+004  3.9029e+004 93149 236432,236510,236484
 5.0000e+001 236711 -6.3908e+004 -7.4585e+004 -3.6507e+003 92853 236584,236636,236610
 5.0000e+001 236688 -1.9696e+004 -4.4709e+005  6.0461e+004 92853 236584,236662,236636
 5.0000e+001 236912 -3.6373e+005 -3.2515e+006  1.3471e+006 92501 236736,236788,236762
 5.0000e+001 236889 -5.2544e+005 -1.7689e+006  5.0243e+005 92501 236736,236840,236788
 5.0000e+001 236866 -6.8297e+005 -2.5574e+006  4.4260e+005 92501 236788,236840,236814
 5.0000e+001 237113 -1.0421e+005 -5.2472e+006  4.2416e+005 92291 236963,237041,237015
 5.0000e+001 237090  3.2851e+004 -2.8023e+006  4.2480e+004 92291 236937,237041,236963
 5.0000e+001 237067 -2.5873e+005 -4.8708e+006  1.1220e+006 92291 236963,237015,236989
 5.0000e+001 237265  1.6989e+005 -1.3354e+006 -5.5139e+005 91871 237138,237190,237164
 5.0000e+001 237242 -1.0291e+006 -3.6018e+006 -1.5507e+006 91871 237138,237216,237190
 5.0000e+001 237368 -5.6962e+002 -1.4488e+006  3.9488e+002 91581 237290,237342,237316
 5.0000e+001 237520 -2.3649e+004 -1.3568e+005  2.4787e+004 91184 237419,237471,237445
 5.0000e+001 237497 -4.8950e+004 -3.4058e+005 -1.5471e+005 91184 237393,237471,237419
 5.0000e+001 237672 -7.5218e+005 -1.2642e+006 -5.0316e+005 90894 237545,237597,237571
 5.0000e+001 237649 -2.2532e+005 -5.2835e+006  1.2803e+006 90894 237545,237623,237597
 5.0000e+001 237873 -1.2992e+006 -5.0267e+006  9.8039e+005 90490 237749,237801,237775
 5.0000e+001 237850 -8.0937e+005 -4.0727e+006  1.3597e+006 90490 237723,237801,237749
 5.0000e+001 237827 -1.0695e+006 -4.1525e+006 -4.3563e+005 90490 237697,237801,237723
 5.0000e+001 238074 -8.7246e+005 -6.0544e+006  5.8162e+005 90100 237898,237976,237950
 5.0000e+001 238051 -1.3459e+006 -6.0665e+006  4.6053e+005 90100 237898,238002,237976
 5.0000e+001 238028 -5.3227e+005 -5.9642e+006  3.1981e+005 90100 237898,237950,237924
 5.0000e+001 238275 -2.0324e+005 -2.6959e+006  1.3496e+006 89696 238125,238177,238151
 5.0000e+001 238252 -3.5978e+005 -1.5905e+006 -9.5075e+005 89696 238099,238177,238125
 5.0000e+001 238229 -8.0391e+005 -1.8859e+006 -6.6597e+005 89696 238099,238203,238177
 5.0000e+001 238427 -6.7372e+003 -7.9054e+004 -4.3617e+004 89206 238326,238378,238352
 5.0000e+001 238404 -2.7825e+004 -3.5457e+005 -6.9341e+004 89206 238300,238378,238326
 5.0000e+001 238579 -1.0087e+006 -4.1894e+006  2.2079e+006 88908 238452,238504,238478
 5.0000e+001 238556 -2.0147e+005 -3.0627e+006  5.7933e+004 88908 238452,238530,238504
 5.0000e+001 238682 -1.1265e+002 -4.8205e+005 -2.8766e+002 88568 238604,238656,238630
 5.0000e+001 238883  2.8689e+005 -6.6151e+006  1.9147e+006 88278 238733,238811,238785
 5.0000e+001 238860 -8.6331e+005 -3.3587e+006  1.6473e+006 88278 238707,238811,238733
 5.0000e+001 238837 -2.5150e+005 -7.0120e+006  1.3270e+006 88278 238733,238785,238759
 5.0000e+001 239035 -1.5590e+006 -4.2479e+006 -4.5609e+005 87988 238908,238960,238934
 5.0000e+001 239012 -1.6402e+006 -1.9876e+006  1.6030e+005 87988 238908,238986,238960
 5.0000e+001 239138  7.1067e+004 -5.7646e+005  1.8020e+005 87648 239060,239112,239086
 5.0000e+001 239339 -1.1463e+006 -3.3549e+006 -2.1015e+006 87358 239163,239215,239189
 5.0000e+001 239316 -1.1462e+006 -2.1607e+006 -5.5192e+005 87358 239163,239241,239215
 5.0000e+001 239293 -8.9297e+005 -1.1601e+006 -9.9251e+005 87358 239163,239267,239241
 5.0000e+001 239589 -6.6192e+002  7.7130e+001  4.9428e+001 86961 239390,239468,239416
 5.0000e+001 239566 -3.5470e+003 -5.8327e+002 -1.0544e+002 86961 239390,239494,239468
 5.0000e+001 239543 -9.7408e+002  5.4008e+001 -2.0079e+002 86961 239416,239468,239442
 5.0000e+001 239520 -5.8627e+003 -4.3125e+002 -7.6645e+002 86961 239364,239494,239390
 5.0000e+001 239741 -9.9554e+005 -3.4600e+006 -5.1249e+005 86621 239640,239692,239666
 5.0000e+001 239718 -8.7081e+003 -3.9603e+006 -8.3728e+005 86621 239614,239692,239640
 5.0000e+001 239893 -5.8459e+005 -5.8958e+006  1.7306e+006 86217 239792,239844,239818
 5.0000e+001 239870 -7.0283e+005 -4.5020e+006  1.0953e+006 86217 239766,239844,239792
 5.0000e+001 240045 -1.0002e+006 -3.8443e+006  1.0557e+006 85827 239918,239970,239944
 5.0000e+001 240022 -2.2786e+005 -3.6267e+006  3.1463e+005 85827 239918,239996,239970
 5.0000e+001 240197 -7.3859e+005 -8.6516e+006  1.1770e+006 85437 240096,240148,240122
 5.0000e+001 240174 -1.6340e+006 -1.2971e+006 -4.6588e+005 85437 240070,240148,240096
 5.0000e+001 240349 -1.9330e+005 -2.0558e+006  7.2592e+005 85147 240222,240274,240248
 5.0000e+001 240326 -1.3622e+005 -1.1274e+006 -1.6074e+005 85147 240222,240300,240274
 5.0000e+001 240501 -2.9268e+005 -1.3366e+006  5.4128e+005 84807 240374,240426,240400
 5.0000e+001 240478 -1.7816e+006 -2.2060e+006  1.2650e+006 84807 240374,240452,240426
 5.0000e+001 240653 -8.1215e+002 -4.7775e+001 -3.6774e+002 84303 240552,240604,240578
 5.0000e+001 240630 -6.6257e+002  2.3089e+002 -1.9139e+002 84303 240526,240604,240552
 5.0000e+001 240854 -1.7450e+005 -1.2002e+007 -5.5134e+006 83929 240704,240756,240730
 5.0000e+001 240831  1.7036e+006 -9.7460e+006  2.4543e+006 83929 240704,240782,240756
 5.0000e+001 240808 -3.4346e+006  1.8301e+006  2.8494e+006 83929 240678,240782,240704
 5.0000e+001 241055 -1.5018e+004 -2.6265e+004 -9.4774e+003 83539 240879,240957,240931
 5.0000e+001 241032 -6.6508e+004 -2.5765e+004 -2.6291e+004 83539 240879,240983,240957
 5.0000e+001 241009 -1.5678e+004 -9.5155e+003 -1.2291e+004 83539 240879,240931,240905
 5.0000e+001 241207  1.1429e+005 -2.4561e+006  1.5888e+005 83079 241106,241158,241132
 5.0000e+001 241184 -5.9531e+004 -1.2682e+006  2.5696e+005 83079 241080,241158,241106
 5.0000e+001 241408  1.2669e+006 -3.8526e+006  2.8514e+005 82665 241232,241284,241258
 5.0000e+001 241385 -1.7272e+006 -1.3559e+007 -4.0079e+006 82665 241232,241336,241284
 5.0000e+001 241362 -4.2447e+006  4.9874e+006  7.0892e+006 82665 241284,241336,241310
 5.0000e+001 241658 -2.2177e+005 -4.4686e+006  5.6343e+005 82375 241485,241563,241511
 5.0000e+001 241635  4.7142e+004 -2.5549e+006  2.3203e+005 82375 241433,241563,241485
 5.0000e+001 241612 -7.4560e+004 -3.0347e+006  2.5847e+005 82375 241433,241485,241459
 5.0000e+001 241589 -6.7315e+005 -4.9295e+006  8.3779e+005 82375 241511,241563,241537
 5.0000e+001 241810 -9.3223e+005 -3.3395e+006 -3.8796e+005 82035 241683,241735,241709
 5.0000e+001 241787 -1.3766e+006 -4.2259e+006  7.3201e+005 82035 241683,241761,241735
 5.0000e+001 241962 -7.7173e+005 -3.1860e+006  4.0585e+005 81695 241861,241913,241887
 5.0000e+001 241939 -2.3067e+005 -3.6304e+006 -5.1037e+005 81695 241835,241913,241861
 5.0000e+001 242114 -1.2868e+006 -7.2892e+006  2.4202e+006 81355 242013,242065,242039
 5.0000e+001 242091 -2.0314e+005 -3.7953e+006  1.1034e+006 81355 241987,242065,242013
 5.0000e+001 242266 -8.6427e+004 -6.8044e+005 -2.0948e+005 80951 242139,242191,242165
 5.0000e+001 242243 -3.5880e+005 -1.7148e+006 -4.2212e+005 80951 242139,242217,242191
 5.0000e+001 242467 -4.8314e+005 -5.3297e+006  5.7185e+005 80311 242291,242369,242343
 5.0000e+001 242444  4.3764e+004 -2.9652e+006  4.9819e+005 80311 242291,242395,242369
 5.0000e+001 242421 -3.5871e+005 -2.0149e+006  1.2222e+005 80311 242291,242343,242317
 5.0000e+001 242619 -1.5990e+006 -3.6582e+006  5.1790e+005 80021 242492,242544,242518
 5.0000e+001 242596 -1.4696e+006 -3.2190e+006  1.6798e+006 80021 242492,242570,242544
 5.0000e+001 242869 -6.0801e+005 -9.6752e+005  3.7265e+004 79631 242644,242722,242696
 5.0000e+001 242846 -9.6099e+004 -2.2122e+006  2.2230e+005 79631 242644,242774,242722
 5.0000e+001 242823 -1.0591e+004 -1.9760e+006  1.0711e+005 79631 242722,242774,242748
 5.0000e+001 242800 -5.9037e+005 -1.1590e+006  2.9979e+005 79631 242644,242696,242670
 5.0000e+001 243070 -7.5287e+004 -1.6964e+007  3.5902e+006 79341 242920,242972,242946
 5.0000e+001 243047 -7.7525e+005 -9.3612e+006 -2.7284e+005 79341 242920,242998,242972
 5.0000e+001 243024 -1.1348e+006 -6.1008e+006  2.6317e+006 79341 242894,242998,242920
 5.0000e+001 243222 -4.5545e+005 -4.3328e+006  1.6471e+006 78801 243121,243173,243147
 5.0000e+001 243199 -6.0028e+005 -4.9924e+006  1.5594e+006 78801 243095,243173,243121
 5.0000e+001 243423 -9.4938e+005 -4.8430e+006 -6.3301e+005 78511 243273,243325,243299
 5.0000e+001 243400  8.2879e+005 -9.9746e+006  2.0384e+006 78511 243273,243351,243325
 5.0000e+001 243377 -6.4813e+003 -1.0295e+007  2.6009e+005 78511 243247,243351,243273
 5.0000e+001 243624 -3.9841e+005 -4.5231e+006 -1.4178e+006 78107 243474,243552,243526
 5.0000e+001 243601 -3.9799e+005 -4.7346e+006 -1.3640e+006 78107 243448,243552,243474
 5.0000e+001 243578 -2.6985e+005 -5.0717e+006 -1.9506e+006 78107 243474,243526,243500
 5.0000e+001 243776 -7.1289e+005 -4.7959e+006 -8.2914e+005 77653 243649,243701,243675
 5.0000e+001 243753 -1.6044e+006 -8.0069e+006 -3.8077e+005 77653 243649,243727,243701
 5.0000e+001 243977 -4.4309e+005 -6.2264e+006  1.8949e+004 77093 243801,243853,243827
 5.0000e+001 243954 -8.7321e+004 -5.1416e+006  7.1113e+005 77093 243801,243879,243853
 5.0000e+001 243931 -9.4989e+004 -2.7327e+006 -7.9212e+004 77093 243801,243905,243879
 5.0000e+001 244080 -1.1418e+006 -4.5966e+006  7.0557e+005 76791 244002,244054,244028
 5.0000e+001 244232 -3.4703e+005 -4.8233e+006  5.2644e+003 76311 244131,244183,244157
 5.0000e+001 244209 -2.5544e+005 -9.8771e+006  5.7637e+005 76311 244105,244183,244131
 5.0000e+001 244433 -1.8351e+006 -1.9068e+007  4.5109e+006 75903 244283,244335,244309
 5.0000e+001 244410 -1.4548e+006 -1.3274e+007  2.0530e+005 75903 244283,244361,244335
 5.0000e+001 244387 -3.0159e+006 -1.1350e+007  1.5875e+006 75903 244257,244361,244283
 5.0000e+001 244585 -6.0005e+004 -1.8578e+007  1.7316e+006 75419 244458,244510,244484
 5.0000e+001 244562 -8.5125e+005 -1.2078e+007  2.3170e+005 75419 244458,244536,244510
 5.0000e+001 244737 -5.3044e+005 -2.2465e+006 -2.2423e+005 75215 244636,244688,244662
 5.0000e+001 244714 -5.5982e+005 -2.4590e+006 -2.5082e+005 75215 244610,244688,244636
 5.0000e+001 244889 -9.7490e+005 -5.3789e+006 -4.6644e+005 74857 244788,244840,244814
 5.0000e+001 244866 -2.1910e+005 -2.4527e+006 -2.4911e+005 74857 244762,244840,244788
 5.0000e+001 245041  6.3268e+003 -3.8149e+005 -2.3311e+005 74653 244940,244992,244966
 5.0000e+001 245018 -5.3768e+004 -8.8457e+004  1.5598e+005 74653 244914,244992,244940
 5.0000e+001 245144 -8.9755e+005 -7.7074e+006 -1.5648e+006 74359 245066,245118,245092
 5.0000e+001 245296 -9.7001e+004 -1.5314e+006 -4.7862e+005 74007 245169,245221,245195
 5.0000e+001 245273 -5.4822e+005 -2.6400e+006 -8.1820e+005 74007 245169,245247,245221
 5.0000e+001 245448 -1.1273e+006 -8.0515e+006  1.6419e+006 73711 245321,245373,245347
 5.0000e+001 245425 -3.5430e+005 -7.8049e+006 -2.7271e+006 73711 245321,245399,245373
 5.0000e+001 245600  5.0429e+005 -1.4447e+007 -1.1060e+006 73301 245499,245551,245525
 5.0000e+001 245577 -1.7951e+006 -1.0643e+007  1.8810e+006 73301 245473,245551,245499
 5.0000e+001 245752 -2.1294e+006 -3.1462e+006 -1.9188e+006 72995 245625,245677,245651
 5.0000e+001 245729  6.3727e+005 -1.2440e+007 -1.5560e+006 72995 245625,245703,245677
 5.0000e+001 245953 -2.7584e+006 -1.2082e+007  1.4189e+006 72585 245777,245829,245803
 5.0000e+001 245930 -1.2872e+006 -1.7107e+007  4.3756e+006 72585 245777,245855,245829
 5.0000e+001 245907 -3.3438e+005 -9.6490e+006  1.7151e+006 72585 245777,245881,245855
 5.0000e+001 246154 -3.8730e+005 -7.2143e+006  1.2858e+006 72127 246030,246082,246056
 5.0000e+001 246131 -1.2869e+006 -9.8692e+006  6.0041e+005 72127 245978,246082,246030
 5.0000e+001 246108 -4.5006e+004 -9.9045e+006 -6.2113e+004 72127 245978,246030,246004
 5.0000e+001 246257 -5.9462e+005 -1.5525e+006 -5.9463e+005 71737 246179,246231,246205
 5.0000e+001 246360  1.8304e+005 -3.3750e+006  4.4843e+005 71447 246282,246334,246308
 5.0000e+001 246512 -3.9379e+005 -2.8323e+006  1.1276e+006 71157 246385,246437,246411
 5.0000e+001 246489 -9.2747e+004 -2.1246e+006 -1.0690e+005 71157 246385,246463,246437
 5.0000e+001 246664 -1.4327e+005 -2.7883e+006 -4.0357e+005 70753 246537,246589,246563
 5.0000e+001 246641 -6.0011e+005 -1.5040e+006 -2.1891e+005 70753 246537,246615,246589
 5.0000e+001 246865 -2.3728e+006 -1.1986e+007  7.5414e+006 70249 246715,246767,246741
 5.0000e+001 246842 -2.3330e+006 -1.0819e+007 -4.8537e+005 70249 246715,246793,246767
 5.0000e+001 246819 -5.4355e+005 -1.3974e+007 -2.3249e+006 70249 246689,246793,246715
 5.0000e+001 247066  5.8848e+004 -2.3932e+006  2.1564e+005 70023 246916,246994,246942
 5.0000e+001 247043 -6.8137e+004 -2.2127e+006  2.8065e+005 70023 246890,246994,246916
 5.0000e+001 247020  9.6600e+004 -2.4600e+006  4.2704e+005 70023 246942,246994,246968
 5.0000e+001 247267 -4.3220e+005 -4.8949e+006 -6.2333e+005 69633 247091,247143,247117
 5.0000e+001 247244 -1.0221e+005 -3.3870e+006 -4.2955e+005 69633 247091,247169,247143
 5.0000e+001 247221 -6.2338e+004 -3.1909e+006 -4.4216e+005 69633 247091,247195,247169
 5.0000e+001 247419 -1.0220e+006 -6.3115e+006  3.1591e+005 69457 247318,247370,247344
 5.0000e+001 247396 -1.4164e+006 -2.5374e+006  5.9144e+005 69457 247292,247370,247318
 5.0000e+001 247522 -1.9912e+002 -4.3701e+002  3.1850e+002 69209 247444,247496,247470
 5.0000e+001 247625 -1.7131e+006 -1.7295e+006 -1.2234e+006 68919 247547,247599,247573
 5.0000e+001 247777  1.2986e+005 -6.6381e+006 -1.9030e+005 68579 247650,247702,247676
 5.0000e+001 247754 -2.2851e+005 -1.8715e+006 -7.1061e+004 68579 247650,247728,247702
 5.0000e+001 247929  1.1205e+005 -4.4442e+006  1.9998e+006 68289 247802,247854,247828
 5.0000e+001 247906 -2.3562e+005 -1.8438e+006 -3.2610e+005 68289 247802,247880,247854
 5.0000e+001 248081 -3.7868e+005 -4.7323e+006  1.5388e+006 67949 247980,248032,248006
 5.0000e+001 248058 -5.6632e+005 -6.3608e+005  1.4762e+005 67949 247954,248032,247980
 5.0000e+001 248233 -1.0511e+006 -7.5829e+006 -8.0847e+005 67616 248132,248184,248158
 5.0000e+001 248210 -7.3949e+005 -5.9554e+006 -2.9748e+005 67616 248106,248184,248132
 5.0000e+001 248434 -1.2615e+005 -4.1984e+006 -1.8523e+005 67212 248284,248336,248310
 5.0000e+001 248411 -7.7130e+004 -4.2181e+006 -2.9072e+005 67212 248258,248336,248284
 5.0000e+001 248388 -1.5855e+006 -2.1424e+006 -5.9942e+005 67212 248258,248362,248336
 5.0000e+001 248586 -9.1260e+004 -5.5660e+006  4.6114e+005 66872 248485,248537,248511
 5.0000e+001 248563 -5.9178e+005 -1.2685e+006 -1.4046e+005 66872 248459,248537,248485
 5.0000e+001 248738 -5.6547e+005 -7.0549e+006  2.4556e+005 66510 248637,248689,248663
 5.0000e+001 248715 -7.5289e+005 -7.9367e+006  1.3063e+005 66510 248611,248689,248637
 5.0000e+001 248890 -2.3728e+004 -5.9373e+005  1.1775e+005 66220 248789,248841,248815
 5.0000e+001 248867 -6.0173e+004 -7.6186e+005 -2.0225e+005 66220 248763,248841,248789
 5.0000e+001 249091 -1.1224e+006 -1.0481e+007  3.3378e+006 65759 248915,248967,248941
 5.0000e+001 249068 -8.7802e+005 -9.4875e+006  3.3295e+006 65759 248915,248993,248967
 5.0000e+001 249045 -5.7435e+005 -6.5997e+006  1.2343e+006 65759 248915,249019,248993
 5.0000e+001 249243  6.5270e+004 -9.2833e+006  1.5736e+006 65419 249142,249194,249168
 5.0000e+001 249220  2.4627e+005 -3.0826e+006  2.2749e+004 65419 249116,249194,249142
 5.0000e+001 249395 -3.5287e+005 -2.8351e+006 -4.4615e+005 65079 249268,249320,249294
 5.0000e+001 249372 -4.0039e+005 -3.8897e+006 -6.8378e+005 65079 249268,249346,249320
 5.0000e+001 249547 -2.1241e+005 -2.0362e+006  2.8584e+005 64739 249420,249472,249446
 5.0000e+001 249524  4.1084e+005 -1.7107e+006 -1.5789e+005 64739 249420,249498,249472
 5.0000e+001 249650 -1.5751e+006 -5.5014e+006 -2.5969e+006 64342 249572,249624,249598
 5.0000e+001 249851 -6.6091e+005 -4.5305e+006 -4.0504e+005 63938 249701,249779,249753
 5.0000e+001 249828 -1.8870e+005 -4.6759e+006  1.1541e+006 63938 249675,249779,249701
 5.0000e+001 249805 -4.8496e+005 -8.0470e+006 -2.8486e+005 63938 249701,249753,249727
 5.0000e+001 250052 -6.3392e+005 -6.1621e+006 -1.0245e+006 63341 249876,249954,249902
 5.0000e+001 250029 -1.2237e+006 -6.5027e+006 -4.2686e+005 63341 249876,249980,249954
 5.0000e+001 250006  9.3652e+005 -7.8653e+006  4.0635e+005 63341 249902,249954,249928
 5.0000e+001 250253 -8.1070e+004 -4.3016e+006 -6.2396e+005 63058 250077,250129,250103
 5.0000e+001 250230 -6.9914e+005 -2.7334e+006  4.8214e+004 63058 250077,250155,250129
 5.0000e+001 250207 -1.5996e+005 -2.3656e+006 -3.9058e+005 63058 250077,250181,250155
 5.0000e+001 250454 -8.6067e+005 -7.6969e+006  1.0988e+006 62832 250304,250382,250330
 5.0000e+001 250431  1.4913e+005 -9.4843e+006 -2.4254e+006 62832 250278,250382,250304
 5.0000e+001 250408 -1.9810e+006 -5.2627e+006  2.4525e+005 62832 250330,250382,250356
 5.0000e+001 250606  8.9245e+004 -1.8167e+007 -5.2231e+005 62428 250479,250531,250505
 5.0000e+001 250583 -7.0478e+005 -1.5794e+007 -8.4281e+005 62428 250479,250557,250531
 5.0000e+001 250758  2.2443e+005 -8.3516e+006  7.8945e+005 62202 250631,250683,250657
 5.0000e+001 250735 -2.0067e+005 -8.3512e+006  6.7260e+005 62202 250631,250709,250683
 5.0000e+001 250861 -8.1424e+005 -4.0761e+006 -3.3078e+005 61954 250783,250835,250809
 5.0000e+001 251062 -2.3835e+006 -1.4101e+007 -2.3618e+005 61557 250912,250990,250938
 5.0000e+001 251039 -5.6334e+003 -1.6488e+007 -2.2281e+005 61557 250886,250990,250912
 5.0000e+001 251016 -1.0911e+006 -1.7340e+007 -2.8754e+006 61557 250938,250990,250964
 5.0000e+001 251263 -9.4204e+005 -8.5596e+006 -3.1741e+005 61167 251113,251165,251139
 5.0000e+001 251240 -4.7804e+005 -7.8998e+006 -6.4005e+005 61167 251113,251191,251165
 5.0000e+001 251217 -1.2097e+006 -7.6004e+006  1.9756e+006 61167 251087,251191,251113
 5.0000e+001 251415 -7.4898e+005 -6.4509e+006  1.4560e+006 60827 251288,251340,251314
 5.0000e+001 251392 -5.5744e+005 -3.2408e+006 -2.5810e+005 60827 251288,251366,251340
 5.0000e+001 251567  1.8411e+005 -5.3552e+006 -4.1244e+004 60487 251466,251518,251492
 5.0000e+001 251544 -1.0112e+005 -5.5684e+006 -4.6843e+005 60487 251440,251518,251466
 5.0000e+001 251719  1.1046e+004 -1.1406e+007 -1.2351e+005 59983 251592,251644,251618
 5.0000e+001 251696 -6.7098e+005 -9.1792e+006 -7.0155e+004 59983 251592,251670,251644
 5.0000e+001 251920 -1.6684e+005 -2.5205e+006 -7.0666e+004 59807 251770,251848,251796
 5.0000e+001 251897 -8.4023e+004 -1.8242e+006 -1.3482e+005 59807 251744,251848,251770
 5.0000e+001 251874 -1.4087e+005 -2.2124e+006  4.7025e+004 59807 251796,251848,251822
 5.0000e+001 252023  7.7038e+005 -5.6446e+006 -1.2450e+005 59517 251945,251997,251971
 5.0000e+001 252175  1.8107e+006 -1.5656e+007 -3.2701e+005 59269 252074,252126,252100
 5.0000e+001 252152 -2.1377e+005 -9.7204e+006  1.8031e+005 59269 252048,252126,252074
 5.0000e+001 252278 -4.6902e+005 -8.0169e+006  1.2395e+006 58979 252200,252252,252226
 5.0000e+001 252381 -2.6183e+006 -1.6949e+006  1.0137e+006 58689 252303,252355,252329
 5.0000e+001 252533 -6.3124e+005 -4.4505e+006 -8.3449e+005 58249 252432,252484,252458
 5.0000e+001 252510 -1.3277e+006 -7.8967e+006 -1.2019e+006 58249 252406,252484,252432
 5.0000e+001 252734 -4.8067e+005 -4.5905e+006  1.0477e+005 57902 252584,252662,252610
 5.0000e+001 252711  4.5098e+005 -6.5235e+006 -7.6075e+005 57902 252558,252662,252584
 5.0000e+001 252688 -4.9712e+005 -3.5750e+006 -6.1703e+005 57902 252610,252662,252636
 5.0000e+001 252886  3.5819e+005 -6.6822e+006 -5.0757e+005 57540 252785,252837,252811
 5.0000e+001 252863  2.2107e+005 -3.9729e+006  2.5836e+005 57540 252759,252837,252785
 5.0000e+001 253038 -6.8297e+005 -7.2952e+006  1.7661e+006 57086 252937,252989,252963
 5.0000e+001 253015 -5.1295e+004 -1.8049e+006  1.5530e+005 57086 252911,252989,252937
 5.0000e+001 253239 -2.0985e+006 -7.5026e+006 -2.9359e+006 56796 253063,253141,253115
 5.0000e+001 253216  3.1994e+005 -1.0127e+007  5.8471e+005 56796 253063,253167,253141
 5.0000e+001 253193 -2.8673e+006 -5.8275e+006 -2.5365e+006 56796 253063,253115,253089
 5.0000e+001 253342 -6.7896e+005 -1.9946e+007  6.6180e+003 56349 253264,253316,253290
 5.0000e+001 253543 -6.9528e+005 -7.0730e+006 -8.6898e+005 56009 253367,253419,253393
 5.0000e+001 253520 -5.1963e+005 -4.0380e+006 -5.0787e+005 56009 253367,253445,253419
 5.0000e+001 253497 -3.8287e+005 -5.0407e+006 -2.6587e+004 56009 253367,253471,253445
 5.0000e+001 253695 -7.0528e+005 -1.3363e+006  6.7679e+005 55733 253594,253646,253620
 5.0000e+001 253672 -9.3165e+005 -5.2426e+005  6.4666e+005 55733 253568,253646,253594
 5.0000e+001 253798 -5.1117e+005 -2.2802e+006 -3.5849e+005 55557 253720,253772,253746
 5.0000e+001 253950 -6.4521e+005 -4.8329e+006 -2.4758e+004 55153 253849,253901,253875
 5.0000e+001 253927  6.6829e+004 -5.2818e+006 -5.9250e+005 55153 253823,253901,253849
 5.0000e+001 254151 -1.0727e+006 -5.3731e+006  3.8775e+005 54863 253975,254053,254001
 5.0000e+001 254128 -5.3942e+005 -5.1684e+006 -2.1331e+005 54863 253975,254079,254053
 5.0000e+001 254105 -5.8042e+005 -5.1637e+006  2.0989e+005 54863 254001,254053,254027
 5.0000e+001 254303  4.7337e+003 -9.6401e+005  2.9488e+005 54373 254176,254228,254202
 5.0000e+001 254280 -1.3088e+005 -1.2105e+006  4.0350e+005 54373 254176,254254,254228
 5.0000e+001 254455  7.6153e+004 -6.6579e+006 -4.7929e+005 53975 254354,254406,254380
 5.0000e+001 254432 -4.9103e+005 -1.5451e+006  2.7873e+005 53975 254328,254406,254354
 5.0000e+001 254607 -1.0690e+005 -6.3824e+006 -3.5775e+005 53585 254480,254532,254506
 5.0000e+001 254584 -3.7497e+005 -5.9096e+006 -3.3952e+005 53585 254480,254558,254532
 5.0000e+001 254808 -8.0229e+005 -4.2882e+006 -3.2348e+005 53245 254658,254736,254684
 5.0000e+001 254785 -1.1684e+006 -2.2889e+006 -9.8073e+005 53245 254632,254736,254658
 5.0000e+001 254762 -4.5657e+005 -2.9653e+006 -4.6624e+005 53245 254684,254736,254710
 5.0000e+001 254911 -1.6692e+005 -3.3151e+006  1.2614e+004 52955 254833,254885,254859
 5.0000e+001 255063 -4.6845e+005 -8.0690e+006 -3.0809e+005 52551 254962,255014,254988
 5.0000e+001 255040 -5.6251e+005 -8.2439e+006 -4.0077e+005 52551 254936,255014,254962
 5.0000e+001 255264 -4.2710e+005 -6.1244e+005  5.7469e+005 52261 255114,255166,255140
 5.0000e+001 255241 -1.4534e+006 -1.5864e+006  1.1754e+006 52261 255114,255192,255166
 5.0000e+001 255218  3.0403e+005 -2.9568e+006 -1.3098e+005 52261 255088,255192,255114
 5.0000e+001 255416 -5.8745e+005 -6.6463e+006  2.0304e+006 51971 255289,255341,255315
 5.0000e+001 255393 -1.6549e+005 -5.9183e+006 -9.5457e+005 51971 255289,255367,255341
 5.0000e+001 255568 -1.1249e+006 -6.5691e+005 -4.5313e+005 51681 255441,255493,255467
 5.0000e+001 255545 -2.8082e+005 -6.0435e+006  5.1115e+005 51681 255441,255519,255493
 5.0000e+001 255769 -1.9563e+005 -3.7628e+006 -2.2525e+005 51291 255619,255697,255671
 5.0000e+001 255746 -1.5181e+005 -3.4548e+006 -3.7472e+005 51291 255593,255697,255619
 5.0000e+001 255723 -1.6853e+005 -4.8198e+006 -4.7145e+005 51291 255619,255671,255645
 5.0000e+001 255921 -3.9018e+005 -3.1162e+006  5.9536e+005 50951 255820,255872,255846
 5.0000e+001 255898 -1.6030e+005 -2.3727e+006  1.2535e+005 50951 255794,255872,255820
 5.0000e+001 256171 -1.1436e+006 -5.4205e+006 -5.7594e+004 50547 256024,256076,256050
 5.0000e+001 256148 -8.6746e+005 -5.0716e+006  2.5480e+005 50547 255972,256076,256024
 5.0000e+001 256125 -2.7226e+005 -5.7650e+006 -2.5083e+005 50547 255946,256076,255972
 5.0000e+001 256102 -9.8128e+005 -4.5395e+006  1.1429e+005 50547 255972,256024,255998
 5.0000e+001 256323  6.5794e+005 -6.6814e+006  9.5164e+005 50093 256196,256248,256222
 5.0000e+001 256300 -1.0765e+006 -3.6978e+006 -1.4290e+006 50093 256196,256274,256248
 5.0000e+001 256426  2.0127e+002 -4.9758e+002  2.6191e+002 49845 256348,256400,256374
 5.0000e+001 256627 -2.0153e+005 -5.0646e+006  6.6244e+004 49555 256477,256555,256503
 5.0000e+001 256604 -3.7193e+005 -4.2153e+006  2.8342e+004 49555 256451,256555,256477
 5.0000e+001 256581 -3.8826e+005 -4.5265e+006  1.6887e+005 49555 256503,256555,256529
 5.0000e+001 256828 -5.9685e+005 -2.6705e+006 -2.6838e+005 49056 256652,256730,256678
 5.0000e+001 256805 -2.7353e+005 -3.3577e+006 -4.9202e+005 49056 256652,256756,256730
 5.0000e+001 256782 -6.3987e+005 -2.1444e+006 -6.2338e+005 49056 256678,256730,256704
 5.0000e+001 256931 -7.3059e+004 -1.9599e+005  5.5453e+004 48766 256853,256905,256879
 5.0000e+001 257083 -9.5757e+005 -4.3089e+006 -7.1693e+005 48568 256982,257034,257008
 5.0000e+001 257060 -8.6751e+005 -3.9769e+006 -4.3832e+005 48568 256956,257034,256982
 5.0000e+001 257186 -9.4317e+002 -3.6200e+006  5.2690e+002 48228 257108,257160,257134
 5.0000e+001 257338 -4.4708e+005 -1.2840e+006  4.8992e+005 47888 257237,257289,257263
 5.0000e+001 257315 -3.7362e+005 -1.9886e+006  8.7165e+005 47888 257211,257289,257237
 5.0000e+001 257539 -3.0727e+005 -5.2323e+006  2.7419e+005 47548 257363,257441,257415
 5.0000e+001 257516 -1.0282e+006 -4.8389e+006 -5.4918e+005 47548 257363,257467,257441
 5.0000e+001 257493 -7.0255e+005 -3.8427e+006 -5.9766e+004 47548 257363,257415,257389
 5.0000e+001 257740 -2.6466e+005 -4.8618e+006  4.1503e+005 46994 257564,257642,257616
 5.0000e+001 257717 -4.1914e+005 -4.0098e+006  8.4821e+004 46994 257564,257668,257642
 5.0000e+001 257694 -7.3992e+005 -5.0324e+006  3.2282e+004 46994 257564,257616,257590
 5.0000e+001 257843 -8.6106e+005 -2.1124e+006 -4.2248e+005 46654 257765,257817,257791
 5.0000e+001 257995 -5.8539e+005 -4.1657e+006  2.8205e+005 46364 257894,257946,257920
 5.0000e+001 257972 -6.8231e+005 -4.2865e+006  2.0446e+005 46364 257868,257946,257894
 5.0000e+001 258147 -1.8410e+004 -4.4575e+006  4.5019e+003 46024 258046,258098,258072
 5.0000e+001 258124 -3.6152e+005 -3.3877e+006  3.5703e+005 46024 258020,258098,258046
 5.0000e+001 258250 -6.1872e+005 -2.8309e+006  9.3892e+005 45741 258172,258224,258198
 5.0000e+001 258402 -4.5308e+005 -2.4905e+006  1.7095e+005 45401 258301,258353,258327
 5.0000e+001 258379 -3.4273e+005 -2.3890e+006  2.4038e+005 45401 258275,258353,258301
 5.0000e+001 258603 -8.1137e+005 -2.6988e+006 -1.6397e+004 45071 258427,258505,258479
 5.0000e+001 258580 -6.5144e+004 -6.5041e+006  3.4723e+005 45071 258427,258531,258505
 5.0000e+001 258557 -2.0349e+005 -3.7377e+006  2.8387e+005 45071 258427,258479,258453
 5.0000e+001 258755 -2.5725e+005 -4.8924e+006 -5.4528e+005 44681 258654,258706,258680
 5.0000e+001 258732 -1.5900e+005 -4.8295e+006 -4.8254e+005 44681 258628,258706,258654
 5.0000e+001 258907 -7.6945e+005 -8.4991e+005 -8.1666e+004 44157 258806,258858,258832
 5.0000e+001 258884 -2.5164e+005 -1.2243e+006 -6.1832e+004 44157 258780,258858,258806
 5.0000e+001 259010 -7.2425e+005 -3.6399e+005 -4.5711e+003 43705 258932,258984,258958
 5.0000e+001 259113 -5.5245e+005 -2.5967e+006  8.4514e+004 43284 259035,259087,259061
 5.0000e+001 259216 -7.1126e+005 -2.4383e+006 -7.3945e+004 42954 259138,259190,259164
 5.0000e+001 259319 -9.0922e+005 -2.2145e+006  7.2968e+004 42116 259241,259293,259267
 5.0000e+001 259422 -4.8053e+005 -2.8344e+006 -9.1774e+004 41804 259344,259396,259370
 5.0000e+001 259525 -6.1418e+005 -5.7896e+006  7.9337e+005 41219 259447,259499,259473
 5.0000e+001 259628 -9.4642e+005 -3.4475e+006 -4.5092e+005 385 259550,259602,259576
 5.2000e+001 190120 -4.5053e+005 -2.3259e+006 -2.2691e+005 189630 189993,190045,190019
 5.2000e+001 190097 -5.6815e+005 -1.9718e+006 -1.0263e+005 189630 189993,190071,190045
 5.2000e+001 190319  2.6969e+005 -6.3974e+006 -2.0868e+005 189312 190169,190221,190195
 5.2000e+001 190296 -1.2363e+006 -5.0531e+006 -1.6422e+006 189312 190169,190247,190221
 5.2000e+001 190273 -7.6384e+005 -4.3126e+006 -4.8186e+005 189312 190143,190247,190169
 5.2000e+001 190518 -4.7791e+005  4.9055e+004  1.6232e+004 189124 190368,190446,190420
 5.2000e+001 190495 -5.6247e+005  2.1600e+004 -4.2287e+003 189124 190342,190446,190368
 5.2000e+001 190472 -9.8964e+005 -5.2748e+004 -4.8709e+004 189124 190368,190420,190394
 5.2000e+001 190619 -4.5056e+005 -4.6069e+004 -6.1414e+003 188926 190541,190593,190567
 5.2000e+001 190771 -4.7760e+005 -8.1673e+004  2.6692e+004 188614 190670,190722,190696
 5.2000e+001 190748 -5.6663e+005  1.5829e+005  6.1493e+004 188614 190644,190722,190670
 5.2000e+001 190972 -1.8819e+005 -5.7432e+005 -2.8941e+005 188324 190848,190900,190874
 5.2000e+001 190949 -3.3862e+005 -8.7212e+005 -4.7188e+005 188324 190796,190900,190848
 5.2000e+001 190926 -7.5553e+004 -4.8830e+005 -2.8595e+005 188324 190796,190848,190822
 5.2000e+001 191124 -7.1817e+005 -1.2011e+006 -1.9274e+005 188034 191023,191075,191049
 5.2000e+001 191101 -1.3552e+005 -1.3568e+006 -1.3626e+005 188034 190997,191075,191023
 5.2000e+001 191276 -1.1347e+005 -3.2577e+006 -1.2499e+005 187836 191149,191201,191175
 5.2000e+001 191253 -3.6654e+005 -2.3957e+006  3.2811e+005 187836 191149,191227,191201
 5.2000e+001 191379 -4.3909e+005 -9.5068e+005 -1.4332e+005 187546 191301,191353,191327
 5.2000e+001 191531  3.2885e+004 -7.1137e+006 -1.4964e+006 187256 191430,191482,191456
 5.2000e+001 191508 -1.1125e+006 -6.6843e+006 -6.5996e+005 187256 191404,191482,191430
 5.2000e+001 191634 -7.3180e+005  2.3333e+004 -1.8692e+004 187058 191556,191608,191582
 5.2000e+001 191835 -3.8050e+005 -2.7692e+004 -2.8337e+004 186860 191659,191711,191685
 5.2000e+001 191812 -3.9386e+005 -2.0879e+005 -7.9628e+004 186860 191659,191737,191711
 5.2000e+001 191789 -3.8281e+005  2.4787e+002  1.9187e+004 186860 191659,191763,191737
 5.2000e+001 191987  3.6344e+004 -1.6221e+006  2.7157e+003 186662 191886,191938,191912
 5.2000e+001 191964 -3.3971e+005 -1.9672e+006  2.5181e+005 186662 191860,191938,191886
 5.2000e+001 192090 -4.4852e+005 -2.1716e+006 -1.4413e+005 186486 192012,192064,192038
 5.2000e+001 192242 -2.5844e+005 -9.7907e+006 -2.1501e+005 186288 192115,192167,192141
 5.2000e+001 192219 -7.4753e+005 -7.0596e+006  2.7276e+005 186288 192115,192193,192167
 5.2000e+001 192394  1.9595e+005 -8.3285e+006 -2.2988e+005 185935 192293,192345,192319
 5.2000e+001 192371 -5.8364e+005 -6.0893e+006 -7.3001e+005 185935 192267,192345,192293
 5.2000e+001 192546 -3.0570e+005 -3.1154e+006 -4.6823e+005 185675 192419,192471,192445
 5.2000e+001 192523 -7.3303e+005 -2.1548e+006 -5.7439e+005 185675 192419,192497,192471
 5.2000e+001 192649 -3.4529e+005 -2.9365e+006 -4.5790e+005 185499 192571,192623,192597
 5.2000e+001 192801 -9.9216e+005 -9.2672e+005 -3.3537e+005 185301 192674,192726,192700
 5.2000e+001 192778 -4.3780e+005 -1.1997e+006  8.3797e+005 185301 192674,192752,192726
 5.2000e+001 193002 -1.1152e+005 -1.7372e+006 -5.6283e+005 185046 192852,192930,192878
 5.2000e+001 192979 -5.3901e+005 -3.3028e+006 -3.7002e+005 185046 192826,192930,192852
 5.2000e+001 192956  5.4227e+005 -4.3548e+006  2.4337e+005 185046 192878,192930,192904
 5.2000e+001 193203 -1.1313e+006 -6.0288e+006 -1.0745e+006 184798 193079,193131,193105
 5.2000e+001 193180 -1.8869e+004 -6.6566e+006 -1.6858e+006 184798 193027,193131,193079
 5.2000e+001 193157  3.5084e+005 -6.7583e+006  1.1944e+006 184798 193027,193079,193053
 5.2000e+001 193404 -1.6225e+005 -5.1276e+006 -1.2041e+006 184600 193254,193306,193280
 5.2000e+001 193381 -4.8626e+005 -3.0314e+006 -3.5559e+005 184600 193254,193332,193306
 5.2000e+001 193358 -1.3351e+006 -8.0177e+005 -7.6408e+005 184600 193228,193332,193254
 5.2000e+001 193556 -7.5257e+005 -6.2183e+005 -7.0362e+005 184402 193429,193481,193455
 5.2000e+001 193533 -6.8168e+005 -6.5877e+005 -6.7563e+005 184402 193429,193507,193481
 5.2000e+001 193708 -1.1746e+006 -3.8796e+006 -5.9950e+005 184204 193607,193659,193633
 5.2000e+001 193685 -9.3310e+005 -7.2075e+006 -1.3120e+006 184204 193581,193659,193607
 5.2000e+001 193860 -7.5345e+005 -1.8235e+006  1.7897e+005 183908 193759,193811,193785
 5.2000e+001 193837 -1.9247e+005 -1.7360e+006  4.2812e+005 183908 193733,193811,193759
 5.2000e+001 194061 -3.3447e+005 -8.9982e+005  2.5636e+005 183710 193911,193989,193937
 5.2000e+001 194038 -6.5046e+005 -1.3471e+006  5.9565e+005 183710 193885,193989,193911
 5.2000e+001 194015 -6.6710e+005 -1.4418e+006  5.0079e+005 183710 193937,193989,193963
 5.2000e+001 194262 -2.9643e+005 -2.8580e+006 -1.1919e+006 183420 194086,194164,194112
 5.2000e+001 194239 -3.8032e+005 -3.4895e+006 -1.6811e+006 183420 194086,194190,194164
 5.2000e+001 194216  5.4398e+005 -7.5865e+006  1.0928e+006 183420 194112,194164,194138
 5.2000e+001 194414 -4.9171e+005 -6.1816e+006 -3.0743e+005 183222 194287,194339,194313
 5.2000e+001 194391 -8.4095e+004 -1.9539e+006 -3.3950e+005 183222 194287,194365,194339
 5.2000e+001 194517 -9.6698e+005 -1.6758e+006 -2.3175e+005 183024 194439,194491,194465
 5.2000e+001 194718  3.4081e+006 -1.8504e+007  1.7893e+006 182734 194568,194620,194594
 5.2000e+001 194695 -1.4855e+006 -4.0417e+006 -4.3333e+006 182734 194542,194620,194568
 5.2000e+001 194672 -4.4239e+006 -2.5674e+006 -2.1226e+006 182734 194542,194646,194620
 5.2000e+001 194870 -1.1723e+005 -1.1594e+006  5.2334e+005 182444 194769,194821,194795
 5.2000e+001 194847 -6.3363e+004 -7.2459e+005  3.2457e+005 182444 194743,194821,194769
 5.2000e+001 195071 -3.5415e+005 -2.5809e+006  9.2404e+005 182154 194895,194947,194921
 5.2000e+001 195048 -3.5626e+005 -1.4412e+006  2.1745e+005 182154 194895,194999,194947
 5.2000e+001 195025 -3.4054e+005 -6.4119e+005  2.9183e+005 182154 194947,194999,194973
 5.2000e+001 195223 -3.4210e+005 -1.3014e+006 -2.9302e+005 181814 195096,195148,195122
 5.2000e+001 195200 -5.6057e+005 -2.6467e+006 -1.1860e+006 181814 195096,195174,195148
 5.2000e+001 195375 -2.5920e+004 -3.3534e+005  4.4999e+004 181524 195248,195300,195274
 5.2000e+001 195352 -1.5453e+004 -7.6892e+005  1.3919e+005 181524 195248,195326,195300
 5.2000e+001 195527 -2.6448e+005 -2.7396e+006  3.7953e+004 181326 195426,195478,195452
 5.2000e+001 195504 -1.3823e+006 -3.5496e+006  7.7918e+005 181326 195400,195478,195426
 5.2000e+001 195679 -4.2145e+005 -1.2335e+007 -1.5656e+006 180936 195578,195630,195604
 5.2000e+001 195656 -6.8385e+005 -4.9623e+006 -1.0202e+006 180936 195552,195630,195578
 5.2000e+001 195831 -4.6069e+005 -3.7806e+005 -1.7926e+005 180646 195704,195756,195730
 5.2000e+001 195808 -7.3444e+005 -2.4708e+004  1.4838e+004 180646 195704,195782,195756
 5.2000e+001 196032 -3.6771e+005 -1.4378e+006  4.6615e+005 180306 195882,195960,195934
 5.2000e+001 196009 -2.0400e+005 -8.7131e+005  5.5234e+005 180306 195856,195960,195882
 5.2000e+001 195986  3.0395e+004 -1.6864e+006  1.6046e+005 180306 195882,195934,195908
 5.2000e+001 196233 -5.9681e+005 -6.9082e+004 -8.9874e+005 179944 196057,196109,196083
 5.2000e+001 196210 -8.4035e+005 -1.5048e+006  2.5351e+005 179944 196057,196135,196109
 5.2000e+001 196187 -1.3327e+006  2.9591e+006 -8.5307e+005 179944 196057,196161,196135
 5.2000e+001 196385 -7.0829e+005 -8.5140e+005 -5.9022e+005 179604 196258,196310,196284
 5.2000e+001 196362 -9.8764e+005 -1.2627e+006 -1.2183e+006 179604 196258,196336,196310
 5.2000e+001 196586 -8.9957e+005 -8.0862e+005 -7.9489e+005 179114 196410,196488,196436
 5.2000e+001 196563 -5.2358e+004 -3.4174e+006 -9.9432e+005 179114 196410,196514,196488
 5.2000e+001 196540 -7.5121e+003 -7.7326e+005 -7.7354e+004 179114 196436,196488,196462
 5.2000e+001 196738 -7.6510e+005 -1.3731e+006 -7.3605e+005 178674 196611,196663,196637
 5.2000e+001 196715 -5.3686e+003 -3.2737e+006 -2.6209e+005 178674 196611,196689,196663
 5.2000e+001 196939  1.9681e+006 -9.9961e+006 -2.6827e+006 178334 196789,196867,196841
 5.2000e+001 196916 -2.0527e+006 -1.0386e+007  2.3912e+006 178334 196763,196867,196789
 5.2000e+001 196893 -6.6073e+006 -4.9657e+006 -7.1623e+006 178334 196789,196841,196815
 5.2000e+001 197091 -3.3660e+005 -4.4788e+006 -8.7900e+005 177930 196990,197042,197016
 5.2000e+001 197068 -3.7133e+005 -4.4246e+006 -5.4970e+005 177930 196964,197042,196990
 5.2000e+001 197194 -1.6954e+002 -5.3766e+005 -2.5701e+002 177732 197116,197168,197142
 5.2000e+001 197346 -3.7915e+005 -5.2855e+006 -2.1567e+005 177534 197219,197271,197245
 5.2000e+001 197323  1.4292e+005 -7.0269e+006  7.1624e+005 177534 197219,197297,197271
 5.2000e+001 197547 -4.2965e+005 -4.2126e+006 -1.1251e+006 177130 197397,197449,197423
 5.2000e+001 197524 -1.0690e+006 -4.2611e+006 -1.6114e+006 177130 197397,197475,197449
 5.2000e+001 197501 -1.0830e+006 -8.7668e+006 -2.1588e+006 177130 197371,197475,197397
 5.2000e+001 197748 -4.0368e+005 -5.6884e+006  1.2934e+005 176790 197598,197676,197624
 5.2000e+001 197725 -1.5015e+005 -4.6318e+006  3.5481e+005 176790 197572,197676,197598
 5.2000e+001 197702 -2.8274e+005 -4.5674e+006  1.7080e+005 176790 197624,197676,197650
 5.2000e+001 197900 -1.8324e+005 -3.5904e+006 -5.0010e+005 176300 197773,197825,197799
 5.2000e+001 197877  1.9434e+005 -4.6755e+006 -4.9736e+005 176300 197773,197851,197825
 5.2000e+001 198052 -9.0424e+005 -6.9119e+006 -1.2187e+006 176010 197925,197977,197951
 5.2000e+001 198029 -4.7864e+005 -5.7282e+006 -1.5273e+006 176010 197925,198003,197977
 5.2000e+001 198204 -1.1326e+006 -4.2602e+006 -1.8220e+006 175670 198103,198155,198129
 5.2000e+001 198181 -1.6096e+006 -4.4354e+006 -8.6174e+005 175670 198077,198155,198103
 5.2000e+001 198405 -9.2409e+004 -4.8491e+006 -9.0514e+005 175266 198255,198307,198281
 5.2000e+001 198382 -1.6011e+004 -5.5224e+006 -1.4700e+006 175266 198229,198307,198255
 5.2000e+001 198359 -1.1356e+006 -4.4654e+006 -2.2514e+006 175266 198229,198333,198307
 5.2000e+001 198606  2.2644e+003 -4.9184e+004  3.2919e+002 174876 198430,198508,198482
 5.2000e+001 198583 -3.6340e+003 -5.1941e+004  1.3104e+004 174876 198430,198534,198508
 5.2000e+001 198560 -8.9391e+003 -1.2647e+004 -1.0828e+004 174876 198430,198482,198456
 5.2000e+001 198758 -6.2860e+001 -6.4808e+002 -1.0693e+003 174536 198657,198709,198683
 5.2000e+001 198735 -1.0268e+002 -7.6276e+002 -1.0274e+003 174536 198631,198709,198657
 5.2000e+001 199008 -1.1882e+006 -6.3371e+006 -8.2803e+005 174132 198835,198913,198887
 5.2000e+001 198985 -1.0215e+005 -2.6169e+006  3.7317e+004 174132 198809,198913,198835
 5.2000e+001 198962 -7.2413e+005 -3.1314e+006 -2.2958e+006 174132 198783,198913,198809
 5.2000e+001 198939 -6.7973e+005 -6.1266e+006 -6.2056e+005 174132 198835,198887,198861
 5.2000e+001 199160 -1.2654e+006 -2.2538e+006 -1.0890e+006 173842 199059,199111,199085
 5.2000e+001 199137 -7.4455e+005 -1.3742e+006 -6.3136e+005 173842 199033,199111,199059
 5.2000e+001 199361 -9.3990e+005 -4.8900e+006  5.9209e+005 173438 199237,199289,199263
 5.2000e+001 199338 -9.7271e+004 -4.6586e+006  9.6907e+005 173438 199211,199289,199237
 5.2000e+001 199315 -2.2580e+005 -6.7010e+006 -7.4264e+005 173438 199185,199289,199211
 5.2000e+001 199513  4.0688e+005 -7.1336e+006  4.0467e+005 173190 199386,199438,199412
 5.2000e+001 199490 -9.1929e+005 -6.0185e+006 -3.3136e+005 173190 199386,199464,199438
 5.2000e+001 199665 -3.8736e+005 -1.3213e+006  2.0876e+005 172750 199564,199616,199590
 5.2000e+001 199642 -6.9832e+005 -6.9952e+005  1.2684e+004 172750 199538,199616,199564
 5.2000e+001 199817 -1.7011e+005 -4.3317e+006 -1.4652e+006 172524 199690,199742,199716
 5.2000e+001 199794 -1.1772e+006 -2.0190e+006 -1.1643e+006 172524 199690,199768,199742
 5.2000e+001 199969 -8.9606e+003 -6.9531e+006 -2.5706e+005 172348 199842,199894,199868
 5.2000e+001 199946 -7.5528e+005 -7.1522e+006 -1.1543e+005 172348 199842,199920,199894
 5.2000e+001 200121  1.4276e+005 -2.8691e+006 -3.6826e+005 172008 199994,200046,200020
 5.2000e+001 200098 -2.4807e+005 -1.1170e+006 -1.5939e+005 172008 199994,200072,200046
 5.2000e+001 200273 -4.5191e+005 -5.2191e+006 -5.6611e+005 171668 200172,200224,200198
 5.2000e+001 200250 -5.5005e+005 -6.6975e+006 -2.3042e+005 171668 200146,200224,200172
 5.2000e+001 200474  2.2945e+005 -4.8809e+006 -8.0325e+005 171264 200350,200402,200376
 5.2000e+001 200451 -2.4110e+005 -5.3070e+006 -1.0715e+006 171264 200324,200402,200350
 5.2000e+001 200428 -3.6304e+005 -3.5103e+006  1.1286e+006 171264 200298,200402,200324
 5.2000e+001 200626 -1.8265e+005 -5.1682e+006 -4.8762e+005 170832 200525,200577,200551
 5.2000e+001 200603 -1.5269e+005 -3.0347e+006 -3.1481e+005 170832 200499,200577,200525
 5.2000e+001 200827  3.5114e+005 -3.3132e+006  6.7012e+005 170492 200677,200729,200703
 5.2000e+001 200804 -7.5502e+005 -6.7580e+005 -1.2079e+006 170492 200651,200729,200677
 5.2000e+001 200781 -1.3454e+006 -1.1585e+006 -7.4308e+005 170492 200651,200755,200729
 5.2000e+001 201077  1.8275e+005 -2.7523e+006  4.3908e+004 170088 200878,200956,200904
 5.2000e+001 201054 -2.4545e+005 -1.8900e+006 -6.0668e+005 170088 200852,200956,200878
 5.2000e+001 201031  1.7666e+005 -1.4096e+006  1.6944e+006 170088 200904,200956,200930
 5.2000e+001 201008  1.6071e+006 -4.0272e+006  8.8094e+005 170088 200852,200982,200956
 5.2000e+001 201278 -6.2359e+005 -2.4077e+006 -2.0619e+006 169798 201102,201154,201128
 5.2000e+001 201255 -2.3010e+006 -7.6482e+006 -3.2026e+006 169798 201102,201206,201154
 5.2000e+001 201232 -4.3693e+006 -4.2893e+005 -8.3285e+005 169798 201154,201206,201180
 5.2000e+001 201430 -2.2397e+005 -4.7866e+006 -7.1245e+005 169337 201303,201355,201329
 5.2000e+001 201407 -1.6685e+005 -1.7182e+006 -1.8747e+005 169337 201303,201381,201355
 5.2000e+001 201631 -4.5307e+005 -4.0587e+006 -1.1100e+005 168883 201481,201559,201507
 5.2000e+001 201608 -6.9548e+005 -3.0844e+006  4.7514e+005 168883 201455,201559,201481
 5.2000e+001 201585 -3.1022e+005 -2.3358e+006  5.0264e+004 168883 201507,201559,201533
 5.2000e+001 201832  2.2415e+005 -9.5521e+006  3.2987e+004 168479 201682,201734,201708
 5.2000e+001 201809 -2.8287e+006 -6.9587e+006 -2.2544e+006 168479 201656,201734,201682
 5.2000e+001 201786 -2.4442e+006 -5.4213e+006 -6.2520e+005 168479 201656,201760,201734
 5.2000e+001 202033 -2.6470e+005 -3.1990e+006  1.8006e+005 167825 201883,201935,201909
 5.2000e+001 202010 -1.4502e+006 -4.3180e+006 -1.8472e+006 167825 201857,201935,201883
 5.2000e+001 201987  1.5947e+005 -1.0701e+007 -9.5982e+005 167825 201857,201961,201935
 5.2000e+001 202234 -1.7047e+006 -3.9050e+006 -1.8267e+006 167435 202058,202136,202084
 5.2000e+001 202211 -8.9261e+005 -6.7448e+006  1.3930e+006 167435 202058,202162,202136
 5.2000e+001 202188 -1.3780e+006 -2.1735e+006 -5.0324e+005 167435 202084,202136,202110
 5.2000e+001 202386  1.4713e+005 -2.7465e+006 -1.1642e+005 167002 202285,202337,202311
 5.2000e+001 202363 -1.7193e+005 -5.0249e+005  1.3215e+005 167002 202259,202337,202285
 5.2000e+001 202538 -1.7658e+005 -3.4105e+006 -1.1511e+006 166662 202411,202463,202437
 5.2000e+001 202515 -1.4707e+005 -2.2948e+006 -1.1947e+006 166662 202411,202489,202463
 5.2000e+001 202690  9.2601e+004 -2.8996e+006 -7.4864e+005 166322 202589,202641,202615
 5.2000e+001 202667  6.1413e+004 -2.1165e+006 -1.7908e+005 166322 202563,202641,202589
 5.2000e+001 202891 -2.1165e+005 -5.1890e+005 -1.2977e+005 165918 202715,202767,202741
 5.2000e+001 202868 -4.0601e+005 -1.5896e+006 -7.6096e+005 165918 202715,202793,202767
 5.2000e+001 202845 -2.1231e+005 -2.7330e+006 -2.3113e+005 165918 202715,202819,202793
 5.2000e+001 203092  3.2409e+004 -3.2781e+006 -3.6297e+005 165628 202916,202968,202942
 5.2000e+001 203069  3.2862e+004 -4.0708e+006 -2.0502e+005 165628 202916,202994,202968
 5.2000e+001 203046 -4.8205e+005 -3.0816e+006 -1.2175e+006 165628 202916,203020,202994
 5.2000e+001 203293 -5.7028e+006 -4.3354e+006 -2.5191e+006 165266 203143,203195,203169
 5.2000e+001 203270 -2.4045e+006 -7.5549e+006 -5.5068e+005 165266 203143,203221,203195
 5.2000e+001 203247 -1.0402e+006 -9.0456e+006 -2.2218e+006 165266 203117,203221,203143
 5.2000e+001 203445 -5.2634e+005 -1.8268e+006  2.7805e+004 164826 203318,203370,203344
 5.2000e+001 203422 -1.2461e+005 -1.4430e+006 -2.8689e+005 164826 203318,203396,203370
 5.2000e+001 203597 -3.3598e+005 -2.6955e+006 -1.5238e+005 164386 203470,203522,203496
 5.2000e+001 203574 -6.9897e+005 -3.2890e+006 -8.0487e+005 164386 203470,203548,203522
 5.2000e+001 203798 -1.9637e+005 -3.6678e+006  4.7473e+005 163996 203622,203674,203648
 5.2000e+001 203775 -1.4662e+006 -2.2411e+005 -1.3504e+005 163996 203622,203726,203674
 5.2000e+001 203752 -1.9793e+006 -1.4630e+006  1.1019e+006 163996 203674,203726,203700
 5.2000e+001 203901 -3.5741e+003 -2.2385e+006 -9.5138e+005 163770 203823,203875,203849
 5.2000e+001 204053 -5.7221e+005 -2.5544e+006 -3.5955e+005 163474 203952,204004,203978
 5.2000e+001 204030 -7.9950e+005 -2.9092e+006 -9.0519e+005 163474 203926,204004,203952
 5.2000e+001 204205 -9.9709e+005 -2.2363e+006  1.5094e+005 163034 204104,204156,204130
 5.2000e+001 204182 -4.7182e+005 -4.8816e+006 -2.4614e+006 163034 204078,204156,204104
 5.2000e+001 204357 -5.7818e+005 -3.5092e+006  6.5636e+005 162624 204256,204308,204282
 5.2000e+001 204334 -3.1152e+005 -3.2534e+005  1.1509e+005 162624 204230,204308,204256
 5.2000e+001 204509 -4.8608e+002  3.3252e+002 -4.2671e+002 162200 204382,204434,204408
 5.2000e+001 204486  2.3216e+002 -1.5030e+002  6.5878e+002 162200 204382,204460,204434
 5.2000e+001 204710 -5.5706e+004 -6.7803e+005  1.3183e+005 161810 204560,204638,204586
 5.2000e+001 204687  5.4565e+004 -1.5096e+006 -7.0785e+005 161810 204534,204638,204560
 5.2000e+001 204664 -8.5485e+004 -3.0964e+005 -3.5117e+004 161810 204586,204638,204612
 5.2000e+001 204862 -2.1038e+006 -2.4907e+006 -2.3671e+006 161406 204735,204787,204761
 5.2000e+001 204839 -3.2232e+006 -2.1146e+006 -2.4047e+006 161406 204735,204813,204787
 5.2000e+001 205014  9.6459e-002  2.5486e-001  1.5679e-001 161180 204887,204939,204913
 5.2000e+001 204991 -2.0051e-001 -5.2979e-001 -3.2593e-001 161180 204887,204965,204939
 5.2000e+001 205215  5.0002e+004 -7.6690e+005 -5.7883e+005 160726 205039,205091,205065
 5.2000e+001 205192 -6.8813e+005 -3.5990e+006 -9.3130e+005 160726 205039,205143,205091
 5.2000e+001 205169 -1.0043e+006 -1.4038e+006 -1.0997e+006 160726 205091,205143,205117
 5.2000e+001 205416 -3.5951e+004 -1.5237e+004  2.6095e+004 160272 205292,205344,205318
 5.2000e+001 205393 -3.6193e+004  9.1077e+003  2.6294e+004 160272 205240,205344,205292
 5.2000e+001 205370 -2.8615e+004  3.9551e+003 -2.2052e+004 160272 205240,205292,205266
 5.2000e+001 205568 -2.7785e+000 -3.8017e-001 -1.0278e+000 159932 205441,205493,205467
 5.2000e+001 205545  7.5229e-001  1.0293e-001  2.7827e-001 159932 205441,205519,205493
 5.2000e+001 205720 -2.7800e+002  5.7929e+002 -5.8011e+001 159542 205593,205645,205619
 5.2000e+001 205697  6.5712e+002  3.7836e+002 -1.0099e+003 159542 205593,205671,205645
 5.2000e+001 205872 -1.5471e+000 -2.2230e-003 -5.8644e-002 159252 205745,205797,205771
 5.2000e+001 205849  1.2940e+000  1.8593e-003  4.9051e-002 159252 205745,205823,205797
 5.2000e+001 206024 -3.7457e+005 -1.5800e+006 -3.8068e+005 159004 205923,205975,205949
 5.2000e+001 206001 -2.1664e+005 -1.7040e+006 -2.5610e+005 159004 205897,205975,205923
 5.2000e+001 206127 -4.1610e+006 -3.5026e+006  9.8195e+002 158364 206049,206101,206075
 5.2000e+001 206328 -1.2307e+002 -8.2685e+002  5.9429e+002 157960 206178,206256,206204
 5.2000e+001 206305  4.9954e+002 -1.2382e+003 -4.8449e+001 157960 206152,206256,206178
 5.2000e+001 206282 -1.8444e+001 -4.9606e+002  6.9281e+002 157960 206204,206256,206230
 5.2000e+001 206529 -1.5175e+006 -1.0947e+007  1.0296e+006 157648 206405,206457,206431
 5.2000e+001 206506 -4.9548e+006 -6.1488e+006 -1.6919e+005 157648 206379,206457,206405
 5.2000e+001 206483 -3.1017e+006 -4.6694e+006  1.2877e+006 157648 206353,206457,206379
 5.2000e+001 206730  4.0446e+005 -1.9603e+006  7.1730e+004 157208 206554,206606,206580
 5.2000e+001 206707  1.5064e+005 -2.1711e+006  5.4465e+005 157208 206554,206632,206606
 5.2000e+001 206684 -1.6960e+006 -2.1491e+005 -1.1063e+006 157208 206554,206658,206632
 5.2000e+001 206882 -5.2097e-001 -1.1421e+000 -7.7135e-001 157010 206755,206807,206781
 5.2000e+001 206859  2.9999e-001  6.5764e-001  4.4417e-001 157010 206755,206833,206807
 5.2000e+001 207034 -2.5539e+004 -6.9677e+005 -1.6267e+004 156620 206907,206959,206933
 5.2000e+001 207011  2.3223e+004 -1.2559e+006  1.1171e+004 156620 206907,206985,206959
 5.2000e+001 207186 -1.4535e+004 -1.4244e+006  4.8244e+004 156330 207085,207137,207111
 5.2000e+001 207163 -1.7232e+005 -1.5366e+006 -6.9461e+005 156330 207059,207137,207085
 5.2000e+001 207387 -9.3670e+005 -4.1157e+006  1.3033e+006 155890 207211,207289,207237
 5.2000e+001 207364 -8.8253e+005 -4.2609e+006 -1.1292e+006 155890 207211,207315,207289
 5.2000e+001 207341 -1.0993e+006 -3.8632e+006  1.4468e+006 155890 207237,207289,207263
 5.2000e+001 207588  3.4528e+004 -2.7072e+007  8.9138e+006 155436 207438,207490,207464
 5.2000e+001 207565 -8.9017e+005 -2.0435e+007 -8.2919e+005 155436 207412,207490,207438
 5.2000e+001 207542 -2.6379e+006 -1.1288e+007 -1.1132e+006 155436 207412,207516,207490
 5.2000e+001 207789  1.9749e+006 -4.0103e+007 -2.2627e+006 155260 207639,207691,207665
 5.2000e+001 207766 -4.7885e+006 -1.3795e+007  5.9294e+006 155260 207613,207691,207639
 5.2000e+001 207743 -1.1607e+006 -1.0656e+007  2.8654e+003 155260 207613,207717,207691
 5.2000e+001 207990 -6.2407e-003  6.3695e-001 -1.4867e-001 154920 207840,207918,207892
 5.2000e+001 207967 -1.4094e-002 -5.9734e-001  9.1753e-002 154920 207814,207918,207840
 5.2000e+001 207944  4.7398e-002  1.4485e-001  8.2858e-002 154920 207840,207892,207866
 5.2000e+001 208191 -1.8570e+005 -2.4698e+006 -6.8054e+005 154630 208015,208093,208041
 5.2000e+001 208168 -2.1254e+004 -1.3075e+006 -5.4316e+005 154630 208015,208119,208093
 5.2000e+001 208145 -8.7958e+005 -1.1485e+006 -1.0052e+006 154630 208041,208093,208067
 5.2000e+001 208343  7.3552e-002  2.2787e-004  4.0939e-003 154240 208216,208268,208242
 5.2000e+001 208320 -1.4063e-001 -4.3568e-004 -7.8275e-003 154240 208216,208294,208268
 5.2000e+001 208495  3.2552e+006 -2.0835e+007 -6.0116e+006 153950 208394,208446,208420
 5.2000e+001 208472 -1.4198e+006 -8.1385e+006  2.6140e+006 153950 208368,208446,208394
 5.2000e+001 208647 -2.1369e+006 -7.1616e+006  7.1568e+006 153603 208520,208572,208546
 5.2000e+001 208624 -4.9232e+006 -4.4881e+006 -3.5714e+006 153603 208520,208598,208572
 5.2000e+001 208848 -7.2983e+004 -6.2289e+005  2.5581e+005 153149 208698,208776,208724
 5.2000e+001 208825  9.9050e+004 -1.4320e+006 -1.5239e+005 153149 208672,208776,208698
 5.2000e+001 208802 -2.7230e+005 -3.2919e+005  1.7638e+005 153149 208724,208776,208750
 5.2000e+001 209000 -8.3581e+005 -7.5506e+006 -2.0246e+005 152859 208873,208925,208899
 5.2000e+001 208977 -6.7505e+004 -1.1801e+007  4.7965e+005 152859 208873,208951,208925
 5.2000e+001 209152  5.6617e+005 -1.0468e+007 -1.4407e+005 152569 209051,209103,209077
 5.2000e+001 209129 -2.9417e+004 -1.0411e+007 -1.6919e+005 152569 209025,209103,209051
 5.2000e+001 209304 -3.1909e-001 -4.4371e-001 -3.7627e-001 152065 209177,209229,209203
 5.2000e+001 209281  7.2938e-001  1.0142e+000  8.6009e-001 152065 209177,209255,209229
 5.2000e+001 209456 -8.2744e+005 -8.2926e+006 -6.4712e+004 151775 209355,209407,209381
 5.2000e+001 209433  2.5264e+005 -1.2465e+007  2.2846e+005 151775 209329,209407,209355
 5.2000e+001 209608 -8.6035e+005 -1.1662e+007 -9.5628e+005 151371 209481,209533,209507
 5.2000e+001 209585  8.8136e+005 -1.6530e+007  4.5007e+005 151371 209481,209559,209533
 5.2000e+001 209760 -1.3111e+005 -1.5341e+006 -1.7652e+005 150981 209659,209711,209685
 5.2000e+001 209737 -4.9345e+005 -1.7733e+006 -1.1391e+006 150981 209633,209711,209659
 5.2000e+001 209912  2.8318e+006 -4.0282e+007 -3.4320e+006 150619 209811,209863,209837
 5.2000e+001 209889 -3.5906e+006 -1.7621e+007  4.3520e+006 150619 209785,209863,209811
 5.2000e+001 210064 -2.9977e+005 -3.7995e+005 -2.5340e+005 150279 209937,209989,209963
 5.2000e+001 210041 -1.7803e+004 -3.4520e+006 -1.1674e+006 150279 209937,210015,209989
 5.2000e+001 210265 -2.0208e+006 -1.3115e+007  6.0059e+005 149989 210115,210167,210141
 5.2000e+001 210242 -2.0473e+005 -1.4334e+007 -9.2800e+005 149989 210115,210193,210167
 5.2000e+001 210219  2.3858e+005 -1.5250e+007 -6.4903e+005 149989 210089,210193,210115
 5.2000e+001 210417 -2.4201e+006 -1.7169e+006  1.3710e+005 149599 210316,210368,210342
 5.2000e+001 210394 -1.6295e+006 -3.4399e+006  8.4880e+004 149599 210290,210368,210316
 5.2000e+001 210618 -2.9150e+006 -1.5833e+007  5.0691e+006 149095 210468,210520,210494
 5.2000e+001 210595 -3.5281e+006 -1.5766e+007  2.4826e+006 149095 210442,210520,210468
 5.2000e+001 210572 -1.9680e+006 -2.4518e+007  3.4329e+006 149095 210442,210546,210520
 5.2000e+001 210819 -4.7588e-001  4.1118e-001 -1.4455e-001 148748 210695,210747,210721
 5.2000e+001 210796  5.9758e-001  1.3665e+000 -6.2783e-001 148748 210669,210747,210695
 5.2000e+001 210773 -8.6524e-001 -3.6267e+000  1.9679e+000 148748 210643,210747,210669
 5.2000e+001 210971 -1.9241e+002 -5.9236e+002  8.4981e+001 148408 210870,210922,210896
 5.2000e+001 210948 -6.9951e+001 -4.3025e+002  1.9700e+002 148408 210844,210922,210870
 5.2000e+001 211123 -6.3903e+005 -7.8461e+006  1.0873e+006 148118 210996,211048,211022
 5.2000e+001 211100 -1.5318e+006 -9.1095e+006  4.4525e+006 148118 210996,211074,211048
 5.2000e+001 211275 -1.8242e+006 -6.2129e+006  1.2245e+006 147778 211148,211200,211174
 5.2000e+001 211252 -1.7881e+006 -1.4480e+007  7.0087e+006 147778 211148,211226,211200
 5.2000e+001 211427 -3.5528e+005 -6.5315e+006  2.4935e+006 147324 211326,211378,211352
 5.2000e+001 211404 -8.0093e+005 -6.4863e+006  2.4026e+006 147324 211300,211378,211326
 5.2000e+001 211628  7.6840e+002 -3.4840e+001 -1.2482e+002 147012 211452,211504,211478
 5.2000e+001 211605  4.8544e+002  6.6621e+002  3.7408e+002 147012 211452,211556,211504
 5.2000e+001 211582  7.7791e+001 -5.4446e+002  9.5633e+001 147012 211504,211556,211530
 5.2000e+001 211829 -3.0426e+006 -4.8055e+006  1.9299e+006 146636 211679,211757,211731
 5.2000e+001 211806  2.4558e+006 -1.1951e+007  5.8864e+005 146636 211653,211757,211679
 5.2000e+001 211783  1.3795e+006 -5.7915e+006  4.1109e+006 146636 211679,211731,211705
 5.2000e+001 211981 -2.0211e+002  1.5458e+002  4.0574e+002 146246 211880,211932,211906
 5.2000e+001 211958 -1.5213e+002  6.7681e+001  4.4476e+002 146246 211854,211932,211880
 5.2000e+001 212133 -3.7360e+001  4.2049e+001  3.1838e+002 145956 212006,212058,212032
 5.2000e+001 212110 -4.9391e+002  3.4623e+002  1.7595e+002 145956 212006,212084,212058
 5.2000e+001 212285  2.1719e+002  2.0561e+002  2.3776e+002 145544 212184,212236,212210
 5.2000e+001 212262 -1.0526e+002  1.3973e+002 -5.6522e+001 145544 212158,212236,212184
 5.2000e+001 212486 -3.0900e+005 -1.7204e+007  3.9340e+006 144990 212362,212414,212388
 5.2000e+001 212463  1.5141e+005 -1.3698e+007  5.8570e+006 144990 212310,212414,212362
 5.2000e+001 212440 -4.2199e+006 -2.9143e+006  2.7524e+006 144990 212310,212362,212336
 5.2000e+001 212638 -1.0635e+003 -2.1420e+004 -4.4573e+003 144600 212537,212589,212563
 5.2000e+001 212615 -7.1712e+002 -1.9819e+004 -4.1215e+003 144600 212511,212589,212537
 5.2000e+001 212839 -2.9213e+005 -1.7774e+006  3.0658e+005 144210 212689,212741,212715
 5.2000e+001 212816 -2.4967e+005 -1.9686e+006  5.2821e+005 144210 212663,212741,212689
 5.2000e+001 212793 -3.0367e+005 -2.2323e+006  5.6713e+005 144210 212663,212767,212741
 5.2000e+001 212991  8.5304e+001 -1.8847e+002 -5.5663e+001 143920 212890,212942,212916
 5.2000e+001 212968 -3.1161e+002 -4.1617e+001 -2.5012e+002 143920 212864,212942,212890
 5.2000e+001 213143 -1.8402e+003 -5.7318e+002 -3.4488e+002 143480 213016,213068,213042
 5.2000e+001 213120 -2.4223e+002 -7.0287e+002 -7.6136e+001 143480 213016,213094,213068
 5.2000e+001 213295 -1.9625e+006 -8.3589e+006  4.7443e+006 142990 213194,213246,213220
 5.2000e+001 213272 -2.0908e+006 -3.8854e+006  2.4327e+006 142990 213168,213246,213194
 5.2000e+001 213447  3.2377e+005 -3.1903e+006  3.2683e+005 142600 213320,213372,213346
 5.2000e+001 213424 -1.6641e+005 -2.3521e+006 -4.1659e+005 142600 213320,213398,213372
 5.2000e+001 213599  2.0788e+004 -1.4964e+005 -4.4813e+004 142260 213472,213524,213498
 5.2000e+001 213576  3.5648e+003 -1.6464e+005  1.5075e+003 142260 213472,213550,213524
 5.2000e+001 213751 -2.2744e+005 -6.0902e+005 -3.0658e+005 141870 213624,213676,213650
 5.2000e+001 213728 -6.5984e+005 -5.4635e+005 -5.3800e+005 141870 213624,213702,213676
 5.2000e+001 213903 -7.7923e+005 -1.3483e+006 -1.0526e+006 141530 213776,213828,213802
 5.2000e+001 213880 -3.2915e+005 -1.5361e+006 -6.6422e+005 141530 213776,213854,213828
 5.2000e+001 214055 -1.8831e+001 -5.1879e+002  5.9533e+001 141218 213928,213980,213954
 5.2000e+001 214032  6.8711e+002 -1.5645e+003  1.6418e+002 141218 213928,214006,213980
 5.2000e+001 214207 -1.1158e+003 -3.5879e+002 -2.1756e+002 140928 214080,214132,214106
 5.2000e+001 214184 -6.5172e+002 -3.2407e+002  1.0252e+003 140928 214080,214158,214132
 5.2000e+001 214359 -1.6983e+005 -7.7323e+004 -1.4447e+005 140538 214232,214284,214258
 5.2000e+001 214336  5.2432e+004 -3.6027e+005  9.1741e+004 140538 214232,214310,214284
 5.2000e+001 214560 -2.2607e+005 -4.1192e+006  6.8344e+005 140248 214384,214462,214410
 5.2000e+001 214537  1.0814e+005 -1.9253e+006  3.4930e+005 140248 214384,214488,214462
 5.2000e+001 214514 -3.3843e+005 -2.3934e+006 -2.1470e+005 140248 214410,214462,214436
 5.2000e+001 214712 -1.2578e+006 -8.8063e+006  2.3075e+006 140000 214611,214663,214637
 5.2000e+001 214689 -1.2280e+006 -5.7136e+006  2.0241e+006 140000 214585,214663,214611
 5.2000e+001 214913 -3.1080e+005 -1.1524e+006 -7.0761e+005 139596 214737,214815,214763
 5.2000e+001 214890 -2.9489e+005 -2.4256e+005 -1.0873e+005 139596 214737,214841,214815
 5.2000e+001 214867  3.2213e+005 -3.0101e+006 -2.7900e+005 139596 214763,214815,214789
 5.2000e+001 215016 -4.4517e+002 -1.9658e+002  7.0713e+001 139420 214938,214990,214964
 5.2000e+001 215168 -3.8008e+006 -1.1221e+007  6.5902e+006 139130 215067,215119,215093
 5.2000e+001 215145 -1.3853e+006 -1.2451e+007  2.3732e+006 139130 215041,215119,215067
 5.2000e+001 215320 -1.7940e+006 -6.7315e+006  3.7681e+006 138790 215219,215271,215245
 5.2000e+001 215297 -1.5482e+006 -1.1210e+007  4.9166e+006 138790 215193,215271,215219
 5.2000e+001 215472  3.9543e+001  3.4322e+002  4.0043e+001 138514 215345,215397,215371
 5.2000e+001 215449  2.5674e+002  3.6992e+002  2.2135e+001 138514 215345,215423,215397
 5.2000e+001 215624 -8.8617e+004 -9.9752e+006  1.5978e+006 138174 215497,215549,215523
 5.2000e+001 215601  1.1325e+005 -7.7133e+006  1.1379e+006 138174 215497,215575,215549
 5.2000e+001 215776 -3.5612e+005 -1.3449e+006  1.1045e+006 137734 215649,215701,215675
 5.2000e+001 215753 -2.9744e+005 -6.6472e+005 -5.6689e+005 137734 215649,215727,215701
 5.2000e+001 215977  1.2181e+006 -1.9010e+007  4.3920e+006 137344 215801,215879,215827
 5.2000e+001 215954 -1.7428e+006 -8.0990e+006 -3.6917e+006 137344 215801,215905,215879
 5.2000e+001 215931 -2.1396e+006 -2.2192e+007  1.9389e+006 137344 215827,215879,215853
 5.2000e+001 216129 -8.0588e+004 -4.4174e+006  1.2709e+005 136940 216028,216080,216054
 5.2000e+001 216106 -5.6560e+005 -6.1888e+006 -8.6878e+004 136940 216002,216080,216028
 5.2000e+001 216330 -1.2891e+006 -9.2182e+006  1.4761e+006 136600 216180,216232,216206
 5.2000e+001 216307 -3.9721e+005 -9.1228e+006  2.3193e+006 136600 216154,216232,216180
 5.2000e+001 216284 -1.8306e+006 -6.3468e+006  9.4380e+005 136600 216154,216258,216232
 5.2000e+001 216482 -8.9438e+004 -6.7912e+006  1.3161e+006 136260 216381,216433,216407
 5.2000e+001 216459 -6.3201e+005 -6.5971e+006  1.0920e+006 136260 216355,216433,216381
 5.2000e+001 216634 -1.5070e+006 -8.6154e+006  3.1935e+006 135970 216533,216585,216559
 5.2000e+001 216611 -8.0769e+005 -1.2004e+007  3.8492e+006 135970 216507,216585,216533
 5.2000e+001 216835 -5.3895e+005 -2.0730e+006 -7.9021e+005 135608 216685,216763,216711
 5.2000e+001 216812 -1.1154e+005 -1.3692e+006  1.1222e+005 135608 216659,216763,216685
 5.2000e+001 216789 -3.8568e+005 -6.2826e+006  1.2704e+005 135608 216711,216763,216737
 5.2000e+001 217036 -7.2282e+005 -1.0535e+006  7.3468e+005 135312 216912,216964,216938
 5.2000e+001 217013 -6.8791e+005 -3.0756e+006  1.7457e+006 135312 216886,216964,216912
 5.2000e+001 216990  8.1805e+005 -6.8794e+006  9.9593e+005 135312 216860,216964,216886
 5.2000e+001 217237 -2.5648e+004 -3.5341e+005  1.0936e+005 134908 217061,217139,217113
 5.2000e+001 217214 -4.8114e+004 -3.6795e+005  1.4670e+005 134908 217061,217165,217139
 5.2000e+001 217191  2.3535e+004 -4.4739e+005  1.3849e+005 134908 217061,217113,217087
 5.2000e+001 217438 -3.0201e+006 -2.0843e+007  1.5199e+006 134568 217288,217366,217314
 5.2000e+001 217415  2.5095e+006 -3.6125e+007  1.2896e+006 134568 217262,217366,217288
 5.2000e+001 217392 -6.8026e+005 -1.9143e+007 -6.6534e+005 134568 217314,217366,217340
 5.2000e+001 217590 -5.8904e+002 -5.3234e+002  4.6578e+002 134106 217463,217515,217489
 5.2000e+001 217567 -6.3383e+002 -1.8669e+002 -7.8673e+001 134106 217463,217541,217515
 5.2000e+001 217791 -1.8501e+006 -2.8867e+007 -7.9109e+006 133816 217641,217693,217667
 5.2000e+001 217768  3.0159e+006 -3.3060e+007  3.3543e+006 133816 217641,217719,217693
 5.2000e+001 217745 -6.7903e+006 -5.0313e+006  4.8635e+006 133816 217615,217719,217641
 5.2000e+001 217992 -4.0625e+006 -5.3542e+006  4.6334e+006 133355 217842,217920,217894
 5.2000e+001 217969  5.7376e+005 -1.4183e+007  9.4019e+005 133355 217816,217920,217842
 5.2000e+001 217946 -1.0686e+006 -3.0441e+006  9.3370e+005 133355 217842,217894,217868
 5.2000e+001 218193 -9.0689e+005 -8.8348e+006 -1.0463e+006 132851 218017,218095,218069
 5.2000e+001 218170 -4.0513e+006 -1.0000e+007  7.2079e+006 132851 218017,218121,218095
 5.2000e+001 218147 -2.6822e+006 -4.7468e+006 -1.8019e+006 132851 218017,218069,218043
 5.2000e+001 218345 -1.4247e+005 -1.1091e+006  3.1381e+005 132511 218244,218296,218270
 5.2000e+001 218322 -9.6892e+004 -1.7634e+006  4.4757e+005 132511 218218,218296,218244
 5.2000e+001 218497  1.8566e+006 -3.0554e+007 -2.7028e+005 132235 218396,218448,218422
 5.2000e+001 218474 -6.8903e+005 -9.7329e+006  5.8052e+005 132235 218370,218448,218396
 5.2000e+001 218698 -1.7821e+005 -9.3602e+006 -7.2673e+005 131945 218574,218626,218600
 5.2000e+001 218675 -1.9968e+006 -1.7114e+007 -6.3350e+005 131945 218522,218626,218574
 5.2000e+001 218652 -6.7611e+005 -1.5004e+007 -1.6665e+006 131945 218522,218574,218548
 5.2000e+001 218850 -3.1258e+005 -1.9153e+007  4.6582e+005 131655 218723,218775,218749
 5.2000e+001 218827  6.5016e+005 -1.2539e+007  1.1684e+005 131655 218723,218801,218775
 5.2000e+001 218953 -2.1122e+005 -4.1262e+006  2.7682e+005 131215 218875,218927,218901
 5.2000e+001 219105 -1.5142e+005 -4.5070e+006 -1.7103e+006 130875 218978,219030,219004
 5.2000e+001 219082 -5.7608e+005 -9.1240e+005 -5.1490e+005 130875 218978,219056,219030
 5.2000e+001 219306 -1.7112e+005 -3.3471e+006 -3.4094e+005 130429 219156,219234,219208
 5.2000e+001 219283 -5.7507e+005 -1.0444e+006  9.5416e+004 130429 219130,219234,219156
 5.2000e+001 219260 -2.4182e+006 -3.9586e+006  3.1859e+005 130429 219156,219208,219182
 5.2000e+001 219507 -1.3103e+005 -4.2279e+005  1.0405e+005 130025 219383,219435,219409
 5.2000e+001 219484 -9.5579e+004 -7.9833e+005  2.6685e+005 130025 219331,219435,219383
 5.2000e+001 219461 -1.3271e+005 -2.3721e+005  2.1816e+004 130025 219331,219383,219357
 5.2000e+001 219659 -1.8629e+006 -6.5637e+006  1.0366e+006 129685 219558,219610,219584
 5.2000e+001 219636  2.9442e+005 -1.1372e+007 -5.1755e+006 129685 219532,219610,219558
 5.2000e+001 219860 -3.4381e+004 -2.2240e+006  6.5696e+005 129395 219710,219788,219762
 5.2000e+001 219837 -6.4024e+005 -1.2410e+006  3.7049e+005 129395 219684,219788,219710
 5.2000e+001 219814  3.4224e+005 -3.4087e+006 -2.2010e+005 129395 219710,219762,219736
 5.2000e+001 220061  1.4024e+005 -2.1356e+006  2.3822e+005 128991 219937,219989,219963
 5.2000e+001 220038  1.4262e+004 -2.0747e+006  2.0051e+005 128991 219885,219989,219937
 5.2000e+001 220015 -2.5583e+005 -3.1953e+006  1.9714e+005 128991 219885,219937,219911
 5.2000e+001 220262 -3.8664e+005 -1.1928e+006  1.4289e+005 128701 220086,220164,220112
 5.2000e+001 220239 -1.6721e+005 -1.9253e+006  4.2040e+005 128701 220086,220190,220164
 5.2000e+001 220216 -1.4030e+005 -1.4237e+006 -3.3676e+005 128701 220112,220164,220138
 5.2000e+001 220463 -3.5306e+006 -8.1891e+006  3.3933e+006 128297 220339,220391,220365
 5.2000e+001 220440  2.0157e+006 -1.9431e+007  6.8460e+005 128297 220313,220391,220339
 5.2000e+001 220417 -2.5829e+005 -2.2853e+007 -4.4936e+006 128297 220287,220391,220313
 5.2000e+001 220615 -1.3298e+006 -3.4858e+006 -1.1199e+006 128007 220488,220540,220514
 5.2000e+001 220592  1.1548e+006 -1.2302e+007  2.2124e+005 128007 220488,220566,220540
 5.2000e+001 220767  3.9225e+004 -4.6084e+006  1.5130e+004 127567 220640,220692,220666
 5.2000e+001 220744 -4.2547e+005 -1.8526e+006 -4.2052e+004 127567 220640,220718,220692
 5.2000e+001 220919 -1.0468e+006 -1.6344e+007 -1.9721e+006 127163 220792,220844,220818
 5.2000e+001 220896  7.1528e+005 -1.9696e+007  2.8820e+006 127163 220792,220870,220844
 5.2000e+001 221071 -1.5616e+006 -4.4320e+006  2.0953e+006 126915 220970,221022,220996
 5.2000e+001 221048 -1.4940e+006 -4.8159e+006  1.9790e+006 126915 220944,221022,220970
 5.2000e+001 221272 -2.0196e+006 -4.0595e+006  3.0826e+006 126461 221122,221174,221148
 5.2000e+001 221249 -4.4625e+006 -5.4997e+006  3.9312e+005 126461 221122,221200,221174
 5.2000e+001 221226  1.2943e+006 -1.3623e+007 -3.0938e+006 126461 221096,221200,221122
 5.2000e+001 221375 -5.0854e+000 -8.0454e+004 -6.3088e+000 126213 221297,221349,221323
 5.2000e+001 221478 -2.6597e+002 -1.6427e+004  1.5906e+001 125766 221400,221452,221426
 5.2000e+001 221679 -6.5309e+004 -1.2223e+006  1.3924e+005 125212 221503,221555,221529
 5.2000e+001 221656 -8.5538e+004 -1.5641e+006  2.4956e+004 125212 221503,221581,221555
 5.2000e+001 221633  6.9632e+005 -4.4101e+006  1.3389e+006 125212 221503,221607,221581
 5.2000e+001 221929 -8.2055e+003 -1.3955e+003 -3.0748e+003 124872 221782,221834,221808
 5.2000e+001 221906 -2.1578e+004 -1.8636e+003  1.1338e+004 124872 221756,221834,221782
 5.2000e+001 221883 -5.6388e+004 -4.6086e+003 -3.5720e+004 124872 221704,221834,221756
 5.2000e+001 221860 -8.7216e+004 -1.5405e+004  9.4177e+003 124872 221704,221756,221730
 5.2000e+001 222130 -4.1331e+005 -8.3889e+006 -4.6425e+004 124582 221980,222058,222006
 5.2000e+001 222107 -2.2418e+006 -8.3516e+006  8.2622e+004 124582 221954,222058,221980
 5.2000e+001 222084 -1.6603e+006 -8.0969e+006 -4.8082e+005 124582 222006,222058,222032
 5.2000e+001 222282 -1.9865e+006 -8.2611e+006 -2.1607e+006 124192 222181,222233,222207
 5.2000e+001 222259 -8.5981e+005 -7.5615e+006 -1.5649e+006 124192 222155,222233,222181
 5.2000e+001 222483 -8.9009e+002 -5.6202e+006 -3.3321e+006 123702 222333,222385,222359
 5.2000e+001 222460 -1.9204e+005 -2.6231e+006  1.4582e+005 123702 222333,222411,222385
 5.2000e+001 222437 -1.2768e+005 -1.0011e+006 -2.1022e+005 123702 222307,222411,222333
 5.2000e+001 222635 -8.0621e+005 -1.3579e+006 -7.0144e+005 123312 222508,222560,222534
 5.2000e+001 222612  4.4534e+005 -6.5946e+006 -4.2167e+005 123312 222508,222586,222560
 5.2000e+001 222787 -3.0187e+002 -8.4741e+005 -4.5232e+004 122858 222686,222738,222712
 5.2000e+001 222764 -9.1813e+004 -1.0363e+006 -2.1651e+005 122858 222660,222738,222686
 5.2000e+001 222939 -2.5520e+005 -1.0928e+006 -3.0163e+004 122568 222812,222864,222838
 5.2000e+001 222916 -3.3089e+005 -9.0191e+005  3.7847e+005 122568 222812,222890,222864
 5.2000e+001 223091 -5.2355e+005 -3.7482e+006 -1.0658e+006 122392 222964,223016,222990
 5.2000e+001 223068 -1.8238e+004 -4.1706e+006 -5.2959e+005 122392 222964,223042,223016
 5.2000e+001 223292 -5.2972e+005 -4.0231e+006 -2.0381e+005 121852 223142,223220,223194
 5.2000e+001 223269 -2.2457e+006 -3.9613e+006 -3.2876e+005 121852 223116,223220,223142
 5.2000e+001 223246 -2.4437e+006 -3.9194e+006 -2.0121e+006 121852 223142,223194,223168
 5.2000e+001 223493 -4.6919e+005 -3.8031e+006  3.8616e+004 121406 223343,223395,223369
 5.2000e+001 223470 -2.5029e+006 -3.0071e+006 -9.1768e+005 121406 223343,223421,223395
 5.2000e+001 223447 -6.1860e+005 -1.6840e+006  5.3334e+005 121406 223317,223421,223343
 5.2000e+001 223645  3.3736e+005 -9.2892e+006  9.8495e+005 121002 223544,223596,223570
 5.2000e+001 223622 -9.2490e+005 -5.6286e+006  1.1439e+006 121002 223518,223596,223544
 5.2000e+001 223846 -2.4099e+005 -4.5034e+006 -1.1025e+005 120662 223670,223748,223696
 5.2000e+001 223823  1.6510e+005 -2.4217e+006  4.2549e+004 120662 223670,223774,223748
 5.2000e+001 223800 -8.0636e+005 -1.9583e+006 -1.0511e+006 120662 223696,223748,223722
 5.2000e+001 224047 -3.2200e+005 -2.5804e+006  2.1243e+005 120222 223897,223949,223923
 5.2000e+001 224024  4.0578e+005 -3.0676e+006 -2.8125e+005 120222 223871,223949,223897
 5.2000e+001 224001 -4.3512e+005 -1.9519e+006 -6.0116e+005 120222 223871,223975,223949
 5.2000e+001 224248 -4.3066e+004 -1.7756e+006 -1.0825e+006 119875 224124,224176,224150
 5.2000e+001 224225 -1.2501e+006 -4.0941e+006 -2.0007e+006 119875 224098,224176,224124
 5.2000e+001 224202 -2.3911e+005 -7.9374e+005  1.1821e+004 119875 224072,224176,224098
 5.2000e+001 224449 -6.6526e+004 -2.7515e+006 -1.2902e+005 119677 224325,224377,224351
 5.2000e+001 224426 -1.4411e+005 -3.0621e+006 -1.1727e+005 119677 224299,224377,224325
 5.2000e+001 224403  1.6867e+004 -7.3275e+005 -3.8731e+004 119677 224273,224377,224299
 5.2000e+001 224552 -2.8718e+005 -5.0054e+005 -2.0367e+005 119273 224474,224526,224500
 5.2000e+001 224704 -3.4316e+005 -3.5048e+006 -7.2529e+004 118983 224603,224655,224629
 5.2000e+001 224681 -2.9174e+005 -4.9401e+006 -8.7417e+005 118983 224577,224655,224603
 5.2000e+001 224856 -3.9641e+005 -2.8549e+006 -3.2803e+005 118529 224755,224807,224781
 5.2000e+001 224833  1.0042e+005 -5.6704e+006 -8.7947e+005 118529 224729,224807,224755
 5.2000e+001 225008 -4.4159e+005 -5.5939e+006  4.2318e+004 118353 224881,224933,224907
 5.2000e+001 224985 -1.7205e+005  1.0356e+005 -2.8251e+004 118353 224881,224959,224933
 5.2000e+001 225209 -6.1050e+005 -5.7827e+006 -1.3542e+006 117949 225059,225137,225111
 5.2000e+001 225186 -2.3920e+005 -5.1474e+006 -3.3020e+005 117949 225033,225137,225059
 5.2000e+001 225163 -2.8054e+005 -7.4951e+006 -5.2671e+005 117949 225059,225111,225085
 5.2000e+001 225410 -8.1340e+004 -6.1220e+006  8.3048e+005 117559 225260,225338,225312
 5.2000e+001 225387 -9.3740e+005 -6.5210e+006  2.2752e+005 117559 225234,225338,225260
 5.2000e+001 225364 -4.9200e+005 -4.1764e+006 -1.4336e+006 117559 225260,225312,225286
 5.2000e+001 225611 -1.7048e+006 -7.7364e+006 -2.7752e+006 117361 225461,225513,225487
 5.2000e+001 225588 -1.1098e+006 -8.2579e+006  1.1366e+006 117361 225461,225539,225513
 5.2000e+001 225565 -9.6717e+005 -7.3646e+006  1.7337e+006 117361 225435,225539,225461
 5.2000e+001 225812  5.4144e+005 -7.4011e+006 -9.2758e+005 116900 225636,225714,225662
 5.2000e+001 225789 -8.5519e+005 -4.0922e+006 -1.2477e+006 116900 225636,225740,225714
 5.2000e+001 225766 -7.2117e+003 -7.5912e+006 -2.3371e+005 116900 225662,225714,225688
 5.2000e+001 225964  7.6146e+004 -3.5962e+006 -1.9677e+005 116560 225837,225889,225863
 5.2000e+001 225941  2.0013e+005 -3.3529e+006 -3.0317e+005 116560 225837,225915,225889
 5.2000e+001 226165 -1.5143e+005 -3.2546e+006 -8.4937e+005 116106 226015,226093,226041
 5.2000e+001 226142 -1.2952e+006 -3.1670e+006 -2.4938e+006 116106 225989,226093,226015
 5.2000e+001 226119 -2.6260e+006 -1.4297e+006  8.2438e+005 116106 226041,226093,226067
 5.2000e+001 226268 -1.2613e+006 -4.8946e+006  7.8879e+005 115716 226190,226242,226216
 5.2000e+001 226420 -6.4522e+005 -7.5948e+006  1.7843e+006 115376 226293,226345,226319
 5.2000e+001 226397 -1.0327e+006 -7.8486e+006  2.0935e+006 115376 226293,226371,226345
 5.2000e+001 226621 -2.3661e+005 -1.0404e+006  7.7039e+004 114972 226497,226549,226523
 5.2000e+001 226598 -5.0732e+005 -6.2865e+006 -6.7259e+005 114972 226445,226549,226497
 5.2000e+001 226575 -1.8856e+005 -2.6227e+006  5.5424e+005 114972 226445,226497,226471
 5.2000e+001 226773 -8.6139e+005 -1.9589e+006 -9.0837e+005 114670 226646,226698,226672
 5.2000e+001 226750  3.2523e+005 -4.4482e+006  1.8257e+005 114670 226646,226724,226698
 5.2000e+001 226974  1.6946e+004 -8.9241e+005 -1.8910e+005 114082 226798,226850,226824
 5.2000e+001 226951  5.8973e+004 -1.2834e+006 -5.1156e+004 114082 226798,226902,226850
 5.2000e+001 226928  3.1538e+004 -1.7467e+006 -1.9315e+005 114082 226850,226902,226876
 5.2000e+001 227175 -5.1893e+005 -4.8365e+006 -2.2209e+006 113678 226999,227051,227025
 5.2000e+001 227152 -1.8341e+006 -8.7358e+006 -3.5085e+006 113678 226999,227077,227051
 5.2000e+001 227129 -2.5056e+006 -5.6556e+006 -3.0516e+006 113678 226999,227103,227077
 5.2000e+001 227425 -3.1270e+006 -8.3443e+006 -8.6502e+006 113274 227226,227278,227252
 5.2000e+001 227402 -1.4333e+005 -7.7071e+006 -1.2715e+006 113274 227226,227330,227278
 5.2000e+001 227379 -3.1273e+006 -3.8762e+006 -1.2613e+006 113274 227200,227330,227226
 5.2000e+001 227356 -1.0174e+006 -1.3275e+006 -1.3806e+006 113274 227278,227330,227304
 5.2000e+001 227626 -2.9549e+004 -2.2883e+006 -9.9742e+005 112934 227502,227554,227528
 5.2000e+001 227603  5.1205e+004 -1.6711e+006 -9.3028e+004 112934 227450,227554,227502
 5.2000e+001 227580 -9.6620e+005 -6.9960e+005 -1.2489e+005 112934 227450,227502,227476
 5.2000e+001 227876 -4.4146e+005 -6.6558e+005  7.9201e+004 112437 227677,227755,227703
 5.2000e+001 227853 -7.9020e+005 -8.2632e+005  6.1762e+005 112437 227677,227781,227755
 5.2000e+001 227830 -2.6272e+005 -4.3222e+005  2.3341e+005 112437 227703,227755,227729
 5.2000e+001 227807 -2.7232e+005 -2.6275e+006  2.1347e+004 112437 227651,227781,227677
 5.2000e+001 228126 -2.1621e+005 -3.8510e+006 -2.5758e+005 112041 227927,228005,227953
 5.2000e+001 228103 -3.9600e+005 -3.3075e+006  4.4892e+004 112041 227927,228031,228005
 5.2000e+001 228080  1.5492e+005 -4.8634e+006 -1.9422e+004 112041 227953,228005,227979
 5.2000e+001 228057 -1.1800e+006 -2.0867e+006 -4.8157e+005 112041 227901,228031,227927
 5.2000e+001 228327 -1.4374e+006 -2.2656e+006 -5.2375e+005 111693 228151,228203,228177
 5.2000e+001 228304 -7.8826e+005 -1.4660e+006 -9.7605e+005 111693 228151,228229,228203
 5.2000e+001 228281  5.0160e+004 -2.7645e+006 -2.5518e+004 111693 228151,228255,228229
 5.2000e+001 228479 -3.2724e+006 -2.2418e+006 -3.4490e+006 111253 228352,228404,228378
 5.2000e+001 228456 -2.0968e+006 -4.6196e+005 -1.3423e+005 111253 228352,228430,228404
 5.2000e+001 228582 -8.9728e+005 -1.4720e+006  3.8024e+004 110906 228504,228556,228530
 5.2000e+001 228783 -2.3344e+004 -7.8842e+005 -1.2205e+003 110416 228633,228711,228659
 5.2000e+001 228760  3.6283e+004 -5.1872e+005 -3.8728e+003 110416 228607,228711,228633
 5.2000e+001 228737  8.3292e+003 -6.1997e+005 -2.2607e+004 110416 228659,228711,228685
 5.2000e+001 228935 -6.7219e+004 -1.8987e+006 -3.3681e+005 110012 228808,228860,228834
 5.2000e+001 228912 -5.3947e+005 -3.6502e+006 -8.2916e+005 110012 228808,228886,228860
 5.2000e+001 229087 -1.4615e+006 -2.2732e+006 -3.9006e+005 109672 228960,229012,228986
 5.2000e+001 229064 -1.1365e+006 -3.6542e+006  7.3864e+004 109672 228960,229038,229012
 5.2000e+001 229190 -4.8694e+004 -1.0927e+006  4.8716e+004 109332 229112,229164,229138
 5.2000e+001 229391 -1.6481e+005 -4.7256e+004  5.1117e+004 109156 229267,229319,229293
 5.2000e+001 229368 -1.6900e+005 -3.1169e+005  8.9153e+004 109156 229215,229319,229267
 5.2000e+001 229345 -7.8268e+004 -6.0130e+004 -8.8901e+003 109156 229215,229267,229241
 5.2000e+001 229543  5.6719e+004 -8.8522e+006  1.2072e+006 108752 229416,229468,229442
 5.2000e+001 229520 -8.9361e+005 -5.2559e+006  7.4577e+003 108752 229416,229494,229468
 5.2000e+001 229744 -2.2137e+005 -5.8838e+006 -2.4700e+005 108198 229594,229646,229620
 5.2000e+001 229721  4.5596e+005 -5.7666e+006  4.4859e+005 108198 229594,229672,229646
 5.2000e+001 229698 -8.1905e+005 -5.2078e+006  6.5577e+005 108198 229568,229672,229594
 5.2000e+001 229847 -1.8481e+004 -5.8455e+005 -1.5195e+005 107758 229769,229821,229795
 5.2000e+001 230048 -6.0490e+005 -1.4473e+006 -2.0868e+005 107468 229898,229950,229924
 5.2000e+001 230025 -3.5974e+005 -1.4214e+006 -2.6245e+005 107468 229872,229950,229898
 5.2000e+001 230002 -6.3164e+005 -1.5544e+006 -1.6077e+005 107468 229872,229976,229950
 5.2000e+001 230298  4.5658e+004 -4.3210e+005  4.7695e+004 107121 230099,230203,230177
 5.2000e+001 230275  1.6669e+005 -6.7660e+005  1.2545e+005 107121 230073,230203,230099
 5.2000e+001 230252  9.4533e+004 -4.4656e+005 -7.1637e+003 107121 230099,230177,230151
 5.2000e+001 230229 -5.1194e+004 -3.3578e+005 -1.3104e+005 107121 230099,230151,230125
 5.2000e+001 230450  4.1999e+004 -6.4491e+005 -3.4324e+004 106823 230349,230401,230375
 5.2000e+001 230427 -1.9795e+004 -3.8406e+005  1.8981e+004 106823 230323,230401,230349
 5.2000e+001 230602 -1.7836e+006 -1.0976e+007 -6.7685e+006 106533 230501,230553,230527
 5.2000e+001 230579 -3.7486e+005 -1.0567e+007  1.1462e+006 106533 230475,230553,230501
 5.2000e+001 230803 -2.7943e+004 -8.4299e+005  3.0037e+002 106029 230679,230731,230705
 5.2000e+001 230780  1.8592e+004 -6.5703e+005 -4.9225e+003 106029 230653,230731,230679
 5.2000e+001 230757 -1.5057e+004 -6.2942e+005 -1.7035e+004 106029 230627,230731,230653
 5.2000e+001 231004 -1.2197e+005 -7.6773e+005 -3.8419e+004 105689 230854,230906,230880
 5.2000e+001 230981 -2.7912e+005 -1.3947e+006 -6.7667e+005 105689 230828,230906,230854
 5.2000e+001 230958 -4.2329e+005 -1.4403e+006 -6.4339e+005 105689 230828,230932,230906
 5.2000e+001 231156  1.2042e+004 -6.0892e+006 -1.2964e+004 105377 231055,231107,231081
 5.2000e+001 231133  5.8455e+005 -6.0945e+006  1.3564e+005 105377 231029,231107,231055
 5.2000e+001 231406 -3.4817e+005 -8.4442e+006 -9.5493e+005 104858 231207,231259,231233
 5.2000e+001 231383 -1.8321e+006 -8.4965e+006 -1.2712e+006 104858 231207,231311,231259
 5.2000e+001 231360 -7.7407e+005 -1.0891e+007 -2.2512e+006 104858 231259,231311,231285
 5.2000e+001 231337 -8.5697e+005 -1.1557e+007 -2.0003e+006 104858 231181,231311,231207
 5.2000e+001 231558 -1.4113e+006 -1.2969e+007  3.9065e+006 104418 231457,231509,231483
 5.2000e+001 231535 -2.0271e+006 -1.2851e+007 -6.8541e+006 104418 231431,231509,231457
 5.2000e+001 231710 -1.7145e+006 -7.1071e+005 -3.7775e+005 103978 231583,231635,231609
 5.2000e+001 231687 -1.1161e+006 -9.1943e+005 -6.9980e+005 103978 231583,231661,231635
 5.2000e+001 231862 -1.8453e+004 -1.2774e+006  3.4069e+004 103588 231761,231813,231787
 5.2000e+001 231839  5.1024e+004 -9.8655e+005  3.7503e+004 103588 231735,231813,231761
 5.2000e+001 232014 -2.0497e+006 -8.7418e+006 -2.5817e+006 103248 231887,231939,231913
 5.2000e+001 231991 -1.5723e+006 -1.8383e+007 -6.4104e+006 103248 231887,231965,231939
 5.2000e+001 232215 -7.7668e+004 -1.3968e+006  5.3240e+004 102844 232039,232117,232065
 5.2000e+001 232192  5.7289e+004 -7.5555e+005  5.2603e+004 102844 232039,232143,232117
 5.2000e+001 232169 -1.7860e+005 -9.2391e+005 -2.7229e+005 102844 232065,232117,232091
 5.2000e+001 232416 -4.1795e+006 -1.0597e+007 -3.6324e+006 102554 232240,232318,232292
 5.2000e+001 232393  8.7887e+005 -1.6919e+007  2.8146e+005 102554 232240,232344,232318
 5.2000e+001 232370 -5.1554e+006 -4.1326e+006 -7.8365e+005 102554 232240,232292,232266
 5.2000e+001 232568 -1.8886e+004 -6.3071e+005  2.1924e+004 102100 232441,232493,232467
 5.2000e+001 232545 -3.5121e+005 -7.3985e+005  1.1418e+005 102100 232441,232519,232493
 5.2000e+001 232769 -2.1180e+004 -2.6565e+005  4.4739e+004 101596 232645,232697,232671
 5.2000e+001 232746  9.0248e+003 -1.4597e+005  2.4632e+004 101596 232593,232697,232645
 5.2000e+001 232723 -7.1303e+003 -2.5618e+005  4.3368e+004 101596 232593,232645,232619
 5.2000e+001 232921 -2.0336e+002 -1.4445e+002  1.6571e+001 101420 232794,232846,232820
 5.2000e+001 232898 -1.7558e+002  1.5300e+001  1.1737e+001 101420 232794,232872,232846
 5.2000e+001 233073 -7.7535e+005 -6.8930e+005 -5.3746e+005 101023 232946,232998,232972
 5.2000e+001 233050 -1.6362e+005 -1.4981e+006  7.3260e+004 101023 232946,233024,232998
 5.2000e+001 233225  6.5978e+004 -1.3791e+006 -6.1974e+003 100661 233098,233150,233124
 5.2000e+001 233202 -4.1963e+004 -9.0142e+005 -3.1142e+004 100661 233098,233176,233150
 5.2000e+001 233426 -2.2547e+006 -7.4318e+006 -2.5663e+006 100265 233276,233328,233302
 5.2000e+001 233403 -1.1237e+006 -6.1619e+006  8.6303e+004 100265 233276,233354,233328
 5.2000e+001 233380 -1.8235e+006 -9.1119e+006 -7.9882e+005 100265 233250,233354,233276
 5.2000e+001 233578 -2.8866e+002 -2.7414e+005  9.1912e+003 100032 233451,233503,233477
 5.2000e+001 233555 -4.8886e+004 -2.8446e+005  3.0107e+004 100032 233451,233529,233503
 5.2000e+001 233681 -8.3304e+005  4.7421e+004  2.9863e+004 99742 233603,233655,233629
 5.2000e+001 233784 -4.2428e+005 -2.7671e+006 -4.5860e+005 99402 233706,233758,233732
 5.2000e+001 233936 -5.3225e+005 -1.2496e+006  2.2316e+004 99062 233835,233887,233861
 5.2000e+001 233913 -5.1942e+005 -1.2803e+006  3.6356e+005 99062 233809,233887,233835
 5.2000e+001 234088 -7.7667e+005 -3.3147e+006  1.0342e+006 98772 233987,234039,234013
 5.2000e+001 234065 -3.0175e+005 -3.2332e+006  9.1305e+005 98772 233961,234039,233987
 5.2000e+001 234240 -1.5511e+004 -6.2511e+004  2.1513e+004 98160 234139,234191,234165
 5.2000e+001 234217 -1.9737e+004 -7.4449e+004 -8.9547e+003 98160 234113,234191,234139
 5.2000e+001 234441 -2.3771e+002  7.5091e+001  2.3350e+000 97820 234317,234369,234343
 5.2000e+001 234418 -2.4244e+002  9.9021e+000 -1.0249e+002 97820 234291,234369,234317
 5.2000e+001 234395  1.0427e+002 -9.4893e+001  5.7053e+001 97820 234265,234369,234291
 5.2000e+001 234593 -5.6253e+005 -8.1578e+005 -4.2887e+005 97366 234466,234518,234492
 5.2000e+001 234570  3.0125e+005 -3.3986e+006 -6.6162e+005 97366 234466,234544,234518
 5.2000e+001 234794 -8.0223e+005 -1.2531e+006 -8.8201e+005 96976 234618,234670,234644
 5.2000e+001 234771 -1.8358e+005 -2.4968e+006 -7.4073e+005 96976 234618,234722,234670
 5.2000e+001 234748 -6.7092e+005 -2.6810e+006 -1.4708e+006 96976 234670,234722,234696
 5.2000e+001 234946 -9.3363e+005 -2.0953e+006  9.1223e+005 96568 234845,234897,234871
 5.2000e+001 234923 -6.3114e+005 -1.2461e+006  1.2711e+006 96568 234819,234897,234845
 5.2000e+001 235196 -1.6221e+005 -7.1943e+005 -2.0318e+005 96216 234997,235075,235049
 5.2000e+001 235173  8.1582e+004 -3.4693e+006  9.7796e+005 96216 234997,235101,235075
 5.2000e+001 235150 -3.7273e+005 -9.0806e+005  9.1416e+004 96216 234997,235049,235023
 5.2000e+001 235127 -1.5595e+005 -3.6367e+006  7.5312e+005 96216 234971,235101,234997
 5.2000e+001 235348 -1.3840e+006 -2.1245e+006 -1.1159e+006 95863 235247,235299,235273
 5.2000e+001 235325 -1.0605e+006 -1.3315e+006 -8.4222e+005 95863 235221,235299,235247
 5.2000e+001 235500 -7.4581e+005 -2.1579e+006 -1.0777e+006 95339 235373,235425,235399
 5.2000e+001 235477 -3.3005e+005 -3.6693e+006  2.6258e+006 95339 235373,235451,235425
 5.2000e+001 235701  8.9372e+004 -3.1549e+006  6.5794e+005 95023 235525,235577,235551
 5.2000e+001 235678 -1.3747e+005 -3.1113e+006  6.1864e+005 95023 235525,235629,235577
 5.2000e+001 235655 -1.3573e+005 -5.3745e+006  1.0856e+006 95023 235577,235629,235603
 5.2000e+001 235853  1.0447e+006 -1.1964e+007  1.2335e+006 94671 235726,235778,235752
 5.2000e+001 235830 -3.2875e+005 -9.4443e+006 -6.5775e+005 94671 235726,235804,235778
 5.2000e+001 236005 -1.1425e+006 -8.6226e+006 -1.0398e+006 94261 235904,235956,235930
 5.2000e+001 235982 -3.1597e+005 -1.0401e+007 -2.7995e+006 94261 235878,235956,235904
 5.2000e+001 236206 -6.6945e+005 -3.2988e+005  7.4730e+005 93853 236056,236134,236082
 5.2000e+001 236183 -1.3599e+006 -5.1450e+005  4.8867e+005 93853 236030,236134,236056
 5.2000e+001 236160 -7.2020e+005 -6.2999e+005  6.5459e+005 93853 236082,236134,236108
 5.2000e+001 236407 -5.5389e+005 -6.8980e+006  8.6637e+005 93557 236257,236309,236283
 5.2000e+001 236384 -1.8328e+006 -7.9757e+006 -2.6569e+006 93557 236231,236309,236257
 5.2000e+001 236361 -8.0616e+005 -1.4434e+007 -3.6714e+005 93557 236231,236335,236309
 5.2000e+001 236559 -2.0761e+003 -4.8329e+004  1.5512e+004 93149 236432,236484,236458
 5.2000e+001 236536  1.6706e+004 -1.3854e+004  3.7712e+004 93149 236432,236510,236484
 5.2000e+001 236711 -1.0913e+004 -3.7176e+004 -3.6604e+003 92853 236584,236636,236610
 5.2000e+001 236688 -3.7555e+004 -2.0705e+005  4.3887e+004 92853 236584,236662,236636
 5.2000e+001 236912 -4.1671e+005 -3.0017e+006  1.2889e+006 92501 236736,236788,236762
 5.2000e+001 236889 -5.9158e+005 -1.6695e+006  5.3386e+005 92501 236736,236840,236788
 5.2000e+001 236866 -6.9208e+005 -2.3932e+006  3.6165e+005 92501 236788,236840,236814
 5.2000e+001 237113 -1.3738e+005 -5.4787e+006  2.5728e+005 92291 236963,237041,237015
 5.2000e+001 237090  1.3676e+005 -2.9654e+006  4.6830e+004 92291 236937,237041,236963
 5.2000e+001 237067 -2.6429e+005 -4.9851e+006  1.1472e+006 92291 236963,237015,236989
 5.2000e+001 237265  1.3690e+005 -1.0765e+006 -5.0829e+005 91871 237138,237190,237164
 5.2000e+001 237242 -9.4483e+005 -3.0965e+006 -1.4125e+006 91871 237138,237216,237190
 5.2000e+001 237368 -5.2492e+002 -1.3240e+006  3.5890e+002 91581 237290,237342,237316
 5.2000e+001 237520 -1.6284e+004 -8.2889e+004  1.1442e+004 91184 237419,237471,237445
 5.2000e+001 237497 -3.2347e+004 -2.4527e+005 -1.3094e+005 91184 237393,237471,237419
 5.2000e+001 237672 -8.2564e+005 -1.2421e+006 -3.6700e+005 90894 237545,237597,237571
 5.2000e+001 237649 -2.5885e+005 -4.6552e+006  1.1233e+006 90894 237545,237623,237597
 5.2000e+001 237873 -1.1293e+006 -4.9579e+006  9.3338e+005 90490 237749,237801,237775
 5.2000e+001 237850 -7.8381e+005 -3.8435e+006  1.1696e+006 90490 237723,237801,237749
 5.2000e+001 237827 -1.2029e+006 -3.9598e+006 -4.7727e+005 90490 237697,237801,237723
 5.2000e+001 238074 -8.3981e+005 -6.1206e+006  5.2451e+005 90100 237898,237976,237950
 5.2000e+001 238051 -1.6121e+006 -6.1685e+006  3.7171e+005 90100 237898,238002,237976
 5.2000e+001 238028 -5.8118e+005 -5.8921e+006  3.2698e+005 90100 237898,237950,237924
 5.2000e+001 238275 -1.6041e+005 -2.4655e+006  1.3487e+006 89696 238125,238177,238151
 5.2000e+001 238252 -3.3269e+005 -1.3882e+006 -8.9829e+005 89696 238099,238177,238125
 5.2000e+001 238229 -8.6501e+005 -1.4390e+006 -5.8289e+005 89696 238099,238203,238177
 5.2000e+001 238427  1.6614e+003 -4.8369e+004 -2.4931e+004 89206 238326,238378,238352
 5.2000e+001 238404 -1.7176e+004 -2.5225e+005 -4.6212e+004 89206 238300,238378,238326
 5.2000e+001 238579 -9.3656e+005 -3.9271e+006  2.2682e+006 88908 238452,238504,238478
 5.2000e+001 238556 -2.0323e+005 -2.7916e+006  6.6840e+004 88908 238452,238530,238504
 5.2000e+001 238682  2.1846e+000 -5.2485e+005  2.1013e+001 88568 238604,238656,238630
 5.2000e+001 238883  2.6591e+005 -6.4014e+006  1.8973e+006 88278 238733,238811,238785
 5.2000e+001 238860 -8.5173e+005 -3.2149e+006  1.6424e+006 88278 238707,238811,238733
 5.2000e+001 238837 -2.4229e+005 -6.8033e+006  1.2839e+006 88278 238733,238785,238759
 5.2000e+001 239035 -1.5684e+006 -4.1157e+006 -4.5869e+005 87988 238908,238960,238934
 5.2000e+001 239012 -1.6460e+006 -1.7928e+006  1.6713e+005 87988 238908,238986,238960
 5.2000e+001 239138  1.1864e+005 -4.3887e+005  2.2736e+005 87648 239060,239112,239086
 5.2000e+001 239339 -1.1872e+006 -3.3290e+006 -2.1203e+006 87358 239163,239215,239189
 5.2000e+001 239316 -1.1745e+006 -2.0996e+006 -5.9357e+005 87358 239163,239241,239215
 5.2000e+001 239293 -8.6367e+005 -1.1880e+006 -1.0129e+006 87358 239163,239267,239241
 5.2000e+001 239589  4.9775e+002  2.2935e+002  2.2201e+002 86961 239390,239468,239416
 5.2000e+001 239566 -7.2255e+002 -4.3564e+002 -4.7742e+002 86961 239390,239494,239468
 5.2000e+001 239543  2.8253e+002  2.1060e+002  5.0783e+001 86961 239416,239468,239442
 5.2000e+001 239520 -6.8771e+001 -1.6874e+003 -6.4431e+002 86961 239364,239494,239390
 5.2000e+001 239741 -1.0085e+006 -3.4362e+006 -4.4102e+005 86621 239640,239692,239666
 5.2000e+001 239718 -8.3413e+004 -4.0813e+006 -8.6914e+005 86621 239614,239692,239640
 5.2000e+001 239893 -6.2295e+005 -5.6551e+006  1.6732e+006 86217 239792,239844,239818
 5.2000e+001 239870 -7.1777e+005 -4.3691e+006  1.1120e+006 86217 239766,239844,239792
 5.2000e+001 240045 -9.5730e+005 -3.9161e+006  9.9876e+005 85827 239918,239970,239944
 5.2000e+001 240022 -2.2755e+005 -3.7106e+006  3.1292e+005 85827 239918,239996,239970
 5.2000e+001 240197 -7.0887e+005 -8.4578e+006  1.2169e+006 85437 240096,240148,240122
 5.2000e+001 240174 -1.6056e+006 -1.0618e+006 -4.2450e+005 85437 240070,240148,240096
 5.2000e+001 240349 -1.6897e+005 -1.9946e+006  6.7196e+005 85147 240222,240274,240248
 5.2000e+001 240326 -1.3127e+005 -1.1203e+006 -1.6502e+005 85147 240222,240300,240274
 5.2000e+001 240501 -3.2509e+005 -1.3957e+006  5.9122e+005 84807 240374,240426,240400
 5.2000e+001 240478 -1.5811e+006 -2.0609e+006  1.1304e+006 84807 240374,240452,240426
 5.2000e+001 240653  9.3440e+001  2.1837e+002 -1.7879e+002 84303 240552,240604,240578
 5.2000e+001 240630  2.0382e+001  2.6810e+002 -3.4056e+002 84303 240526,240604,240552
 5.2000e+001 240854 -1.5553e+005 -1.1414e+007 -5.3126e+006 83929 240704,240756,240730
 5.2000e+001 240831  1.6330e+006 -9.2437e+006  2.3696e+006 83929 240704,240782,240756
 5.2000e+001 240808 -3.2960e+006  1.7926e+006  2.7340e+006 83929 240678,240782,240704
 5.2000e+001 241055 -1.6870e+004 -2.0183e+004 -8.6509e+003 83539 240879,240957,240931
 5.2000e+001 241032 -7.3126e+004 -1.9911e+004 -2.6581e+004 83539 240879,240983,240957
 5.2000e+001 241009 -1.5118e+004 -8.7566e+003 -1.1524e+004 83539 240879,240931,240905
 5.2000e+001 241207  9.4626e+004 -2.3172e+006  1.5020e+005 83079 241106,241158,241132
 5.2000e+001 241184 -1.7074e+003 -1.3055e+006  2.5831e+005 83079 241080,241158,241106
 5.2000e+001 241408  1.3767e+006 -3.5223e+006  4.9989e+005 82665 241232,241284,241258
 5.2000e+001 241385 -1.9703e+006 -1.4314e+007 -4.3997e+006 82665 241232,241336,241284
 5.2000e+001 241362 -4.6638e+006  6.0474e+006  7.7898e+006 82665 241284,241336,241310
 5.2000e+001 241658 -2.3811e+005 -4.3701e+006  5.4091e+005 82375 241485,241563,241511
 5.2000e+001 241635  3.1624e+004 -2.5225e+006  2.4447e+005 82375 241433,241563,241485
 5.2000e+001 241612 -8.4276e+004 -2.9857e+006  2.6435e+005 82375 241433,241485,241459
 5.2000e+001 241589 -6.4494e+005 -4.8560e+006  8.0625e+005 82375 241511,241563,241537
 5.2000e+001 241810 -9.0690e+005 -3.3093e+006 -3.3553e+005 82035 241683,241735,241709
 5.2000e+001 241787 -1.2331e+006 -4.0816e+006  6.5225e+005 82035 241683,241761,241735
 5.2000e+001 241962 -7.5510e+005 -3.1293e+006  4.7147e+005 81695 241861,241913,241887
 5.2000e+001 241939 -2.2851e+005 -3.6769e+006 -6.1291e+005 81695 241835,241913,241861
 5.2000e+001 242114 -1.2980e+006 -7.2268e+006  2.4269e+006 81355 242013,242065,242039
 5.2000e+001 242091 -2.1330e+005 -3.7438e+006  1.0883e+006 81355 241987,242065,242013
 5.2000e+001 242266 -7.1095e+004 -6.5039e+005 -1.8508e+005 80951 242139,242191,242165
 5.2000e+001 242243 -3.6795e+005 -1.7730e+006 -4.3270e+005 80951 242139,242217,242191
 5.2000e+001 242467 -4.7778e+005 -5.2566e+006  5.8055e+005 80311 242291,242369,242343
 5.2000e+001 242444  5.3120e+004 -2.9007e+006  4.9689e+005 80311 242291,242395,242369
 5.2000e+001 242421 -3.4874e+005 -1.9092e+006  1.3237e+005 80311 242291,242343,242317
 5.2000e+001 242619 -1.5521e+006 -3.4946e+006  4.9323e+005 80021 242492,242544,242518
 5.2000e+001 242596 -1.4297e+006 -3.0848e+006  1.6300e+006 80021 242492,242570,242544
 5.2000e+001 242869 -6.2313e+005 -8.3433e+005 -6.2995e+003 79631 242644,242722,242696
 5.2000e+001 242846 -1.2298e+005 -2.2079e+006  2.1849e+005 79631 242644,242774,242722
 5.2000e+001 242823  5.2149e+003 -1.8533e+006  4.6113e+004 79631 242722,242774,242748
 5.2000e+001 242800 -5.9229e+005 -9.3299e+005  2.1826e+005 79631 242644,242696,242670
 5.2000e+001 243070 -1.0418e+005 -1.6696e+007  3.6069e+006 79341 242920,242972,242946
 5.2000e+001 243047 -8.0414e+005 -9.0917e+006 -2.5694e+005 79341 242920,242998,242972
 5.2000e+001 243024 -1.1029e+006 -5.9292e+006  2.5574e+006 79341 242894,242998,242920
 5.2000e+001 243222 -4.7249e+005 -4.3112e+006  1.6675e+006 78801 243121,243173,243147
 5.2000e+001 243199 -5.9457e+005 -4.9106e+006  1.5373e+006 78801 243095,243173,243121
 5.2000e+001 243423 -8.4912e+005 -4.7413e+006 -7.1952e+005 78511 243273,243325,243299
 5.2000e+001 243400  8.4447e+005 -9.7432e+006  1.8889e+006 78511 243273,243351,243325
 5.2000e+001 243377 -5.7608e+003 -1.0059e+007  2.5433e+005 78511 243247,243351,243273
 5.2000e+001 243624 -4.1360e+005 -4.4924e+006 -1.4722e+006 78107 243474,243552,243526
 5.2000e+001 243601 -4.2021e+005 -4.8140e+006 -1.4007e+006 78107 243448,243552,243474
 5.2000e+001 243578 -2.0463e+005 -4.8283e+006 -1.8100e+006 78107 243474,243526,243500
 5.2000e+001 243776 -7.2985e+005 -4.7318e+006 -7.8092e+005 77653 243649,243701,243675
 5.2000e+001 243753 -1.6052e+006 -7.9247e+006 -3.5169e+005 77653 243649,243727,243701
 5.2000e+001 243977 -4.2969e+005 -6.1595e+006  2.6836e+004 77093 243801,243853,243827
 5.2000e+001 243954 -7.6071e+004 -5.0867e+006  7.2164e+005 77093 243801,243879,243853
 5.2000e+001 243931 -1.1762e+005 -2.5952e+006 -8.5852e+004 77093 243801,243905,243879
 5.2000e+001 244080 -1.2668e+006 -4.8316e+006  6.5449e+005 76791 244002,244054,244028
 5.2000e+001 244232 -2.9246e+005 -4.8234e+006 -1.6961e+004 76311 244131,244183,244157
 5.2000e+001 244209 -2.4657e+005 -9.5208e+006  4.7188e+005 76311 244105,244183,244131
 5.2000e+001 244433 -1.8341e+006 -1.9010e+007  4.8025e+006 75903 244283,244335,244309
 5.2000e+001 244410 -1.5470e+006 -1.2701e+007  1.1124e+005 75903 244283,244361,244335
 5.2000e+001 244387 -2.8570e+006 -1.1051e+007  1.2959e+006 75903 244257,244361,244283
 5.2000e+001 244585 -8.4753e+004 -1.8389e+007  1.7376e+006 75419 244458,244510,244484
 5.2000e+001 244562 -8.8617e+005 -1.1649e+007  1.7489e+005 75419 244458,244536,244510
 5.2000e+001 244737 -5.1283e+005 -2.1593e+006 -2.1589e+005 75215 244636,244688,244662
 5.2000e+001 244714 -5.2484e+005 -2.7037e+006 -2.4048e+005 75215 244610,244688,244636
 5.2000e+001 244889 -9.7495e+005 -5.4278e+006 -4.3395e+005 74857 244788,244840,244814
 5.2000e+001 244866 -1.9508e+005 -2.3899e+006 -2.3662e+005 74857 244762,244840,244788
 5.2000e+001 245041 -2.6885e+004 -3.6375e+005 -2.0998e+005 74653 244940,244992,244966
 5.2000e+001 245018 -5.7237e+004 -8.1476e+004  1.5912e+005 74653 244914,244992,244940
 5.2000e+001 245144 -9.8858e+005 -7.0828e+006 -1.4957e+006 74359 245066,245118,245092
 5.2000e+001 245296 -8.9574e+004 -1.3981e+006 -4.3699e+005 74007 245169,245221,245195
 5.2000e+001 245273 -5.0256e+005 -2.4089e+006 -7.4828e+005 74007 245169,245247,245221
 5.2000e+001 245448 -1.2532e+006 -7.6263e+006  1.5448e+006 73711 245321,245373,245347
 5.2000e+001 245425 -4.5369e+005 -7.3778e+006 -2.4452e+006 73711 245321,245399,245373
 5.2000e+001 245600  5.1106e+005 -1.4116e+007 -1.0365e+006 73301 245499,245551,245525
 5.2000e+001 245577 -1.7307e+006 -1.0342e+007  1.9265e+006 73301 245473,245551,245499
 5.2000e+001 245752 -2.0298e+006 -2.9997e+006 -1.8384e+006 72995 245625,245677,245651
 5.2000e+001 245729  5.4689e+005 -1.1778e+007 -1.4390e+006 72995 245625,245703,245677
 5.2000e+001 245953 -2.6647e+006 -1.1330e+007  1.3163e+006 72585 245777,245829,245803
 5.2000e+001 245930 -1.2300e+006 -1.7118e+007  4.4273e+006 72585 245777,245855,245829
 5.2000e+001 245907 -1.9616e+005 -8.7795e+006  1.4425e+006 72585 245777,245881,245855
 5.2000e+001 246154 -3.7596e+005 -7.1396e+006  1.2687e+006 72127 246030,246082,246056
 5.2000e+001 246131 -1.2151e+006 -9.5657e+006  6.0670e+005 72127 245978,246082,246030
 5.2000e+001 246108 -4.9456e+004 -9.5821e+006 -1.7386e+004 72127 245978,246030,246004
 5.2000e+001 246257 -7.2785e+005 -1.4489e+006 -5.5857e+005 71737 246179,246231,246205
 5.2000e+001 246360  1.7193e+005 -3.3116e+006  4.5601e+005 71447 246282,246334,246308
 5.2000e+001 246512 -3.7221e+005 -2.9127e+006  1.1679e+006 71157 246385,246437,246411
 5.2000e+001 246489 -9.4722e+004 -2.1852e+006 -1.0989e+005 71157 246385,246463,246437
 5.2000e+001 246664 -1.4899e+005 -2.7267e+006 -4.0397e+005 70753 246537,246589,246563
 5.2000e+001 246641 -6.1648e+005 -1.4609e+006 -2.1025e+005 70753 246537,246615,246589
 5.2000e+001 246865 -2.4056e+006 -1.1872e+007  7.5548e+006 70249 246715,246767,246741
 5.2000e+001 246842 -2.1026e+006 -1.0694e+007 -5.7580e+005 70249 246715,246793,246767
 5.2000e+001 246819 -5.0200e+005 -1.3330e+007 -2.0864e+006 70249 246689,246793,246715
 5.2000e+001 247066  4.9552e+004 -2.3877e+006  2.3697e+005 70023 246916,246994,246942
 5.2000e+001 247043 -6.9757e+004 -2.2008e+006  3.0644e+005 70023 246890,246994,246916
 5.2000e+001 247020  9.2234e+004 -2.4219e+006  4.3558e+005 70023 246942,246994,246968
 5.2000e+001 247267 -4.1077e+005 -4.7380e+006 -5.2837e+005 69633 247091,247143,247117
 5.2000e+001 247244 -9.1122e+004 -3.2688e+006 -3.4069e+005 69633 247091,247169,247143
 5.2000e+001 247221 -3.4384e+004 -3.1884e+006 -3.9482e+005 69633 247091,247195,247169
 5.2000e+001 247419 -1.0254e+006 -6.2813e+006  3.6305e+005 69457 247318,247370,247344
 5.2000e+001 247396 -1.3935e+006 -2.6463e+006  6.3556e+005 69457 247292,247370,247318
 5.2000e+001 247522 -2.2050e+002  3.8979e+001  7.7707e+001 69209 247444,247496,247470
 5.2000e+001 247625 -1.7767e+006 -1.7852e+006 -1.2640e+006 68919 247547,247599,247573
 5.2000e+001 247777  1.3159e+005 -6.8446e+006 -1.9518e+005 68579 247650,247702,247676
 5.2000e+001 247754 -2.3217e+005 -1.9396e+006 -7.2271e+004 68579 247650,247728,247702
 5.2000e+001 247929  1.2578e+005 -4.2691e+006  1.9283e+006 68289 247802,247854,247828
 5.2000e+001 247906 -2.2898e+005 -1.7687e+006 -3.1007e+005 68289 247802,247880,247854
 5.2000e+001 248081 -3.6335e+005 -4.8756e+006  1.6025e+006 67949 247980,248032,248006
 5.2000e+001 248058 -5.2547e+005 -6.0532e+005  2.1326e+005 67949 247954,248032,247980
 5.2000e+001 248233 -1.2047e+006 -7.3275e+006 -7.6003e+005 67616 248132,248184,248158
 5.2000e+001 248210 -6.8139e+005 -6.1294e+006 -2.7837e+005 67616 248106,248184,248132
 5.2000e+001 248434 -1.3193e+005 -4.3234e+006 -1.8727e+005 67212 248284,248336,248310
 5.2000e+001 248411 -8.1082e+004 -4.3441e+006 -2.9829e+005 67212 248258,248336,248284
 5.2000e+001 248388 -1.6174e+006 -2.2393e+006 -6.0686e+005 67212 248258,248362,248336
 5.2000e+001 248586 -9.0030e+004 -5.6616e+006  5.5068e+005 66872 248485,248537,248511
 5.2000e+001 248563 -5.4289e+005 -1.1552e+006 -3.6719e+004 66872 248459,248537,248485
 5.2000e+001 248738 -5.0808e+005 -6.7555e+006  2.2072e+005 66510 248637,248689,248663
 5.2000e+001 248715 -6.8024e+005 -8.2293e+006  1.5220e+005 66510 248611,248689,248637
 5.2000e+001 248890 -2.2130e+004 -5.6078e+005  1.1096e+005 66220 248789,248841,248815
 5.2000e+001 248867 -5.5577e+004 -7.1945e+005 -1.9239e+005 66220 248763,248841,248789
 5.2000e+001 249091 -1.1343e+006 -1.0450e+007  3.3468e+006 65759 248915,248967,248941
 5.2000e+001 249068 -8.8277e+005 -9.4323e+006  3.3304e+006 65759 248915,248993,248967
 5.2000e+001 249045 -5.6496e+005 -6.5717e+006  1.2361e+006 65759 248915,249019,248993
 5.2000e+001 249243  4.3381e+004 -9.2608e+006  1.6093e+006 65419 249142,249194,249168
 5.2000e+001 249220  2.3980e+005 -3.1275e+006  1.0601e+005 65419 249116,249194,249142
 5.2000e+001 249395 -3.0659e+005 -2.6417e+006 -3.4569e+005 65079 249268,249320,249294
 5.2000e+001 249372 -3.5588e+005 -3.9675e+006 -6.6225e+005 65079 249268,249346,249320
 5.2000e+001 249547 -2.4718e+005 -2.1174e+006  2.8654e+005 64739 249420,249472,249446
 5.2000e+001 249524  6.1795e+005 -1.7084e+006 -2.2693e+005 64739 249420,249498,249472
 5.2000e+001 249650 -1.6042e+006 -5.1242e+006 -2.4853e+006 64342 249572,249624,249598
 5.2000e+001 249851 -6.7525e+005 -4.2293e+006 -3.9536e+005 63938 249701,249779,249753
 5.2000e+001 249828 -2.2222e+005 -4.3730e+006  1.1256e+006 63938 249675,249779,249701
 5.2000e+001 249805 -4.8462e+005 -7.7427e+006 -2.8452e+005 63938 249701,249753,249727
 5.2000e+001 250052 -6.3444e+005 -6.1380e+006 -9.5883e+005 63341 249876,249954,249902
 5.2000e+001 250029 -1.1429e+006 -6.6255e+006 -4.6986e+005 63341 249876,249980,249954
 5.2000e+001 250006  8.5313e+005 -7.6644e+006  3.2143e+005 63341 249902,249954,249928
 5.2000e+001 250253 -8.6075e+004 -4.1820e+006 -6.3711e+005 63058 250077,250129,250103
 5.2000e+001 250230 -7.3471e+005 -2.4417e+006  7.5264e+004 63058 250077,250155,250129
 5.2000e+001 250207 -1.5394e+005 -2.0899e+006 -3.2280e+005 63058 250077,250181,250155
 5.2000e+001 250454 -8.6290e+005 -7.7714e+006  1.1501e+006 62832 250304,250382,250330
 5.2000e+001 250431  1.6633e+005 -9.6065e+006 -2.4743e+006 62832 250278,250382,250304
 5.2000e+001 250408 -2.0393e+006 -5.2147e+006  2.5629e+005 62832 250330,250382,250356
 5.2000e+001 250606  2.5005e+004 -1.7651e+007 -6.0794e+005 62428 250479,250531,250505
 5.2000e+001 250583 -5.2081e+005 -1.6144e+007 -7.9304e+005 62428 250479,250557,250531
 5.2000e+001 250758  1.6665e+005 -8.3418e+006  7.6085e+005 62202 250631,250683,250657
 5.2000e+001 250735 -2.3656e+005 -8.4312e+006  7.8378e+005 62202 250631,250709,250683
 5.2000e+001 250861 -7.6125e+005 -4.0408e+006 -3.1783e+005 61954 250783,250835,250809
 5.2000e+001 251062 -2.5446e+006 -1.4102e+007 -3.2179e+005 61557 250912,250990,250938
 5.2000e+001 251039  8.3445e+003 -1.6836e+007 -3.6744e+005 61557 250886,250990,250912
 5.2000e+001 251016 -1.4749e+006 -1.8008e+007 -2.8356e+006 61557 250938,250990,250964
 5.2000e+001 251263 -8.4531e+005 -8.4988e+006 -2.4294e+005 61167 251113,251165,251139
 5.2000e+001 251240 -4.4829e+005 -7.8254e+006 -5.3597e+005 61167 251113,251191,251165
 5.2000e+001 251217 -1.2410e+006 -7.5602e+006  1.9940e+006 61167 251087,251191,251113
 5.2000e+001 251415 -7.0091e+005 -7.4171e+006  1.7340e+006 60827 251288,251340,251314
 5.2000e+001 251392 -6.4451e+005 -3.4558e+006 -3.7918e+005 60827 251288,251366,251340
 5.2000e+001 251567  1.9699e+005 -5.2031e+006 -1.7641e+004 60487 251466,251518,251492
 5.2000e+001 251544 -8.0789e+004 -5.4496e+006 -4.1811e+005 60487 251440,251518,251466
 5.2000e+001 251719 -3.7119e+004 -1.1326e+007 -2.0436e+005 59983 251592,251644,251618
 5.2000e+001 251696 -7.5065e+005 -9.2913e+006 -1.0738e+005 59983 251592,251670,251644
 5.2000e+001 251920 -1.2232e+005 -2.3686e+006 -6.9308e+004 59807 251770,251848,251796
 5.2000e+001 251897 -5.5472e+004 -1.8232e+006 -1.1646e+005 59807 251744,251848,251770
 5.2000e+001 251874 -1.1717e+005 -2.2022e+006  1.8012e+004 59807 251796,251848,251822
 5.2000e+001 252023  6.8709e+005 -5.5808e+006 -1.0860e+005 59517 251945,251997,251971
 5.2000e+001 252175  1.8384e+006 -1.5892e+007 -3.3257e+005 59269 252074,252126,252100
 5.2000e+001 252152 -2.1830e+005 -9.8546e+006  1.8432e+005 59269 252048,252126,252074
 5.2000e+001 252278 -4.5333e+005 -9.4490e+006  1.4325e+006 58979 252200,252252,252226
 5.2000e+001 252381 -2.5133e+006 -1.7931e+006  1.1082e+006 58689 252303,252355,252329
 5.2000e+001 252533 -5.9115e+005 -4.4247e+006 -8.6750e+005 58249 252432,252484,252458
 5.2000e+001 252510 -1.3005e+006 -7.8631e+006 -1.1929e+006 58249 252406,252484,252432
 5.2000e+001 252734 -4.7201e+005 -4.4632e+006  1.3759e+005 57902 252584,252662,252610
 5.2000e+001 252711  4.4666e+005 -6.4640e+006 -7.6765e+005 57902 252558,252662,252584
 5.2000e+001 252688 -4.8240e+005 -3.4229e+006 -5.7771e+005 57902 252610,252662,252636
 5.2000e+001 252886  3.1886e+005 -6.4129e+006 -4.3677e+005 57540 252785,252837,252811
 5.2000e+001 252863  2.0193e+005 -4.0695e+006  2.2625e+005 57540 252759,252837,252785
 5.2000e+001 253038 -7.1291e+005 -7.1298e+006  1.7250e+006 57086 252937,252989,252963
 5.2000e+001 253015 -7.8437e+004 -1.8065e+006  2.2360e+005 57086 252911,252989,252937
 5.2000e+001 253239 -2.0983e+006 -8.0660e+006 -2.8848e+006 56796 253063,253141,253115
 5.2000e+001 253216  3.6390e+005 -1.0741e+007  7.5789e+005 56796 253063,253167,253141
 5.2000e+001 253193 -2.8910e+006 -5.9578e+006 -2.5062e+006 56796 253063,253115,253089
 5.2000e+001 253342 -6.9211e+005 -2.0250e+007  4.3601e+003 56349 253264,253316,253290
 5.2000e+001 253543 -5.9773e+005 -6.1786e+006 -9.8105e+005 56009 253367,253419,253393
 5.2000e+001 253520 -6.1665e+005 -3.5723e+006 -4.5817e+005 56009 253367,253445,253419
 5.2000e+001 253497 -5.1018e+005 -4.1380e+006 -1.9132e+005 56009 253367,253471,253445
 5.2000e+001 253695 -4.1537e+005 -1.3932e+006  7.3652e+005 55733 253594,253646,253620
 5.2000e+001 253672 -8.5096e+005 -4.8013e+005  6.0629e+005 55733 253568,253646,253594
 5.2000e+001 253798 -5.0357e+005 -2.2743e+006 -2.9980e+005 55557 253720,253772,253746
 5.2000e+001 253950 -6.0960e+005 -4.6859e+006  6.1845e+004 55153 253849,253901,253875
 5.2000e+001 253927  9.0362e+004 -5.1784e+006 -5.5201e+005 55153 253823,253901,253849
 5.2000e+001 254151 -1.0575e+006 -5.2283e+006  4.5749e+005 54863 253975,254053,254001
 5.2000e+001 254128 -5.0798e+005 -5.0751e+006 -1.7307e+005 54863 253975,254079,254053
 5.2000e+001 254105 -5.3786e+005 -4.9591e+006  2.4752e+005 54863 254001,254053,254027
 5.2000e+001 254303 -2.0390e+005 -8.4570e+005  4.5408e+005 54373 254176,254228,254202
 5.2000e+001 254280 -3.1349e+005 -9.3266e+005  5.1494e+005 54373 254176,254254,254228
 5.2000e+001 254455  8.8519e+004 -6.3153e+006 -4.6162e+005 53975 254354,254406,254380
 5.2000e+001 254432 -4.3713e+005 -1.4679e+006  2.6214e+005 53975 254328,254406,254354
 5.2000e+001 254607 -1.8597e+005 -6.1357e+006 -3.5028e+005 53585 254480,254532,254506
 5.2000e+001 254584 -3.2445e+005 -5.7706e+006 -3.6454e+005 53585 254480,254558,254532
 5.2000e+001 254808 -8.2915e+005 -4.1569e+006 -2.7586e+005 53245 254658,254736,254684
 5.2000e+001 254785 -1.1440e+006 -2.2665e+006 -8.6140e+005 53245 254632,254736,254658
 5.2000e+001 254762 -4.6403e+005 -2.9680e+006 -4.9451e+005 53245 254684,254736,254710
 5.2000e+001 254911 -1.1451e+005 -3.0125e+006 -1.8074e+005 52955 254833,254885,254859
 5.2000e+001 255063 -4.9278e+005 -7.8634e+006 -2.8222e+005 52551 254962,255014,254988
 5.2000e+001 255040 -5.7488e+005 -8.1089e+006 -4.0297e+005 52551 254936,255014,254962
 5.2000e+001 255264 -5.4354e+005 -7.0018e+005  4.6061e+005 52261 255114,255166,255140
 5.2000e+001 255241 -1.3412e+006 -1.4306e+006  9.1975e+005 52261 255114,255192,255166
 5.2000e+001 255218 -1.0236e+005 -2.0272e+006  3.2367e+005 52261 255088,255192,255114
 5.2000e+001 255416 -6.1827e+005 -6.5090e+006  2.0497e+006 51971 255289,255341,255315
 5.2000e+001 255393 -2.6144e+005 -5.7937e+006 -9.4054e+005 51971 255289,255367,255341
 5.2000e+001 255568 -1.0439e+006 -8.2502e+005 -4.2320e+005 51681 255441,255493,255467
 5.2000e+001 255545 -3.5840e+005 -4.9703e+006  3.0411e+005 51681 255441,255519,255493
 5.2000e+001 255769 -1.7025e+005 -3.6956e+006 -2.0575e+005 51291 255619,255697,255671
 5.2000e+001 255746 -1.4212e+005 -3.4372e+006 -3.7087e+005 51291 255593,255697,255619
 5.2000e+001 255723 -1.5600e+005 -4.7200e+006 -4.4942e+005 51291 255619,255671,255645
 5.2000e+001 255921 -3.8987e+005 -3.0881e+006  5.9418e+005 50951 255820,255872,255846
 5.2000e+001 255898 -1.7037e+005 -2.3688e+006  1.6243e+005 50951 255794,255872,255820
 5.2000e+001 256171 -1.1729e+006 -5.2361e+006 -7.0467e+004 50547 256024,256076,256050
 5.2000e+001 256148 -8.6940e+005 -4.9166e+006  2.8923e+005 50547 255972,256076,256024
 5.2000e+001 256125 -2.8597e+005 -5.6983e+006 -2.8258e+005 50547 255946,256076,255972
 5.2000e+001 256102 -9.5877e+005 -4.2982e+006  1.1445e+005 50547 255972,256024,255998
 5.2000e+001 256323  6.4769e+005 -6.3326e+006  8.5402e+005 50093 256196,256248,256222
 5.2000e+001 256300 -1.0451e+006 -3.5666e+006 -1.3530e+006 50093 256196,256274,256248
 5.2000e+001 256426  1.1809e+002 -1.8688e+001 -3.0257e+001 49845 256348,256400,256374
 5.2000e+001 256627 -2.2545e+005 -4.9333e+006  8.2117e+004 49555 256477,256555,256503
 5.2000e+001 256604 -3.7784e+005 -4.1625e+006  4.9746e+004 49555 256451,256555,256477
 5.2000e+001 256581 -3.9270e+005 -4.4078e+006  1.7282e+005 49555 256503,256555,256529
 5.2000e+001 256828 -4.5550e+005 -2.6139e+006 -3.0262e+005 49056 256652,256730,256678
 5.2000e+001 256805 -2.8550e+005 -3.3780e+006 -4.1551e+005 49056 256652,256756,256730
 5.2000e+001 256782 -6.1458e+005 -2.2334e+006 -5.5415e+005 49056 256678,256730,256704
 5.2000e+001 256931 -7.2625e+004 -2.0029e+005  5.4565e+004 48766 256853,256905,256879
 5.2000e+001 257083 -9.6831e+005 -4.2052e+006 -7.0875e+005 48568 256982,257034,257008
 5.2000e+001 257060 -8.7048e+005 -3.8487e+006 -3.8775e+005 48568 256956,257034,256982
 5.2000e+001 257186 -2.2079e+003 -3.6846e+006  1.4379e+003 48228 257108,257160,257134
 5.2000e+001 257338 -4.5117e+005 -1.2608e+006  4.9169e+005 47888 257237,257289,257263
 5.2000e+001 257315 -3.7690e+005 -1.9815e+006  8.8043e+005 47888 257211,257289,257237
 5.2000e+001 257539 -3.1261e+005 -4.9296e+006  2.3570e+005 47548 257363,257441,257415
 5.2000e+001 257516 -1.0543e+006 -4.5706e+006 -5.3921e+005 47548 257363,257467,257441
 5.2000e+001 257493 -7.2900e+005 -3.5433e+006 -9.0787e+004 47548 257363,257415,257389
 5.2000e+001 257740 -2.8683e+005 -4.6397e+006  3.9947e+005 46994 257564,257642,257616
 5.2000e+001 257717 -4.1478e+005 -3.8715e+006  1.0017e+005 46994 257564,257668,257642
 5.2000e+001 257694 -7.2630e+005 -4.8296e+006  4.7036e+004 46994 257564,257616,257590
 5.2000e+001 257843 -7.4658e+005 -2.0525e+006 -3.9164e+005 46654 257765,257817,257791
 5.2000e+001 257995 -6.0153e+005 -3.8780e+006  3.0496e+005 46364 257894,257946,257920
 5.2000e+001 257972 -6.6159e+005 -4.0389e+006  2.0842e+005 46364 257868,257946,257894
 5.2000e+001 258147 -3.6317e+004 -4.1998e+006  1.6565e+004 46024 258046,258098,258072
 5.2000e+001 258124 -3.4417e+005 -3.2153e+006  3.4318e+005 46024 258020,258098,258046
 5.2000e+001 258250 -6.2315e+005 -2.7794e+006  9.3784e+005 45741 258172,258224,258198
 5.2000e+001 258402 -4.5468e+005 -2.4809e+006  1.7915e+005 45401 258301,258353,258327
 5.2000e+001 258379 -3.5084e+005 -2.3556e+006  2.4849e+005 45401 258275,258353,258301
 5.2000e+001 258603 -8.0262e+005 -2.5272e+006 -2.4553e+004 45071 258427,258505,258479
 5.2000e+001 258580 -7.9219e+004 -6.1282e+006  3.0989e+005 45071 258427,258531,258505
 5.2000e+001 258557 -2.1625e+005 -3.5428e+006  2.6317e+005 45071 258427,258479,258453
 5.2000e+001 258755 -2.6859e+005 -4.6019e+006 -5.5420e+005 44681 258654,258706,258680
 5.2000e+001 258732 -1.5047e+005 -4.6231e+006 -4.8724e+005 44681 258628,258706,258654
 5.2000e+001 258907 -7.0507e+005 -1.0051e+006 -1.2734e+005 44157 258806,258858,258832
 5.2000e+001 258884 -3.1110e+005 -1.1932e+006 -8.1030e+004 44157 258780,258858,258806
 5.2000e+001 259010 -6.9462e+005 -4.5268e+005 -4.4292e+004 43705 258932,258984,258958
 5.2000e+001 259113 -5.6233e+005 -2.5274e+006  7.5233e+004 43284 259035,259087,259061
 5.2000e+001 259216 -7.2229e+005 -2.3518e+006 -6.7175e+004 42954 259138,259190,259164
 5.2000e+001 259319 -8.6755e+005 -2.0207e+006  4.9589e+004 42116 259241,259293,259267
 5.2000e+001 259422 -4.6895e+005 -2.8531e+006 -8.6100e+004 41804 259344,259396,259370
 5.2000e+001 259525 -6.0646e+005 -5.5464e+006  7.7328e+005 41219 259447,259499,259473
 5.2000e+001 259628 -9.6682e+005 -3.1716e+006 -4.3587e+005 385 259550,259602,259576
 5.4000e+001 190120 -4.1540e+005 -2.2135e+006 -2.6614e+005 189630 189993,190045,190019
 5.4000e+001 190097 -5.8092e+005 -1.8259e+006 -1.3787e+005 189630 189993,190071,190045
 5.4000e+001 190319 -1.3404e+005 -6.2871e+006 -7.6556e+005 189312 190169,190221,190195
 5.4000e+001 190296 -9.7516e+005 -5.7667e+006 -1.3544e+006 189312 190169,190247,190221
 5.4000e+001 190273 -9.0499e+005 -5.1070e+006 -2.1335e+005 189312 190143,190247,190169
 5.4000e+001 190518 -4.7841e+005  4.8868e+004  1.6059e+004 189124 190368,190446,190420
 5.4000e+001 190495 -5.6255e+005  2.1557e+004 -4.2932e+003 189124 190342,190446,190368
 5.4000e+001 190472 -9.8954e+005 -5.2809e+004 -4.8807e+004 189124 190368,190420,190394
 5.4000e+001 190619 -4.5071e+005 -4.5856e+004 -6.1467e+003 188926 190541,190593,190567
 5.4000e+001 190771 -4.7507e+005 -8.3477e+004  3.0111e+004 188614 190670,190722,190696
 5.4000e+001 190748 -5.6886e+005  1.5659e+005  6.3359e+004 188614 190644,190722,190670
 5.4000e+001 190972 -2.2174e+005 -5.3981e+005 -2.9072e+005 188324 190848,190900,190874
 5.4000e+001 190949 -3.6345e+005 -8.3371e+005 -4.6986e+005 188324 190796,190900,190848
 5.4000e+001 190926 -7.3137e+004 -4.4237e+005 -2.6779e+005 188324 190796,190848,190822
 5.4000e+001 191124 -7.3299e+005 -1.0326e+006 -1.8340e+005 188034 191023,191075,191049
 5.4000e+001 191101 -1.2073e+005 -1.1977e+006 -1.2233e+005 188034 190997,191075,191023
 5.4000e+001 191276 -8.1380e+002 -3.3285e+006 -2.0942e+005 187836 191149,191201,191175
 5.4000e+001 191253 -4.1754e+005 -2.0347e+006  4.6015e+005 187836 191149,191227,191201
 5.4000e+001 191379 -4.3417e+005 -1.5794e+006 -1.8847e+005 187546 191301,191353,191327
 5.4000e+001 191531  2.3997e+005 -7.1271e+006 -1.0787e+006 187256 191430,191482,191456
 5.4000e+001 191508 -1.1261e+006 -7.8454e+006 -1.7305e+006 187256 191404,191482,191430
 5.4000e+001 191634 -7.4434e+005  2.0228e+004 -1.7770e+004 187058 191556,191608,191582
 5.4000e+001 191835 -4.3836e+005 -2.8081e+004 -3.5919e+004 186860 191659,191711,191685
 5.4000e+001 191812 -3.5952e+005 -1.7953e+005 -4.7088e+004 186860 191659,191737,191711
 5.4000e+001 191789 -3.2601e+005 -1.5620e+004 -3.6840e+004 186860 191659,191763,191737
 5.4000e+001 191987  2.4227e+004 -1.5708e+006 -3.0469e+004 186662 191886,191938,191912
 5.4000e+001 191964 -3.1798e+005 -2.0358e+006  2.9778e+005 186662 191860,191938,191886
 5.4000e+001 192090 -4.1851e+005 -2.2645e+006 -1.9472e+005 186486 192012,192064,192038
 5.4000e+001 192242 -1.0420e+005 -1.2190e+007 -3.5166e+005 186288 192115,192167,192141
 5.4000e+001 192219 -8.8107e+005 -8.2313e+006  3.3089e+005 186288 192115,192193,192167
 5.4000e+001 192394  3.7935e+005 -1.0258e+007 -2.2041e+005 185935 192293,192345,192319
 5.4000e+001 192371 -6.8308e+005 -7.1819e+006 -9.1516e+005 185935 192267,192345,192293
 5.4000e+001 192546 -3.1450e+005 -3.2765e+006 -5.8523e+005 185675 192419,192471,192445
 5.4000e+001 192523 -8.0280e+005 -2.2515e+006 -7.1667e+005 185675 192419,192497,192471
 5.4000e+001 192649 -3.8302e+005 -3.1248e+006 -5.3316e+005 185499 192571,192623,192597
 5.4000e+001 192801 -8.7913e+005 -1.0182e+006 -4.6984e+005 185301 192674,192726,192700
 5.4000e+001 192778 -3.6546e+005 -1.4058e+006  9.6358e+005 185301 192674,192752,192726
 5.4000e+001 193002 -8.6858e+004 -1.5522e+006 -5.2116e+005 185046 192852,192930,192878
 5.4000e+001 192979 -5.2392e+005 -3.1591e+006 -3.2907e+005 185046 192826,192930,192852
 5.4000e+001 192956  6.8838e+005 -4.2947e+006  3.0216e+005 185046 192878,192930,192904
 5.4000e+001 193203 -7.0719e+005 -8.0249e+006 -1.1780e+006 184798 193079,193131,193105
 5.4000e+001 193180 -3.3592e+005 -6.9485e+006 -1.4857e+006 184798 193027,193131,193079
 5.4000e+001 193157  1.3060e+005 -6.9798e+006  8.7514e+005 184798 193027,193079,193053
 5.4000e+001 193404 -2.4042e+005 -5.8554e+006 -1.5733e+006 184600 193254,193306,193280
 5.4000e+001 193381 -7.8764e+005 -3.0300e+006 -3.1911e+005 184600 193254,193332,193306
 5.4000e+001 193358 -1.3183e+006 -8.6479e+005 -8.1629e+005 184600 193228,193332,193254
 5.4000e+001 193556 -8.3472e+005 -5.2427e+005 -6.7657e+005 184402 193429,193481,193455
 5.4000e+001 193533 -6.2875e+005 -6.2748e+005 -5.9798e+005 184402 193429,193507,193481
 5.4000e+001 193708 -1.1531e+006 -3.7330e+006 -5.0961e+005 184204 193607,193659,193633
 5.4000e+001 193685 -1.1398e+006 -8.7007e+006 -1.6833e+006 184204 193581,193659,193607
 5.4000e+001 193860 -7.3978e+005 -1.5958e+006  2.1081e+005 183908 193759,193811,193785
 5.4000e+001 193837 -1.1932e+005 -1.7188e+006  4.4283e+005 183908 193733,193811,193759
 5.4000e+001 194061 -3.2187e+005 -8.6726e+005  2.5040e+005 183710 193911,193989,193937
 5.4000e+001 194038 -6.4971e+005 -1.3748e+006  5.9587e+005 183710 193885,193989,193911
 5.4000e+001 194015 -6.5370e+005 -1.4810e+006  5.0711e+005 183710 193937,193989,193963
 5.4000e+001 194262 -1.3681e+005 -3.2020e+006 -1.1485e+006 183420 194086,194164,194112
 5.4000e+001 194239 -1.0289e+005 -3.4023e+006 -1.6820e+006 183420 194086,194190,194164
 5.4000e+001 194216  2.9009e+005 -6.9093e+006  6.9341e+005 183420 194112,194164,194138
 5.4000e+001 194414 -6.5439e+005 -6.6691e+006 -7.7514e+005 183222 194287,194339,194313
 5.4000e+001 194391  6.2682e+004 -2.8125e+006 -4.7253e+005 183222 194287,194365,194339
 5.4000e+001 194517 -9.1474e+005 -1.9494e+006 -3.4523e+005 183024 194439,194491,194465
 5.4000e+001 194718  3.1725e+006 -1.8486e+007  1.3722e+006 182734 194568,194620,194594
 5.4000e+001 194695 -1.4457e+006 -4.4601e+006 -4.6204e+006 182734 194542,194620,194568
 5.4000e+001 194672 -4.5321e+006 -2.6888e+006 -2.3111e+006 182734 194542,194646,194620
 5.4000e+001 194870 -1.1450e+004 -9.3196e+005  4.0967e+005 182444 194769,194821,194795
 5.4000e+001 194847 -5.2722e+004 -1.1299e+006  4.3266e+005 182444 194743,194821,194769
 5.4000e+001 195071 -3.5674e+005 -2.0533e+006  8.6445e+005 182154 194895,194947,194921
 5.4000e+001 195048 -4.1889e+005 -1.1273e+006  1.2930e+005 182154 194895,194999,194947
 5.4000e+001 195025 -3.4400e+005 -3.7512e+005  2.3496e+005 182154 194947,194999,194973
 5.4000e+001 195223 -3.6607e+005 -9.2663e+005 -2.7983e+005 181814 195096,195148,195122
 5.4000e+001 195200 -6.4845e+005 -2.6092e+006 -1.3050e+006 181814 195096,195174,195148
 5.4000e+001 195375 -1.4818e+004 -1.8103e+005  6.6975e+003 181524 195248,195300,195274
 5.4000e+001 195352  3.2774e+003 -4.6945e+005  6.5056e+004 181524 195248,195326,195300
 5.4000e+001 195527 -2.9391e+005 -2.9431e+006  1.2397e+004 181326 195426,195478,195452
 5.4000e+001 195504 -1.4522e+006 -3.6833e+006  7.7934e+005 181326 195400,195478,195426
 5.4000e+001 195679 -4.9086e+005 -1.1821e+007 -1.5729e+006 180936 195578,195630,195604
 5.4000e+001 195656 -6.3748e+005 -4.7522e+006 -1.0148e+006 180936 195552,195630,195578
 5.4000e+001 195831 -4.6081e+005 -3.7815e+005 -1.7930e+005 180646 195704,195756,195730
 5.4000e+001 195808 -7.3455e+005 -2.4716e+004  1.4847e+004 180646 195704,195782,195756
 5.4000e+001 196032 -2.4816e+005 -1.6932e+006  3.3551e+005 180306 195882,195960,195934
 5.4000e+001 196009 -9.5818e+004 -4.5312e+005  1.1808e+005 180306 195856,195960,195882
 5.4000e+001 195986  1.9618e+004 -1.8528e+006  1.3820e+005 180306 195882,195934,195908
 5.4000e+001 196233 -6.8342e+005 -1.9667e+004 -9.0983e+005 179944 196057,196109,196083
 5.4000e+001 196210 -7.5763e+005 -7.1342e+005  8.8406e+004 179944 196057,196135,196109
 5.4000e+001 196187 -1.1586e+006  2.4911e+006 -6.9083e+005 179944 196057,196161,196135
 5.4000e+001 196385 -7.5150e+005 -7.9406e+005 -6.3232e+005 179604 196258,196310,196284
 5.4000e+001 196362 -9.2979e+005 -1.0065e+006 -1.0773e+006 179604 196258,196336,196310
 5.4000e+001 196586 -9.6728e+005 -7.3001e+005 -8.5578e+005 179114 196410,196488,196436
 5.4000e+001 196563 -1.9355e+005 -3.1872e+006 -1.0268e+006 179114 196410,196514,196488
 5.4000e+001 196540 -6.3088e+003 -6.9328e+005 -6.8623e+004 179114 196436,196488,196462
 5.4000e+001 196738 -8.3184e+005 -1.6036e+006 -8.3625e+005 178674 196611,196663,196637
 5.4000e+001 196715  2.0046e+004 -3.7856e+006 -2.7604e+005 178674 196611,196689,196663
 5.4000e+001 196939  2.5858e+006 -1.0111e+007 -2.4479e+006 178334 196789,196867,196841
 5.4000e+001 196916 -2.1088e+006 -1.0834e+007  2.4822e+006 178334 196763,196867,196789
 5.4000e+001 196893 -7.4820e+006 -3.7471e+006 -7.7865e+006 178334 196789,196841,196815
 5.4000e+001 197091 -3.5936e+005 -3.9369e+006 -9.2136e+005 177930 196990,197042,197016
 5.4000e+001 197068 -5.7911e+005 -4.6306e+006 -5.6187e+005 177930 196964,197042,196990
 5.4000e+001 197194  1.8850e+002 -4.7210e+005  2.8111e+002 177732 197116,197168,197142
 5.4000e+001 197346 -3.0225e+005 -4.7641e+006 -4.4912e+005 177534 197219,197271,197245
 5.4000e+001 197323  3.8942e+005 -7.0729e+006  7.8650e+005 177534 197219,197297,197271
 5.4000e+001 197547 -5.5117e+005 -4.5870e+006 -1.3549e+006 177130 197397,197449,197423
 5.4000e+001 197524 -1.3632e+006 -4.6337e+006 -1.9753e+006 177130 197397,197475,197449
 5.4000e+001 197501 -1.3787e+006 -9.2436e+006 -2.5709e+006 177130 197371,197475,197397
 5.4000e+001 197748 -1.1598e+005 -5.5089e+006 -4.0037e+004 176790 197598,197676,197624
 5.4000e+001 197725  2.4379e+003 -4.5502e+006  9.4140e+004 176790 197572,197676,197598
 5.4000e+001 197702 -1.8093e+005 -4.7752e+006  1.5160e+005 176790 197624,197676,197650
 5.4000e+001 197900 -2.4051e+005 -3.3892e+006 -4.7799e+005 176300 197773,197825,197799
 5.4000e+001 197877  2.0826e+005 -4.7442e+006 -4.6076e+005 176300 197773,197851,197825
 5.4000e+001 198052 -8.4895e+005 -6.2590e+006 -1.1074e+006 176010 197925,197977,197951
 5.4000e+001 198029 -4.4031e+005 -5.2293e+006 -1.4086e+006 176010 197925,198003,197977
 5.4000e+001 198204 -1.0781e+006 -3.8866e+006 -1.7084e+006 175670 198103,198155,198129
 5.4000e+001 198181 -1.4177e+006 -3.3952e+006 -7.3441e+005 175670 198077,198155,198103
 5.4000e+001 198405 -1.3887e+005 -4.4084e+006 -8.2700e+005 175266 198255,198307,198281
 5.4000e+001 198382 -3.0030e+004 -5.0204e+006 -1.3402e+006 175266 198229,198307,198255
 5.4000e+001 198359 -1.0296e+006 -4.0692e+006 -2.0465e+006 175266 198229,198333,198307
 5.4000e+001 198606  1.6871e+003 -2.6986e+004 -1.5182e+002 174876 198430,198508,198482
 5.4000e+001 198583  4.4098e+003 -2.7418e+004  1.1100e+004 174876 198430,198534,198508
 5.4000e+001 198560 -4.7544e+003 -6.8907e+003 -6.2544e+003 174876 198430,198482,198456
 5.4000e+001 198758  1.6204e+000 -1.8485e-001  6.8135e-002 174536 198657,198709,198683
 5.4000e+001 198735 -1.0579e+000  2.5906e-001  2.1924e-001 174536 198631,198709,198657
 5.4000e+001 199008 -1.1799e+006 -5.7614e+006 -7.9687e+005 174132 198835,198913,198887
 5.4000e+001 198985 -2.7430e+005 -2.2454e+006 -6.2561e+004 174132 198809,198913,198835
 5.4000e+001 198962 -7.4621e+005 -2.6883e+006 -2.1463e+006 174132 198783,198913,198809
 5.4000e+001 198939 -6.4452e+005 -5.8701e+006 -6.8672e+005 174132 198835,198887,198861
 5.4000e+001 199160 -1.1465e+006 -1.6012e+006 -9.6966e+005 173842 199059,199111,199085
 5.4000e+001 199137 -8.0951e+005 -1.0913e+006 -6.6369e+005 173842 199033,199111,199059
 5.4000e+001 199361 -1.0051e+006 -3.2971e+006  3.3542e+005 173438 199237,199289,199263
 5.4000e+001 199338  2.1399e+004 -3.7608e+006  6.3262e+005 173438 199211,199289,199237
 5.4000e+001 199315 -8.7002e+003 -5.9137e+006 -1.1654e+006 173438 199185,199289,199211
 5.4000e+001 199513  4.0317e+005 -5.7990e+006 -1.5368e+005 173190 199386,199438,199412
 5.4000e+001 199490 -8.7972e+005 -5.2446e+006 -5.0997e+005 173190 199386,199464,199438
 5.4000e+001 199665 -5.0867e+005 -1.2976e+006  2.4950e+005 172750 199564,199616,199590
 5.4000e+001 199642 -8.5227e+005 -7.4319e+005  2.8934e+004 172750 199538,199616,199564
 5.4000e+001 199817 -1.4063e+005 -1.6949e+006 -3.1547e+005 172524 199690,199742,199716
 5.4000e+001 199794  3.7474e+004 -1.3691e+006 -4.4818e+005 172524 199690,199768,199742
 5.4000e+001 199969 -7.1621e+003 -6.5666e+006 -2.1875e+005 172348 199842,199894,199868
 5.4000e+001 199946 -8.1025e+005 -6.7763e+006 -1.0549e+005 172348 199842,199920,199894
 5.4000e+001 200121 -4.1373e+004 -8.6760e+005 -2.4781e+005 172008 199994,200046,200020
 5.4000e+001 200098 -5.9802e+004 -9.2469e+005 -2.3319e+005 172008 199994,200072,200046
 5.4000e+001 200273 -8.2053e+005 -5.7667e+006 -1.2803e+006 171668 200172,200224,200198
 5.4000e+001 200250 -7.2076e+005 -6.4170e+006 -8.8583e+005 171668 200146,200224,200172
 5.4000e+001 200474  2.8719e+005 -4.4384e+006 -7.8825e+005 171264 200350,200402,200376
 5.4000e+001 200451 -2.3504e+005 -4.7275e+006 -1.0263e+006 171264 200324,200402,200350
 5.4000e+001 200428 -3.1947e+005 -3.0713e+006  9.9035e+005 171264 200298,200402,200324
 5.4000e+001 200626 -3.2330e+005 -4.8949e+006 -6.1371e+005 170832 200525,200577,200551
 5.4000e+001 200603 -1.9269e+005 -2.5560e+006 -3.6637e+005 170832 200499,200577,200525
 5.4000e+001 200827 -1.1705e+005 -6.9612e+005  1.7674e+005 170492 200677,200729,200703
 5.4000e+001 200804 -7.4835e+005 -3.1716e+005 -8.5512e+004 170492 200651,200729,200677
 5.4000e+001 200781 -1.8510e+005 -2.5006e+006 -6.0196e+005 170492 200651,200755,200729
 5.4000e+001 201077 -2.3647e+004 -1.4378e+006 -1.8631e+004 170088 200878,200956,200904
 5.4000e+001 201054 -2.1698e+005 -8.9901e+005 -3.3781e+005 170088 200852,200956,200878
 5.4000e+001 201031  5.1579e+004 -5.4718e+005  6.8387e+005 170088 200904,200956,200930
 5.4000e+001 201008  1.0592e+006 -2.3235e+006  6.5289e+005 170088 200852,200982,200956
 5.4000e+001 201278 -1.1933e+006 -3.4470e+006 -2.3509e+006 169798 201102,201154,201128
 5.4000e+001 201255 -1.9141e+006 -5.8102e+006 -2.7821e+006 169798 201102,201206,201154
 5.4000e+001 201232 -3.1692e+006 -1.8053e+006 -1.3822e+006 169798 201154,201206,201180
 5.4000e+001 201430 -9.0359e+004 -5.5878e+005 -2.2645e+005 169337 201303,201355,201329
 5.4000e+001 201407 -1.1198e+005 -1.7367e+006 -4.1538e+005 169337 201303,201381,201355
 5.4000e+001 201631 -4.6690e+004 -1.5068e+006  3.6720e+005 168883 201481,201559,201507
 5.4000e+001 201608 -5.1835e+005 -1.9862e+006  4.0171e+004 168883 201455,201559,201481
 5.4000e+001 201585 -3.1881e+005 -9.4896e+005  2.0260e+005 168883 201507,201559,201533
 5.4000e+001 201832  2.0274e+005 -9.0660e+006  4.3285e+004 168479 201682,201734,201708
 5.4000e+001 201809 -2.7691e+006 -6.4431e+006 -2.2702e+006 168479 201656,201734,201682
 5.4000e+001 201786 -2.3296e+006 -4.6756e+006 -1.9277e+005 168479 201656,201760,201734
 5.4000e+001 202033 -2.3348e+005 -2.9330e+006  1.5626e+005 167825 201883,201935,201909
 5.4000e+001 202010 -1.2561e+006 -3.9527e+006 -1.7125e+006 167825 201857,201935,201883
 5.4000e+001 201987  2.0513e+005 -9.6498e+006 -9.2375e+005 167825 201857,201961,201935
 5.4000e+001 202234 -2.0177e+006 -2.6129e+006 -1.5916e+006 167435 202058,202136,202084
 5.4000e+001 202211 -6.5124e+005 -4.9163e+006  1.0601e+006 167435 202058,202162,202136
 5.4000e+001 202188 -1.6189e+006 -1.5530e+006 -7.7161e+005 167435 202084,202136,202110
 5.4000e+001 202386 -4.4558e+004 -6.4849e+005  1.5914e+005 167002 202285,202337,202311
 5.4000e+001 202363 -1.7663e+005 -2.3692e+005  1.7227e+005 167002 202259,202337,202285
 5.4000e+001 202538 -4.8647e+005 -2.5641e+006 -1.4551e+006 166662 202411,202463,202437
 5.4000e+001 202515 -1.9491e+005 -2.5409e+006 -1.6612e+006 166662 202411,202489,202463
 5.4000e+001 202690 -1.1471e+005 -9.4790e+005 -1.7685e+005 166322 202589,202641,202615
 5.4000e+001 202667 -6.1603e+004 -1.1938e+006 -3.5060e+005 166322 202563,202641,202589
 5.4000e+001 202891 -1.4028e+005 -3.1603e+005 -6.7774e+004 165918 202715,202767,202741
 5.4000e+001 202868 -2.6704e+005 -1.0362e+006 -5.2305e+005 165918 202715,202793,202767
 5.4000e+001 202845 -7.0660e+005 -1.7347e+006 -1.1769e+005 165918 202715,202819,202793
 5.4000e+001 203092 -1.6995e+005 -1.2494e+006 -4.1821e+005 165628 202916,202968,202942
 5.4000e+001 203069  6.9509e+004 -2.1071e+006 -3.3642e+005 165628 202916,202994,202968
 5.4000e+001 203046 -2.6439e+005 -1.7917e+006 -6.8853e+005 165628 202916,203020,202994
 5.4000e+001 203293 -5.1688e+006 -3.7514e+006 -2.7342e+006 165266 203143,203195,203169
 5.4000e+001 203270 -2.0182e+006 -7.1007e+006 -6.7367e+005 165266 203143,203221,203195
 5.4000e+001 203247 -8.7245e+005 -7.9581e+006 -1.6754e+006 165266 203117,203221,203143
 5.4000e+001 203445 -3.9461e+005 -5.0433e+005  1.5045e+005 164826 203318,203370,203344
 5.4000e+001 203422 -4.1939e+004 -2.8397e+005 -2.9136e+004 164826 203318,203396,203370
 5.4000e+001 203597 -3.3454e+005 -2.1314e+006 -2.3292e+005 164386 203470,203522,203496
 5.4000e+001 203574 -6.6390e+005 -2.8436e+006 -7.0806e+005 164386 203470,203548,203522
 5.4000e+001 203798 -2.3041e+005 -3.0745e+006  2.6819e+005 163996 203622,203674,203648
 5.4000e+001 203775 -1.5413e+006 -1.2268e+005 -1.8637e+005 163996 203622,203726,203674
 5.4000e+001 203752 -1.9238e+006 -1.1314e+006  6.0984e+005 163996 203674,203726,203700
 5.4000e+001 203901 -1.4153e+004 -1.8406e+006 -8.2481e+005 163770 203823,203875,203849
 5.4000e+001 204053 -9.9786e+005 -2.3172e+006 -4.7341e+005 163474 203952,204004,203978
 5.4000e+001 204030 -1.1772e+006 -2.6251e+006 -9.5025e+005 163474 203926,204004,203952
 5.4000e+001 204205 -6.6765e+005 -1.1777e+006 -1.6624e+005 163034 204104,204156,204130
 5.4000e+001 204182 -6.4979e+005 -2.5029e+006 -1.4780e+006 163034 204078,204156,204104
 5.4000e+001 204357 -5.2345e+005 -2.8211e+006  4.7449e+005 162624 204256,204308,204282
 5.4000e+001 204334 -2.8052e+005 -2.5952e+005  8.3903e+004 162624 204230,204308,204256
 5.4000e+001 204509  2.6749e+000  1.4977e-001 -6.4375e-001 162200 204382,204434,204408
 5.4000e+001 204486 -5.0029e+000 -8.1603e-001  1.4360e+000 162200 204382,204460,204434
 5.4000e+001 204710 -3.3342e+004 -4.0732e+005  8.4522e+004 161810 204560,204638,204586
 5.4000e+001 204687  1.1672e+004 -9.2737e+005 -4.6957e+005 161810 204534,204638,204560
 5.4000e+001 204664 -5.3945e+004 -1.5515e+005 -1.8144e+004 161810 204586,204638,204612
 5.4000e+001 204862 -2.1358e+006 -2.1571e+006 -2.1012e+006 161406 204735,204787,204761
 5.4000e+001 204839 -3.7156e+006 -1.4145e+006 -2.2451e+006 161406 204735,204813,204787
 5.4000e+001 205014  9.6459e-002  2.5486e-001  1.5679e-001 161180 204887,204939,204913
 5.4000e+001 204991 -2.0051e-001 -5.2979e-001 -3.2593e-001 161180 204887,204965,204939
 5.4000e+001 205215 -2.4584e+005 -8.1850e+005 -9.8679e+005 160726 205039,205091,205065
 5.4000e+001 205192 -7.6567e+005 -2.9246e+006 -9.4431e+005 160726 205039,205143,205091
 5.4000e+001 205169 -9.0234e+005 -1.2160e+006 -1.0014e+006 160726 205091,205143,205117
 5.4000e+001 205416  1.3566e+002 -4.2962e+001  1.2506e+002 160272 205292,205344,205318
 5.4000e+001 205393  2.4686e+002  1.4420e+002  2.0747e+002 160272 205240,205344,205292
 5.4000e+001 205370  3.1248e+002  3.1273e+002  8.1801e+001 160272 205240,205292,205266
 5.4000e+001 205568 -2.7785e+000 -3.8017e-001 -1.0278e+000 159932 205441,205493,205467
 5.4000e+001 205545  7.5229e-001  1.0293e-001  2.7827e-001 159932 205441,205519,205493
 5.4000e+001 205720 -5.0790e+004 -4.1323e+004  4.5990e+004 159542 205593,205645,205619
 5.4000e+001 205697 -6.6318e+004 -5.4362e+004  5.9764e+004 159542 205593,205671,205645
 5.4000e+001 205872 -1.5471e+000 -2.2230e-003 -5.8644e-002 159252 205745,205797,205771
 5.4000e+001 205849  1.2940e+000  1.8593e-003  4.9051e-002 159252 205745,205823,205797
 5.4000e+001 206024  7.1837e+004 -9.0460e+005 -1.1082e+005 159004 205923,205975,205949
 5.4000e+001 206001 -2.8015e+004 -9.6994e+005 -1.9228e+005 159004 205897,205975,205923
 5.4000e+001 206127 -4.4946e+006 -3.7882e+006  7.3322e+002 158364 206049,206101,206075
 5.4000e+001 206328  6.5498e-001  1.0488e+000 -8.9312e-001 157960 206178,206256,206204
 5.4000e+001 206305  1.1241e-001 -2.2392e-001 -4.8903e-001 157960 206152,206256,206178
 5.4000e+001 206282  8.4223e-002 -3.5172e-001  6.7323e-001 157960 206204,206256,206230
 5.4000e+001 206529 -1.6238e+006 -1.0405e+007  1.1017e+006 157648 206405,206457,206431
 5.4000e+001 206506 -4.7971e+006 -5.6930e+006  3.0048e+004 157648 206379,206457,206405
 5.4000e+001 206483 -3.2068e+006 -4.3404e+006  1.3812e+006 157648 206353,206457,206379
 5.4000e+001 206730  2.7909e+005 -1.1729e+006  8.1697e+004 157208 206554,206606,206580
 5.4000e+001 206707  7.4804e+004 -1.2455e+006  3.9959e+005 157208 206554,206632,206606
 5.4000e+001 206684 -8.5736e+005 -1.8324e+005 -7.2782e+005 157208 206554,206658,206632
 5.4000e+001 206882 -5.2097e-001 -1.1421e+000 -7.7135e-001 157010 206755,206807,206781
 5.4000e+001 206859  2.9999e-001  6.5764e-001  4.4417e-001 157010 206755,206833,206807
 5.4000e+001 207034 -1.4625e+004 -4.1455e+005 -8.2814e+003 156620 206907,206959,206933
 5.4000e+001 207011  1.2615e+004 -7.3528e+005  7.8718e+003 156620 206907,206985,206959
 5.4000e+001 207186 -1.8352e+004 -1.1990e+006  3.8687e+004 156330 207085,207137,207111
 5.4000e+001 207163 -1.0907e+005 -1.2894e+006 -6.5364e+005 156330 207059,207137,207085
 5.4000e+001 207387 -8.5330e+005 -3.5634e+006  1.1014e+006 155890 207211,207289,207237
 5.4000e+001 207364 -1.0417e+006 -3.7551e+006 -1.1169e+006 155890 207211,207315,207289
 5.4000e+001 207341 -9.6975e+005 -3.3843e+006  1.2032e+006 155890 207237,207289,207263
 5.4000e+001 207588 -1.6453e+005 -2.6904e+007  9.2141e+006 155436 207438,207490,207464
 5.4000e+001 207565 -9.9212e+005 -1.9987e+007 -9.0141e+005 155436 207412,207490,207438
 5.4000e+001 207542 -2.8124e+006 -1.0834e+007 -1.1479e+006 155436 207412,207516,207490
 5.4000e+001 207789  1.9017e+006 -3.9678e+007 -2.1795e+006 155260 207639,207691,207665
 5.4000e+001 207766 -4.8292e+006 -1.3478e+007  5.9850e+006 155260 207613,207691,207639
 5.4000e+001 207743 -1.3895e+006 -1.0350e+007 -1.7675e+004 155260 207613,207717,207691
 5.4000e+001 207990 -6.2407e-003  6.3695e-001 -1.4867e-001 154920 207840,207918,207892
 5.4000e+001 207967 -1.4094e-002 -5.9734e-001  9.1753e-002 154920 207814,207918,207840
 5.4000e+001 207944  4.7398e-002  1.4485e-001  8.2858e-002 154920 207840,207892,207866
 5.4000e+001 208191 -1.7313e+005 -1.5074e+006 -3.0314e+005 154630 208015,208093,208041
 5.4000e+001 208168 -1.2187e+004 -7.4045e+005 -3.1298e+005 154630 208015,208119,208093
 5.4000e+001 208145 -4.8096e+005 -6.4720e+005 -5.5781e+005 154630 208041,208093,208067
 5.4000e+001 208343  7.3552e-002  2.2787e-004  4.0939e-003 154240 208216,208268,208242
 5.4000e+001 208320 -1.4063e-001 -4.3568e-004 -7.8275e-003 154240 208216,208294,208268
 5.4000e+001 208495  3.2961e+006 -1.8763e+007 -5.4006e+006 153950 208394,208446,208420
 5.4000e+001 208472 -1.2725e+006 -7.3220e+006  2.3875e+006 153950 208368,208446,208394
 5.4000e+001 208647 -2.2632e+006 -6.0889e+006  6.6411e+006 153603 208520,208572,208546
 5.4000e+001 208624 -4.7389e+006 -4.3241e+006 -3.1023e+006 153603 208520,208598,208572
 5.4000e+001 208848 -4.6263e+004 -3.6617e+005  1.5553e+005 153149 208698,208776,208724
 5.4000e+001 208825  5.8570e+004 -8.4481e+005 -8.5598e+004 153149 208672,208776,208698
 5.4000e+001 208802 -1.6718e+005 -1.8150e+005  1.0803e+005 153149 208724,208776,208750
 5.4000e+001 209000 -8.4540e+005 -6.6005e+006 -1.2178e+005 152859 208873,208925,208899
 5.4000e+001 208977 -1.4901e+005 -1.0940e+007  6.0775e+005 152859 208873,208951,208925
 5.4000e+001 209152  5.4732e+005 -9.4394e+006  1.3991e+004 152569 209051,209103,209077
 5.4000e+001 209129 -1.4520e+005 -9.4727e+006 -7.1884e+004 152569 209025,209103,209051
 5.4000e+001 209304 -3.1909e-001 -4.4371e-001 -3.7627e-001 152065 209177,209229,209203
 5.4000e+001 209281  7.2938e-001  1.0142e+000  8.6009e-001 152065 209177,209255,209229
 5.4000e+001 209456 -9.0395e+005 -7.3568e+006 -2.0299e+005 151775 209355,209407,209381
 5.4000e+001 209433  8.5993e+003 -1.2121e+007 -5.6143e+004 151775 209329,209407,209355
 5.4000e+001 209608 -8.9156e+005 -1.0670e+007 -1.0249e+006 151371 209481,209533,209507
 5.4000e+001 209585  9.0224e+005 -1.5657e+007  4.1560e+005 151371 209481,209559,209533
 5.4000e+001 209760 -1.1843e+005 -9.0014e+005 -6.9453e+004 150981 209659,209711,209685
 5.4000e+001 209737 -2.8575e+005 -1.0383e+006 -6.2447e+005 150981 209633,209711,209659
 5.4000e+001 209912  2.8054e+006 -3.9823e+007 -3.4000e+006 150619 209811,209863,209837
 5.4000e+001 209889 -3.5571e+006 -1.7374e+007  4.3114e+006 150619 209785,209863,209811
 5.4000e+001 210064 -1.2196e+005 -2.0439e+005 -1.7825e+005 150279 209937,209989,209963
 5.4000e+001 210041  1.1240e+004 -1.9795e+006 -6.4669e+005 150279 209937,210015,209989
 5.4000e+001 210265 -2.0813e+006 -1.2103e+007  5.6811e+005 149989 210115,210167,210141
 5.4000e+001 210242 -1.8211e+005 -1.3327e+007 -9.7076e+005 149989 210115,210193,210167
 5.4000e+001 210219  2.4099e+005 -1.4380e+007 -7.0813e+005 149989 210089,210193,210115
 5.4000e+001 210417 -1.4087e+006 -1.3561e+006  1.9067e+005 149599 210316,210368,210342
 5.4000e+001 210394 -1.0755e+006 -2.0701e+006  1.7692e+005 149599 210290,210368,210316
 5.4000e+001 210618 -2.8290e+006 -1.5993e+007  5.3131e+006 149095 210468,210520,210494
 5.4000e+001 210595 -3.3575e+006 -1.5901e+007  2.6170e+006 149095 210442,210520,210468
 5.4000e+001 210572 -1.9311e+006 -2.3568e+007  3.4294e+006 149095 210442,210546,210520
 5.4000e+001 210819 -6.2130e-001 -1.7404e+000 -8.4469e-002 148748 210695,210747,210721
 5.4000e+001 210796  1.2144e+000  6.1101e-001  1.4593e-001 148748 210669,210747,210695
 5.4000e+001 210773 -1.5950e+000 -5.4400e+000  2.1736e+000 148748 210643,210747,210669
 5.4000e+001 210971 -1.0570e+002 -5.3096e+001 -3.2674e+001 148408 210870,210922,210896
 5.4000e+001 210948 -3.3695e+001 -7.5101e+001  5.0779e+001 148408 210844,210922,210870
 5.4000e+001 211123 -6.3919e+005 -7.0738e+006  1.0780e+006 148118 210996,211048,211022
 5.4000e+001 211100 -1.8810e+006 -8.1564e+006  4.2712e+006 148118 210996,211074,211048
 5.4000e+001 211275 -1.6357e+006 -5.8771e+006  1.7279e+006 147778 211148,211200,211174
 5.4000e+001 211252 -2.1252e+006 -1.2726e+007  6.5787e+006 147778 211148,211226,211200
 5.4000e+001 211427 -2.0101e+005 -5.8784e+006  2.2009e+006 147324 211326,211378,211352
 5.4000e+001 211404 -1.0180e+006 -5.1712e+006  2.2530e+006 147324 211300,211378,211326
 5.4000e+001 211628  8.2499e+001 -1.2303e+002 -4.5333e+001 147012 211452,211504,211478
 5.4000e+001 211605  7.1101e+001 -9.7236e+001 -2.5622e+001 147012 211452,211556,211504
 5.4000e+001 211582  6.5109e+001 -1.0362e+001 -6.0636e+001 147012 211504,211556,211530
 5.4000e+001 211829 -3.2280e+006 -4.5559e+006  1.5972e+006 146636 211679,211757,211731
 5.4000e+001 211806  1.8360e+006 -9.9722e+006  8.3752e+005 146636 211653,211757,211679
 5.4000e+001 211783  6.5606e+005 -6.3599e+006  4.7816e+006 146636 211679,211731,211705
 5.4000e+001 211981 -5.7052e+002 -2.5253e+002 -4.6379e+002 146246 211880,211932,211906
 5.4000e+001 211958 -1.7555e+002 -1.3638e+002 -1.6385e+002 146246 211854,211932,211880
 5.4000e+001 212133 -2.0370e+002 -1.5839e+002 -1.4127e+002 145956 212006,212058,212032
 5.4000e+001 212110 -2.2926e+001 -2.5056e+002 -1.0122e+002 145956 212006,212084,212058
 5.4000e+001 212285 -9.7363e+002  2.9822e+002 -1.7822e+002 145544 212184,212236,212210
 5.4000e+001 212262 -7.4379e+002 -2.3418e+001  5.6753e+001 145544 212158,212236,212184
 5.4000e+001 212486 -4.2542e+005 -1.7380e+007  4.0893e+006 144990 212362,212414,212388
 5.4000e+001 212463  1.5626e+005 -1.3949e+007  5.9869e+006 144990 212310,212414,212362
 5.4000e+001 212440 -4.3224e+006 -2.9229e+006  2.8062e+006 144990 212310,212362,212336
 5.4000e+001 212638  9.6442e+000 -1.9768e+000  1.7914e+000 144600 212537,212589,212563
 5.4000e+001 212615  8.6746e+000  3.6504e-001  1.0469e+001 144600 212511,212589,212537
 5.4000e+001 212839 -4.1476e+005 -2.0891e+006  5.3642e+005 144210 212689,212741,212715
 5.4000e+001 212816 -3.4890e+005 -2.1445e+006  6.1192e+005 144210 212663,212741,212689
 5.4000e+001 212793 -4.0947e+005 -2.5121e+006  7.4223e+005 144210 212663,212767,212741
 5.4000e+001 212991 -1.9189e-001  6.3021e-003  1.8122e-001 143920 212890,212942,212916
 5.4000e+001 212968  3.4486e-001  1.0966e-001 -4.8364e-001 143920 212864,212942,212890
 5.4000e+001 213143 -8.5258e+002 -5.5438e+001  5.1361e+001 143480 213016,213068,213042
 5.4000e+001 213120 -1.9651e+002  4.2695e+001  1.7661e+001 143480 213016,213094,213068
 5.4000e+001 213295 -1.4597e+006 -7.6043e+006  3.9390e+006 142990 213194,213246,213220
 5.4000e+001 213272 -1.2574e+006 -3.7154e+006  2.5298e+006 142990 213168,213246,213194
 5.4000e+001 213447  3.8941e+005 -3.3990e+006  9.0874e+005 142600 213320,213372,213346
 5.4000e+001 213424 -1.7873e+005 -2.0972e+006 -2.3556e+005 142600 213320,213398,213372
 5.4000e+001 213599  2.0288e+001  2.5119e+001  2.7778e+001 142260 213472,213524,213498
 5.4000e+001 213576 -1.6676e+001  1.9321e+001  2.0812e+001 142260 213472,213550,213524
 5.4000e+001 213751 -2.1523e+005 -7.5614e+005 -3.7334e+005 141870 213624,213676,213650
 5.4000e+001 213728 -3.6925e+005 -6.5790e+005 -5.8012e+005 141870 213624,213702,213676
 5.4000e+001 213903 -8.6844e+005 -1.0975e+006 -1.0183e+006 141530 213776,213828,213802
 5.4000e+001 213880 -2.8699e+005 -1.3119e+006 -5.5703e+005 141530 213776,213854,213828
 5.4000e+001 214055 -4.8951e+001 -5.5263e+002  8.6314e-001 141218 213928,213980,213954
 5.4000e+001 214032 -6.6232e+001 -1.2531e+003  2.1694e+002 141218 213928,214006,213980
 5.4000e+001 214207 -2.0719e+001 -2.4601e+002  7.8525e+001 140928 214080,214132,214106
 5.4000e+001 214184  1.6312e+002 -2.0683e+002  2.1261e+002 140928 214080,214158,214132
 5.4000e+001 214359 -2.7008e+001 -4.3533e+001 -4.5690e+001 140538 214232,214284,214258
 5.4000e+001 214336 -1.4350e+002 -4.5447e+001 -4.7658e+001 140538 214232,214310,214284
 5.4000e+001 214560 -2.6826e+005 -4.2727e+006  8.4488e+005 140248 214384,214462,214410
 5.4000e+001 214537  5.9315e+004 -2.2155e+006  5.2635e+005 140248 214384,214488,214462
 5.4000e+001 214514 -3.4918e+005 -2.4126e+006 -1.5790e+005 140248 214410,214462,214436
 5.4000e+001 214712 -1.4232e+006 -7.7560e+006  2.0592e+006 140000 214611,214663,214637
 5.4000e+001 214689 -1.1594e+006 -5.3861e+006  2.0695e+006 140000 214585,214663,214611
 5.4000e+001 214913 -2.5637e+005 -9.7693e+005 -5.6592e+005 139596 214737,214815,214763
 5.4000e+001 214890 -2.4350e+005 -2.4328e+005 -7.7671e+004 139596 214737,214841,214815
 5.4000e+001 214867  5.1647e+005 -3.3777e+006 -3.5753e+003 139596 214763,214815,214789
 5.4000e+001 215016 -4.8269e+003 -7.6590e+002 -1.1775e+003 139420 214938,214990,214964
 5.4000e+001 215168 -4.0679e+006 -1.1172e+007  6.8264e+006 139130 215067,215119,215093
 5.4000e+001 215145 -1.4100e+006 -1.2619e+007  2.2858e+006 139130 215041,215119,215067
 5.4000e+001 215320 -1.8498e+006 -6.8552e+006  3.9294e+006 138790 215219,215271,215245
 5.4000e+001 215297 -1.6948e+006 -1.0995e+007  4.9805e+006 138790 215193,215271,215219
 5.4000e+001 215472 -1.9924e+002 -4.4885e+001 -8.3711e+001 138514 215345,215397,215371
 5.4000e+001 215449 -4.8818e+002  2.8750e+002 -3.5084e+002 138514 215345,215423,215397
 5.4000e+001 215624 -1.0677e+005 -9.5504e+006  1.7824e+006 138174 215497,215549,215523
 5.4000e+001 215601  1.1886e+005 -7.2336e+006  1.2941e+006 138174 215497,215575,215549
 5.4000e+001 215776 -3.5378e+005 -9.4469e+005  8.0676e+005 137734 215649,215701,215675
 5.4000e+001 215753 -3.1276e+005 -4.0483e+005 -5.6114e+005 137734 215649,215727,215701
 5.4000e+001 215977  1.2839e+006 -1.8319e+007  4.2476e+006 137344 215801,215879,215827
 5.4000e+001 215954 -1.9097e+006 -7.4644e+006 -3.7754e+006 137344 215801,215905,215879
 5.4000e+001 215931 -1.9557e+006 -2.1270e+007  1.9731e+006 137344 215827,215879,215853
 5.4000e+001 216129 -2.9523e+005 -3.5592e+006  2.2018e+005 136940 216028,216080,216054
 5.4000e+001 216106 -6.2173e+005 -5.3350e+006  3.4007e+005 136940 216002,216080,216028
 5.4000e+001 216330 -1.7062e+006 -8.8758e+006  1.7703e+006 136600 216180,216232,216206
 5.4000e+001 216307 -3.2253e+005 -8.5906e+006  2.1896e+006 136600 216154,216232,216180
 5.4000e+001 216284 -1.9466e+006 -5.4237e+006  5.8947e+005 136600 216154,216258,216232
 5.4000e+001 216482 -2.6958e+005 -6.4054e+006  1.4578e+006 136260 216381,216433,216407
 5.4000e+001 216459 -8.6506e+005 -5.9881e+006  1.2388e+006 136260 216355,216433,216381
 5.4000e+001 216634 -1.5868e+006 -7.6654e+006  3.0283e+006 135970 216533,216585,216559
 5.4000e+001 216611 -8.1720e+005 -1.1148e+007  3.7689e+006 135970 216507,216585,216533
 5.4000e+001 216835 -3.6450e+005 -2.0039e+006 -5.7462e+005 135608 216685,216763,216711
 5.4000e+001 216812 -9.0572e+004 -1.4645e+006  1.3077e+005 135608 216659,216763,216685
 5.4000e+001 216789 -1.9499e+005 -4.5096e+006  6.4439e+004 135608 216711,216763,216737
 5.4000e+001 217036 -5.2947e+005 -9.7965e+005  7.1859e+005 135312 216912,216964,216938
 5.4000e+001 217013 -5.5755e+005 -2.7238e+006  1.4684e+006 135312 216886,216964,216912
 5.4000e+001 216990  6.7581e+005 -5.9009e+006  8.3663e+005 135312 216860,216964,216886
 5.4000e+001 217237 -5.4265e+004 -5.0175e+005  1.7177e+005 134908 217061,217139,217113
 5.4000e+001 217214 -8.5380e+004 -5.2307e+005  2.2934e+005 134908 217061,217165,217139
 5.4000e+001 217191 -2.9272e+004 -6.7373e+005  2.3830e+005 134908 217061,217113,217087
 5.4000e+001 217438 -2.9641e+006 -1.9989e+007  1.2506e+006 134568 217288,217366,217314
 5.4000e+001 217415  2.2807e+006 -3.4563e+007  9.8606e+005 134568 217262,217366,217288
 5.4000e+001 217392 -7.7452e+005 -1.8577e+007 -8.2314e+005 134568 217314,217366,217340
 5.4000e+001 217590  3.4298e+002  6.4552e+002 -3.7173e+002 134106 217463,217515,217489
 5.4000e+001 217567  1.1441e+003  5.6823e+002 -1.8804e+001 134106 217463,217541,217515
 5.4000e+001 217791 -1.7795e+006 -2.8051e+007 -7.7188e+006 133816 217641,217693,217667
 5.4000e+001 217768  3.0579e+006 -3.2140e+007  3.2603e+006 133816 217641,217719,217693
 5.4000e+001 217745 -6.7877e+006 -3.4943e+006  4.8701e+006 133816 217615,217719,217641
 5.4000e+001 217992 -4.3072e+006 -5.2421e+006  4.7195e+006 133355 217842,217920,217894
 5.4000e+001 217969  3.8032e+005 -1.3398e+007  1.4333e+006 133355 217816,217920,217842
 5.4000e+001 217946 -1.2315e+006 -2.9803e+006  1.0823e+006 133355 217842,217894,217868
 5.4000e+001 218193 -7.1432e+005 -8.6167e+006 -4.3700e+005 132851 218017,218095,218069
 5.4000e+001 218170 -4.1605e+006 -9.6206e+006  7.1518e+006 132851 218017,218121,218095
 5.4000e+001 218147 -2.3278e+006 -4.2131e+006 -1.4038e+006 132851 218017,218069,218043
 5.4000e+001 218345 -1.0022e+005 -6.8274e+005  1.9649e+005 132511 218244,218296,218270
 5.4000e+001 218322 -6.2746e+004 -1.2186e+006  3.0622e+005 132511 218218,218296,218244
 5.4000e+001 218497  1.9593e+006 -3.0734e+007 -2.5136e+005 132235 218396,218448,218422
 5.4000e+001 218474 -7.2462e+005 -9.7574e+006  6.3243e+005 132235 218370,218448,218396
 5.4000e+001 218698 -9.9448e+004 -9.3784e+006 -8.9319e+005 131945 218574,218626,218600
 5.4000e+001 218675 -1.7921e+006 -1.6547e+007 -8.5868e+005 131945 218522,218626,218574
 5.4000e+001 218652 -5.5271e+005 -1.4691e+007 -1.7890e+006 131945 218522,218574,218548
 5.4000e+001 218850 -3.4343e+005 -1.9218e+007  5.2713e+005 131655 218723,218775,218749
 5.4000e+001 218827  5.0332e+005 -1.2617e+007  2.6043e+005 131655 218723,218801,218775
 5.4000e+001 218953 -1.0643e+005 -1.8417e+006  1.7499e+005 131215 218875,218927,218901
 5.4000e+001 219105 -1.1999e+005 -3.5571e+006 -1.2887e+006 130875 218978,219030,219004
 5.4000e+001 219082 -4.3413e+005 -7.6320e+005 -3.8308e+005 130875 218978,219056,219030
 5.4000e+001 219306 -2.3902e+005 -2.5409e+006 -1.7594e+005 130429 219156,219234,219208
 5.4000e+001 219283 -4.9589e+005 -9.4100e+005  1.3414e+005 130429 219130,219234,219156
 5.4000e+001 219260 -2.0407e+006 -3.0239e+006  2.7054e+005 130429 219156,219208,219182
 5.4000e+001 219507 -1.9917e+005 -6.7693e+005  2.2686e+005 130025 219383,219435,219409
 5.4000e+001 219484 -1.6062e+005 -1.0882e+006  4.0618e+005 130025 219331,219435,219383
 5.4000e+001 219461 -1.8424e+005 -4.5702e+005  1.2634e+005 130025 219331,219383,219357
 5.4000e+001 219659 -1.5124e+006 -6.5339e+006  1.0792e+006 129685 219558,219610,219584
 5.4000e+001 219636  4.3489e+005 -1.1364e+007 -5.1336e+006 129685 219532,219610,219558
 5.4000e+001 219860 -1.1068e+005 -1.6709e+006  5.7819e+005 129395 219710,219788,219762
 5.4000e+001 219837 -4.4190e+005 -1.2541e+006  4.1100e+005 129395 219684,219788,219710
 5.4000e+001 219814  1.8277e+005 -2.4946e+006 -2.8851e+004 129395 219710,219762,219736
 5.4000e+001 220061  9.2088e+004 -1.3722e+006  1.7828e+005 128991 219937,219989,219963
 5.4000e+001 220038  2.9452e+003 -1.4074e+006  1.3513e+005 128991 219885,219989,219937
 5.4000e+001 220015 -1.8923e+005 -2.1833e+006  1.1259e+005 128991 219885,219937,219911
 5.4000e+001 220262 -2.8227e+005 -7.3690e+005  9.2234e+004 128701 220086,220164,220112
 5.4000e+001 220239 -1.0056e+005 -1.3104e+006  3.0775e+005 128701 220086,220190,220164
 5.4000e+001 220216 -9.2469e+004 -8.9508e+005 -2.4344e+005 128701 220112,220164,220138
 5.4000e+001 220463 -3.4887e+006 -8.1217e+006  3.3937e+006 128297 220339,220391,220365
 5.4000e+001 220440  1.9974e+006 -1.9112e+007  7.3064e+005 128297 220313,220391,220339
 5.4000e+001 220417 -3.2031e+005 -2.2685e+007 -4.7399e+006 128297 220287,220391,220313
 5.4000e+001 220615 -1.3330e+006 -3.7684e+006 -1.2117e+006 128007 220488,220540,220514
 5.4000e+001 220592  1.1035e+006 -1.2471e+007  1.1223e+005 128007 220488,220566,220540
 5.4000e+001 220767  5.7055e+004 -4.6215e+006 -3.0204e+004 127567 220640,220692,220666
 5.4000e+001 220744 -4.4505e+005 -1.6915e+006 -1.0294e+005 127567 220640,220718,220692
 5.4000e+001 220919 -1.2484e+006 -1.6501e+007 -1.8259e+006 127163 220792,220844,220818
 5.4000e+001 220896  6.7287e+005 -1.9694e+007  2.7753e+006 127163 220792,220870,220844
 5.4000e+001 221071 -1.7552e+006 -4.5717e+006  2.3984e+006 126915 220970,221022,220996
 5.4000e+001 221048 -1.8510e+006 -4.8259e+006  2.2863e+006 126915 220944,221022,220970
 5.4000e+001 221272 -2.0190e+006 -4.3408e+006  3.0573e+006 126461 221122,221174,221148
 5.4000e+001 221249 -4.3369e+006 -5.8206e+006  1.3957e+005 126461 221122,221200,221174
 5.4000e+001 221226  1.2978e+006 -1.3598e+007 -3.1944e+006 126461 221096,221200,221122
 5.4000e+001 221375  7.1738e+000 -1.1899e+005 -1.5063e+001 126213 221297,221349,221323
 5.4000e+001 221478  8.8240e+002 -1.3202e+004 -7.2935e+001 125766 221400,221452,221426
 5.4000e+001 221679 -4.3358e+004 -7.9117e+005  1.0004e+005 125212 221503,221555,221529
 5.4000e+001 221656 -5.3093e+004 -9.8402e+005  3.2552e+004 125212 221503,221581,221555
 5.4000e+001 221633  5.2916e+005 -2.9681e+006  9.4681e+005 125212 221503,221607,221581
 5.4000e+001 221929 -8.0875e+003 -1.0053e+003 -2.8257e+003 124872 221782,221834,221808
 5.4000e+001 221906 -2.1811e+004 -1.4136e+003  1.1754e+004 124872 221756,221834,221782
 5.4000e+001 221883 -5.5621e+004 -2.6292e+003 -3.5122e+004 124872 221704,221834,221756
 5.4000e+001 221860 -9.9022e+004 -2.2864e+004  2.5797e+004 124872 221704,221756,221730
 5.4000e+001 222130 -4.2104e+005 -8.3851e+006  4.2060e+004 124582 221980,222058,222006
 5.4000e+001 222107 -1.9984e+006 -8.2148e+006  2.6245e+005 124582 221954,222058,221980
 5.4000e+001 222084 -1.7161e+006 -8.0040e+006 -4.0182e+005 124582 222006,222058,222032
 5.4000e+001 222282 -1.8523e+006 -8.0049e+006 -2.1933e+006 124192 222181,222233,222207
 5.4000e+001 222259 -8.8469e+005 -7.0805e+006 -1.3491e+006 124192 222155,222233,222181
 5.4000e+001 222483 -2.0332e+005 -5.9045e+006 -3.4462e+006 123702 222333,222385,222359
 5.4000e+001 222460 -2.5231e+005 -2.7122e+006  2.1564e+005 123702 222333,222411,222385
 5.4000e+001 222437 -2.3119e+005 -9.5913e+005 -2.4694e+005 123702 222307,222411,222333
 5.4000e+001 222635 -8.7082e+005 -1.4688e+006 -7.5707e+005 123312 222508,222560,222534
 5.4000e+001 222612  4.8891e+005 -7.1591e+006 -4.6608e+005 123312 222508,222586,222560
 5.4000e+001 222787  2.3609e+004 -3.7128e+005 -3.8199e+004 122858 222686,222738,222712
 5.4000e+001 222764 -7.6334e+004 -6.4262e+005 -1.6940e+005 122858 222660,222738,222686
 5.4000e+001 222939 -2.3625e+005 -1.3671e+006 -2.7806e+004 122568 222812,222864,222838
 5.4000e+001 222916 -2.9060e+005 -1.0578e+006  4.0398e+005 122568 222812,222890,222864
 5.4000e+001 223091 -7.4257e+005 -3.9801e+006 -1.0319e+006 122392 222964,223016,222990
 5.4000e+001 223068 -9.0963e+003 -4.3138e+006 -5.5721e+005 122392 222964,223042,223016
 5.4000e+001 223292 -6.7387e+005 -3.5746e+006 -2.7665e+005 121852 223142,223220,223194
 5.4000e+001 223269 -2.8139e+006 -3.0784e+006 -2.0455e+005 121852 223116,223220,223142
 5.4000e+001 223246 -3.3084e+006 -3.4777e+006 -2.7123e+006 121852 223142,223194,223168
 5.4000e+001 223493 -5.7830e+005 -2.6703e+006  1.6664e+005 121406 223343,223395,223369
 5.4000e+001 223470 -2.0837e+006 -2.0592e+006 -5.7213e+005 121406 223343,223421,223395
 5.4000e+001 223447 -5.0356e+005 -1.1277e+006  3.7343e+005 121406 223317,223421,223343
 5.4000e+001 223645  3.4919e+005 -9.2750e+006  9.9716e+005 121002 223544,223596,223570
 5.4000e+001 223622 -1.0157e+006 -5.2648e+006  1.1814e+006 121002 223518,223596,223544
 5.4000e+001 223846 -2.0802e+005 -3.0139e+006 -1.6040e+005 120662 223670,223748,223696
 5.4000e+001 223823  3.0430e+004 -1.5438e+006  4.4202e+004 120662 223670,223774,223748
 5.4000e+001 223800 -5.8386e+005 -1.3840e+006 -7.7978e+005 120662 223696,223748,223722
 5.4000e+001 224047 -3.2434e+005 -1.8004e+006  1.0518e+004 120222 223897,223949,223923
 5.4000e+001 224024  2.8417e+005 -1.9606e+006 -1.6785e+005 120222 223871,223949,223897
 5.4000e+001 224001 -2.8754e+005 -1.2333e+006 -3.8411e+005 120222 223871,223975,223949
 5.4000e+001 224248 -8.2232e+004 -1.0962e+006 -8.0810e+005 119875 224124,224176,224150
 5.4000e+001 224225 -9.6631e+005 -2.7454e+006 -1.4721e+006 119875 224098,224176,224124
 5.4000e+001 224202 -1.5988e+005 -5.2342e+005 -1.2046e+004 119875 224072,224176,224098
 5.4000e+001 224449 -2.0056e+004 -1.7527e+006 -3.2033e+004 119677 224325,224377,224351
 5.4000e+001 224426 -6.1449e+004 -1.9183e+006 -3.1077e+004 119677 224299,224377,224325
 5.4000e+001 224403  4.6197e+003 -4.6200e+005 -1.0580e+004 119677 224273,224377,224299
 5.4000e+001 224552 -1.5667e+005 -3.1171e+005 -1.0883e+005 119273 224474,224526,224500
 5.4000e+001 224704 -2.3449e+005 -2.7878e+006 -2.1314e+005 118983 224603,224655,224629
 5.4000e+001 224681 -3.3984e+005 -3.4084e+006 -5.6895e+005 118983 224577,224655,224603
 5.4000e+001 224856 -2.2909e+005 -2.3885e+006 -3.5637e+005 118529 224755,224807,224781
 5.4000e+001 224833  2.4064e+004 -3.7646e+006 -6.1739e+005 118529 224729,224807,224755
 5.4000e+001 225008 -3.3909e+005 -3.7223e+006  3.7873e+004 118353 224881,224933,224907
 5.4000e+001 224985 -1.4321e+005 -6.0432e+004 -2.5713e+004 118353 224881,224959,224933
 5.4000e+001 225209 -3.8447e+005 -6.1031e+006 -1.2920e+006 117949 225059,225137,225111
 5.4000e+001 225186 -3.1462e+005 -5.5360e+006 -2.9228e+005 117949 225033,225137,225059
 5.4000e+001 225163 -4.7775e+005 -6.9007e+006 -8.7122e+005 117949 225059,225111,225085
 5.4000e+001 225410 -6.2783e+004 -6.0104e+006  8.2905e+005 117559 225260,225338,225312
 5.4000e+001 225387 -8.5608e+005 -6.3455e+006  3.7345e+005 117559 225234,225338,225260
 5.4000e+001 225364 -4.8379e+005 -4.0870e+006 -1.4061e+006 117559 225260,225312,225286
 5.4000e+001 225611 -1.5411e+006 -7.4935e+006 -2.7302e+006 117361 225461,225513,225487
 5.4000e+001 225588 -9.0435e+005 -7.9925e+006  1.1098e+006 117361 225461,225539,225513
 5.4000e+001 225565 -9.4163e+005 -7.1159e+006  1.6879e+006 117361 225435,225539,225461
 5.4000e+001 225812  3.9832e+005 -7.1040e+006 -1.0376e+006 116900 225636,225714,225662
 5.4000e+001 225789 -8.5886e+005 -4.3438e+006 -1.2841e+006 116900 225636,225740,225714
 5.4000e+001 225766 -5.5576e+003 -7.2627e+006 -2.0123e+005 116900 225662,225714,225688
 5.4000e+001 225964 -1.8458e+004 -3.1262e+006 -1.8370e+005 116560 225837,225889,225863
 5.4000e+001 225941  1.5775e+005 -3.5806e+006 -1.2012e+005 116560 225837,225915,225889
 5.4000e+001 226165 -1.8736e+005 -2.2152e+006 -6.9961e+005 116106 226015,226093,226041
 5.4000e+001 226142 -1.0199e+006 -2.1090e+006 -1.6973e+006 116106 225989,226093,226015
 5.4000e+001 226119 -1.8216e+006 -1.0699e+006  5.1343e+005 116106 226041,226093,226067
 5.4000e+001 226268 -1.1777e+006 -4.9265e+006  6.4773e+005 115716 226190,226242,226216
 5.4000e+001 226420 -4.9002e+005 -7.5651e+006  1.7062e+006 115376 226293,226345,226319
 5.4000e+001 226397 -5.9584e+005 -7.6657e+006  1.8456e+006 115376 226293,226371,226345
 5.4000e+001 226621 -2.5879e+005 -1.0399e+006  1.0374e+005 114972 226497,226549,226523
 5.4000e+001 226598 -4.6711e+005 -6.1520e+006 -6.0152e+005 114972 226445,226549,226497
 5.4000e+001 226575 -1.4601e+005 -2.6614e+006  5.3533e+005 114972 226445,226497,226471
 5.4000e+001 226773 -1.1057e+006 -1.6754e+006 -8.5504e+005 114670 226646,226698,226672
 5.4000e+001 226750  3.2381e+005 -4.3433e+006  3.0187e+005 114670 226646,226724,226698
 5.4000e+001 226974  1.7835e+004 -9.2197e+005 -1.7869e+005 114082 226798,226850,226824
 5.4000e+001 226951  5.7100e+004 -1.2874e+006 -4.9833e+004 114082 226798,226902,226850
 5.4000e+001 226928  2.4794e+004 -1.7582e+006 -1.8544e+005 114082 226850,226902,226876
 5.4000e+001 227175 -5.1574e+005 -4.7912e+006 -2.1918e+006 113678 226999,227051,227025
 5.4000e+001 227152 -1.8285e+006 -8.6926e+006 -3.4954e+006 113678 226999,227077,227051
 5.4000e+001 227129 -2.5215e+006 -5.5770e+006 -3.0377e+006 113678 226999,227103,227077
 5.4000e+001 227425 -3.3622e+006 -8.4906e+006 -8.9490e+006 113274 227226,227278,227252
 5.4000e+001 227402 -3.7363e+005 -7.9371e+006 -1.5735e+006 113274 227226,227330,227278
 5.4000e+001 227379 -3.6762e+006 -4.3600e+006 -1.7060e+006 113274 227200,227330,227226
 5.4000e+001 227356 -1.2870e+006 -1.5227e+006 -1.6302e+006 113274 227278,227330,227304
 5.4000e+001 227626 -8.3943e+004 -2.3122e+006 -1.0656e+006 112934 227502,227554,227528
 5.4000e+001 227603  4.6145e+004 -1.7328e+006 -1.4041e+005 112934 227450,227554,227502
 5.4000e+001 227580 -1.0188e+006 -7.2168e+005 -1.2508e+005 112934 227450,227502,227476
 5.4000e+001 227876 -3.0656e+005 -8.9356e+005  6.7514e+004 112437 227677,227755,227703
 5.4000e+001 227853 -7.2579e+005 -1.0778e+006  6.4132e+005 112437 227677,227781,227755
 5.4000e+001 227830 -2.3491e+005 -5.8416e+005  2.5989e+005 112437 227703,227755,227729
 5.4000e+001 227807 -3.1207e+005 -2.7225e+006  8.2200e+004 112437 227651,227781,227677
 5.4000e+001 228126 -1.6374e+005 -4.0976e+006 -2.5359e+005 112041 227927,228005,227953
 5.4000e+001 228103 -3.1444e+005 -3.6667e+006 -1.5399e+004 112041 227927,228031,228005
 5.4000e+001 228080  1.6072e+005 -5.2247e+006 -4.8824e+004 112041 227953,228005,227979
 5.4000e+001 228057 -9.1430e+005 -2.3743e+006 -4.1332e+005 112041 227901,228031,227927
 5.4000e+001 228327 -1.2726e+006 -2.2640e+006 -4.6540e+005 111693 228151,228203,228177
 5.4000e+001 228304 -6.8869e+005 -1.4759e+006 -8.7737e+005 111693 228151,228229,228203
 5.4000e+001 228281  6.5232e+004 -2.6899e+006  1.1178e+004 111693 228151,228255,228229
 5.4000e+001 228479 -3.6721e+006 -2.4193e+006 -3.8208e+006 111253 228352,228404,228378
 5.4000e+001 228456 -2.3259e+006 -4.7926e+005 -1.4142e+005 111253 228352,228430,228404
 5.4000e+001 228582 -4.6390e+005 -7.4723e+005  3.1169e+004 110906 228504,228556,228530
 5.4000e+001 228783 -1.0198e+004 -1.0610e+006 -2.1398e+004 110416 228633,228711,228659
 5.4000e+001 228760  6.2513e+004 -7.8431e+005  3.9975e+003 110416 228607,228711,228633
 5.4000e+001 228737  2.1512e+004 -9.8444e+005 -4.5016e+004 110416 228659,228711,228685
 5.4000e+001 228935 -7.9631e+004 -1.9686e+006 -3.8962e+005 110012 228808,228860,228834
 5.4000e+001 228912 -5.9901e+005 -3.7797e+006 -9.2491e+005 110012 228808,228886,228860
 5.4000e+001 229087 -1.3772e+006 -2.2244e+006 -4.9701e+005 109672 228960,229012,228986
 5.4000e+001 229064 -7.6506e+005 -3.7470e+006 -3.8992e+004 109672 228960,229038,229012
 5.4000e+001 229190 -5.8626e+004 -8.2754e+005  2.6086e+004 109332 229112,229164,229138
 5.4000e+001 229391 -3.5623e+005 -9.4107e+004  1.0902e+005 109156 229267,229319,229293
 5.4000e+001 229368 -3.6291e+005 -6.0167e+005  1.8391e+005 109156 229215,229319,229267
 5.4000e+001 229345 -1.8161e+005 -1.1551e+005 -2.3355e+004 109156 229215,229267,229241
 5.4000e+001 229543  1.2215e+005 -9.6034e+006  1.2583e+006 108752 229416,229468,229442
 5.4000e+001 229520 -9.7174e+005 -5.0171e+006 -3.0071e+005 108752 229416,229494,229468
 5.4000e+001 229744 -1.8459e+005 -6.1011e+006 -1.6133e+005 108198 229594,229646,229620
 5.4000e+001 229721  5.2978e+005 -5.9532e+006  2.6104e+005 108198 229594,229672,229646
 5.4000e+001 229698 -7.9060e+005 -5.3920e+006  4.6318e+005 108198 229568,229672,229594
 5.4000e+001 229847 -5.9300e+004 -1.1040e+006 -2.2893e+005 107758 229769,229821,229795
 5.4000e+001 230048 -5.7573e+005 -1.4858e+006 -2.1780e+005 107468 229898,229950,229924
 5.4000e+001 230025 -4.2698e+005 -1.4214e+006 -1.5167e+005 107468 229872,229950,229898
 5.4000e+001 230002 -6.2988e+005 -1.6748e+006  6.1930e+004 107468 229872,229976,229950
 5.4000e+001 230298  2.2463e+004 -5.3853e+005  2.0715e+004 107121 230099,230203,230177
 5.4000e+001 230275  1.5209e+005 -1.0917e+006  9.7764e+004 107121 230073,230203,230099
 5.4000e+001 230252  9.9214e+004 -5.2407e+005  1.5807e+004 107121 230099,230177,230151
 5.4000e+001 230229 -5.6776e+004 -3.7679e+005 -1.4629e+005 107121 230099,230151,230125
 5.4000e+001 230450  6.5930e+004 -8.9841e+005 -6.5030e+004 106823 230349,230401,230375
 5.4000e+001 230427 -3.8039e+004 -4.1764e+005  3.6396e+004 106823 230323,230401,230349
 5.4000e+001 230602 -2.1268e+006 -1.1435e+007 -7.3849e+006 106533 230501,230553,230527
 5.4000e+001 230579 -3.7745e+005 -1.1271e+007  1.0911e+006 106533 230475,230553,230501
 5.4000e+001 230803 -4.1232e+004 -1.1879e+006 -2.6015e+004 106029 230679,230731,230705
 5.4000e+001 230780  3.1834e+004 -8.9507e+005 -1.6773e+004 106029 230653,230731,230679
 5.4000e+001 230757 -1.2131e+004 -9.7598e+005 -5.0051e+004 106029 230627,230731,230653
 5.4000e+001 231004 -1.0261e+005 -8.2577e+005 -3.5279e+003 105689 230854,230906,230880
 5.4000e+001 230981 -1.6169e+005 -1.3236e+006 -5.1904e+005 105689 230828,230906,230854
 5.4000e+001 230958 -3.4256e+005 -1.2731e+006 -5.6246e+005 105689 230828,230932,230906
 5.4000e+001 231156  2.3278e+005 -7.0768e+006 -2.5112e+005 105377 231055,231107,231081
 5.4000e+001 231133  4.5906e+005 -5.7341e+006  2.6357e+005 105377 231029,231107,231055
 5.4000e+001 231406 -2.5480e+005 -8.6679e+006 -1.3324e+006 104858 231207,231259,231233
 5.4000e+001 231383 -1.6297e+006 -8.8703e+006 -1.4000e+006 104858 231207,231311,231259
 5.4000e+001 231360 -6.1612e+005 -1.0795e+007 -2.3257e+006 104858 231259,231311,231285
 5.4000e+001 231337 -9.0806e+005 -1.2033e+007 -2.2333e+006 104858 231181,231311,231207
 5.4000e+001 231558 -1.4433e+006 -1.3794e+007  3.9181e+006 104418 231457,231509,231483
 5.4000e+001 231535 -2.2732e+006 -1.3596e+007 -7.2298e+006 104418 231431,231509,231457
 5.4000e+001 231710 -1.5066e+006 -8.5799e+005 -3.8997e+005 103978 231583,231635,231609
 5.4000e+001 231687 -1.0041e+006 -1.0002e+006 -6.6360e+005 103978 231583,231661,231635
 5.4000e+001 231862 -1.4843e+004 -1.7002e+006  8.0056e+003 103588 231761,231813,231787
 5.4000e+001 231839  6.9949e+004 -1.3710e+006  3.1303e+004 103588 231735,231813,231761
 5.4000e+001 232014 -2.2714e+006 -9.2315e+006 -2.8583e+006 103248 231887,231939,231913
 5.4000e+001 231991 -1.8948e+006 -1.9448e+007 -7.1287e+006 103248 231887,231965,231939
 5.4000e+001 232215 -6.1841e+004 -1.1000e+006  4.1955e+004 102844 232039,232117,232065
 5.4000e+001 232192  4.3813e+004 -5.9614e+005  4.2209e+004 102844 232039,232143,232117
 5.4000e+001 232169 -1.3875e+005 -7.3427e+005 -2.0984e+005 102844 232065,232117,232091
 5.4000e+001 232416 -4.3913e+006 -1.1028e+007 -4.1200e+006 102554 232240,232318,232292
 5.4000e+001 232393  1.1158e+006 -1.7868e+007  1.1003e+005 102554 232240,232344,232318
 5.4000e+001 232370 -5.6435e+006 -4.2530e+006 -8.1725e+005 102554 232240,232292,232266
 5.4000e+001 232568 -2.8166e+004 -6.4680e+005  2.2444e+004 102100 232441,232493,232467
 5.4000e+001 232545 -3.8684e+005 -7.8321e+005  1.7697e+005 102100 232441,232519,232493
 5.4000e+001 232769 -2.2124e+004 -2.7615e+005  4.6803e+004 101596 232645,232697,232671
 5.4000e+001 232746  9.3374e+003 -1.5178e+005  2.5990e+004 101596 232593,232697,232645
 5.4000e+001 232723 -7.8246e+003 -2.6600e+005  4.5767e+004 101596 232593,232645,232619
 5.4000e+001 232921 -9.5727e+000 -1.7626e+002 -2.6210e+000 101420 232794,232846,232820
 5.4000e+001 232898  2.2888e+000 -7.8369e+001  6.1694e-001 101420 232794,232872,232846
 5.4000e+001 233073 -8.7116e+005 -6.6018e+005 -4.6200e+005 101023 232946,232998,232972
 5.4000e+001 233050 -2.5726e+005 -1.4364e+006  1.2432e+005 101023 232946,233024,232998
 5.4000e+001 233225  5.2697e+004 -1.0923e+006 -4.5635e+003 100661 233098,233150,233124
 5.4000e+001 233202 -3.3565e+004 -7.0966e+005 -2.4637e+004 100661 233098,233176,233150
 5.4000e+001 233426 -2.1941e+006 -7.6672e+006 -2.6485e+006 100265 233276,233328,233302
 5.4000e+001 233403 -1.0743e+006 -6.4463e+006 -9.6442e+004 100265 233276,233354,233328
 5.4000e+001 233380 -1.8076e+006 -8.8434e+006 -8.8488e+005 100265 233250,233354,233276
 5.4000e+001 233578 -4.3498e+002 -2.9659e+005  1.0664e+004 100032 233451,233503,233477
 5.4000e+001 233555 -7.2037e+004 -3.1353e+005  2.0197e+004 100032 233451,233529,233503
 5.4000e+001 233681 -6.5856e+005  2.3024e+004  1.1693e+004 99742 233603,233655,233629
 5.4000e+001 233784 -4.6668e+005 -2.6902e+006 -3.7819e+005 99402 233706,233758,233732
 5.4000e+001 233936 -5.4555e+005 -1.3435e+006  1.0696e+005 99062 233835,233887,233861
 5.4000e+001 233913 -5.2010e+005 -1.3087e+006  3.8522e+005 99062 233809,233887,233835
 5.4000e+001 234088 -7.8772e+005 -3.3660e+006  1.0797e+006 98772 233987,234039,234013
 5.4000e+001 234065 -3.1595e+005 -3.2911e+006  9.4464e+005 98772 233961,234039,233987
 5.4000e+001 234240 -1.4762e+004 -5.8076e+004  1.9519e+004 98160 234139,234191,234165
 5.4000e+001 234217 -1.8788e+004 -7.2119e+004 -9.6628e+003 98160 234113,234191,234139
 5.4000e+001 234441  1.3033e+002 -7.5797e+001 -1.2929e+002 97820 234317,234369,234343
 5.4000e+001 234418  1.5349e+002  7.7409e+001  5.3493e+001 97820 234291,234369,234317
 5.4000e+001 234395  1.1732e+002 -2.4676e+002 -7.5489e+000 97820 234265,234369,234291
 5.4000e+001 234593 -4.6550e+005 -9.7774e+005 -3.8222e+005 97366 234466,234518,234492
 5.4000e+001 234570  2.6429e+005 -3.3931e+006 -5.5713e+005 97366 234466,234544,234518
 5.4000e+001 234794 -8.0058e+005 -1.2407e+006 -8.6209e+005 96976 234618,234670,234644
 5.4000e+001 234771 -1.9987e+005 -2.5132e+006 -7.0696e+005 96976 234618,234722,234670
 5.4000e+001 234748 -6.8962e+005 -2.6365e+006 -1.4601e+006 96976 234670,234722,234696
 5.4000e+001 234946 -1.0527e+006 -1.9407e+006  8.6466e+005 96568 234845,234897,234871
 5.4000e+001 234923 -7.5816e+005 -1.1613e+006  1.2528e+006 96568 234819,234897,234845
 5.4000e+001 235196 -1.6632e+005 -7.3670e+005 -2.0824e+005 96216 234997,235075,235049
 5.4000e+001 235173  8.3311e+004 -3.5539e+006  1.0023e+006 96216 234997,235101,235075
 5.4000e+001 235150 -3.8211e+005 -9.2989e+005  9.3621e+004 96216 234997,235049,235023
 5.4000e+001 235127 -1.5994e+005 -3.7254e+006  7.7207e+005 96216 234971,235101,234997
 5.4000e+001 235348 -1.3757e+006 -1.8986e+006 -1.4078e+006 95863 235247,235299,235273
 5.4000e+001 235325 -9.8114e+005 -1.3811e+006 -9.3593e+005 95863 235221,235299,235247
 5.4000e+001 235500 -7.3628e+005 -2.2126e+006 -1.0900e+006 95339 235373,235425,235399
 5.4000e+001 235477 -3.7900e+005 -3.7187e+006  2.6872e+006 95339 235373,235451,235425
 5.4000e+001 235701  9.1688e+004 -3.2334e+006  6.7510e+005 95023 235525,235577,235551
 5.4000e+001 235678 -1.4082e+005 -3.1865e+006  6.3305e+005 95023 235525,235629,235577
 5.4000e+001 235655 -1.3948e+005 -5.5019e+006  1.1110e+006 95023 235577,235629,235603
 5.4000e+001 235853  1.0367e+006 -1.2514e+007  1.2000e+006 94671 235726,235778,235752
 5.4000e+001 235830 -3.1488e+005 -1.0075e+007 -6.3018e+005 94671 235726,235804,235778
 5.4000e+001 236005 -1.2847e+006 -8.7104e+006 -6.8130e+005 94261 235904,235956,235930
 5.4000e+001 235982 -3.3969e+005 -1.1210e+007 -3.1455e+006 94261 235878,235956,235904
 5.4000e+001 236206 -6.2939e+005 -4.1125e+005  8.1365e+005 93853 236056,236134,236082
 5.4000e+001 236183 -1.2852e+006 -5.9104e+005  4.7388e+005 93853 236030,236134,236056
 5.4000e+001 236160 -7.6668e+005 -6.7877e+005  6.9839e+005 93853 236082,236134,236108
 5.4000e+001 236407 -5.2035e+005 -6.9031e+006  1.1950e+006 93557 236257,236309,236283
 5.4000e+001 236384 -1.8708e+006 -8.1751e+006 -3.1555e+006 93557 236231,236309,236257
 5.4000e+001 236361 -9.2464e+005 -1.5544e+007 -4.9596e+005 93557 236231,236335,236309
 5.4000e+001 236559 -1.2074e+003 -4.2697e+004  1.3787e+004 93149 236432,236484,236458
 5.4000e+001 236536  1.6919e+004 -9.4845e+003  3.6061e+004 93149 236432,236510,236484
 5.4000e+001 236711 -1.2883e+004 -6.0006e+004  8.8955e+003 92853 236584,236636,236610
 5.4000e+001 236688 -1.0728e+004 -2.6611e+005  5.3059e+004 92853 236584,236662,236636
 5.4000e+001 236912 -3.5972e+005 -2.9788e+006  1.2348e+006 92501 236736,236788,236762
 5.4000e+001 236889 -5.8277e+005 -1.6236e+006  4.7204e+005 92501 236736,236840,236788
 5.4000e+001 236866 -7.1446e+005 -2.3819e+006  3.6071e+005 92501 236788,236840,236814
 5.4000e+001 237113 -1.3275e+005 -5.4988e+006  2.3760e+005 92291 236963,237041,237015
 5.4000e+001 237090  1.5413e+005 -3.0266e+006  5.5461e+004 92291 236937,237041,236963
 5.4000e+001 237067 -2.6352e+005 -4.9957e+006  1.1473e+006 92291 236963,237015,236989
 5.4000e+001 237265  1.2111e+005 -1.0068e+006 -5.1285e+005 91871 237138,237190,237164
 5.4000e+001 237242 -9.4450e+005 -2.9877e+006 -1.4049e+006 91871 237138,237216,237190
 5.4000e+001 237368  2.7628e+002 -1.3648e+006 -1.9140e+002 91581 237290,237342,237316
 5.4000e+001 237520 -1.3302e+004 -7.6774e+004  1.4505e+004 91184 237419,237471,237445
 5.4000e+001 237497 -3.7388e+004 -1.8960e+005 -8.3774e+004 91184 237393,237471,237419
 5.4000e+001 237672 -7.3929e+005 -1.2612e+006 -3.5021e+005 90894 237545,237597,237571
 5.4000e+001 237649 -2.4422e+005 -4.7312e+006  1.1784e+006 90894 237545,237623,237597
 5.4000e+001 237873 -9.1562e+005 -4.9874e+006  9.2301e+005 90490 237749,237801,237775
 5.4000e+001 237850 -7.2930e+005 -3.7533e+006  1.0061e+006 90490 237723,237801,237749
 5.4000e+001 237827 -1.2218e+006 -3.8849e+006 -5.4008e+005 90490 237697,237801,237723
 5.4000e+001 238074 -8.5430e+005 -6.2910e+006  4.5510e+005 90100 237898,237976,237950
 5.4000e+001 238051 -1.7684e+006 -6.3168e+006  2.2714e+005 90100 237898,238002,237976
 5.4000e+001 238028 -7.2615e+005 -5.9127e+006  3.6016e+005 90100 237898,237950,237924
 5.4000e+001 238275 -8.1083e+004 -2.2697e+006  1.1931e+006 89696 238125,238177,238151
 5.4000e+001 238252 -3.5669e+005 -1.2762e+006 -9.0337e+005 89696 238099,238177,238125
 5.4000e+001 238229 -8.2883e+005 -1.6106e+006 -5.9773e+005 89696 238099,238203,238177
 5.4000e+001 238427  1.0213e+004 -3.3551e+004 -1.3489e+004 89206 238326,238378,238352
 5.4000e+001 238404 -1.1097e+004 -1.9512e+005 -3.4608e+004 89206 238300,238378,238326
 5.4000e+001 238579 -8.8573e+005 -3.8239e+006  2.0750e+006 88908 238452,238504,238478
 5.4000e+001 238556 -1.8937e+005 -2.7701e+006  5.5349e+004 88908 238452,238530,238504
 5.4000e+001 238682 -5.9562e+001 -5.6189e+005 -1.5209e+002 88568 238604,238656,238630
 5.4000e+001 238883  2.5792e+005 -6.2387e+006  1.8749e+006 88278 238733,238811,238785
 5.4000e+001 238860 -8.4226e+005 -3.0897e+006  1.6283e+006 88278 238707,238811,238733
 5.4000e+001 238837 -2.3498e+005 -6.6424e+006  1.2490e+006 88278 238733,238785,238759
 5.4000e+001 239035 -1.4897e+006 -4.1827e+006 -4.3599e+005 87988 238908,238960,238934
 5.4000e+001 239012 -1.5900e+006 -1.8527e+006  2.2177e+005 87988 238908,238986,238960
 5.4000e+001 239138  7.2739e+004 -4.8687e+005  1.9074e+005 87648 239060,239112,239086
 5.4000e+001 239339 -1.1203e+006 -3.3138e+006 -2.0699e+006 87358 239163,239215,239189
 5.4000e+001 239316 -1.1062e+006 -2.0966e+006 -5.6547e+005 87358 239163,239241,239215
 5.4000e+001 239293 -8.4653e+005 -1.1764e+006 -9.7669e+005 87358 239163,239267,239241
 5.4000e+001 239589  7.8210e+001 -1.5062e+003 -4.4278e+001 86961 239390,239468,239416
 5.4000e+001 239566 -9.1512e+002 -8.0198e+002  1.4140e+003 86961 239390,239494,239468
 5.4000e+001 239543  1.4863e+002 -2.9876e+002 -2.2682e+001 86961 239416,239468,239442
 5.4000e+001 239520 -9.5916e+002 -1.9847e+003  1.0582e+003 86961 239364,239494,239390
 5.4000e+001 239741 -1.0557e+006 -3.4729e+006 -3.7806e+005 86621 239640,239692,239666
 5.4000e+001 239718 -1.8738e+005 -4.3754e+006 -9.8873e+005 86621 239614,239692,239640
 5.4000e+001 239893 -6.2903e+005 -5.5228e+006  1.6114e+006 86217 239792,239844,239818
 5.4000e+001 239870 -7.3524e+005 -4.2554e+006  1.0397e+006 86217 239766,239844,239792
 5.4000e+001 240045 -8.8610e+005 -4.0755e+006  8.7954e+005 85827 239918,239970,239944
 5.4000e+001 240022 -2.2338e+005 -3.8900e+006  3.0219e+005 85827 239918,239996,239970
 5.4000e+001 240197 -7.0670e+005 -8.2622e+006  1.2028e+006 85437 240096,240148,240122
 5.4000e+001 240174 -1.6370e+006 -9.5547e+005 -4.5498e+005 85437 240070,240148,240096
 5.4000e+001 240349 -7.7785e+004 -1.7679e+006  5.4012e+005 85147 240222,240274,240248
 5.4000e+001 240326 -1.1375e+005 -1.0415e+006 -1.6282e+005 85147 240222,240300,240274
 5.4000e+001 240501 -2.8648e+005 -1.2892e+006  5.6144e+005 84807 240374,240426,240400
 5.4000e+001 240478 -1.6062e+006 -2.1339e+006  1.2789e+006 84807 240374,240452,240426
 5.4000e+001 240653 -1.1448e-001  5.0573e-002 -6.3845e-001 84303 240552,240604,240578
 5.4000e+001 240630  3.4799e-001 -2.9283e-002 -3.3576e-002 84303 240526,240604,240552
 5.4000e+001 240854 -1.0503e+005 -1.1121e+007 -5.2065e+006 83929 240704,240756,240730
 5.4000e+001 240831  1.5964e+006 -9.0080e+006  2.3151e+006 83929 240704,240782,240756
 5.4000e+001 240808 -3.2137e+006  1.7397e+006  2.6660e+006 83929 240678,240782,240704
 5.4000e+001 241055 -9.8113e+003 -1.4918e+004 -5.6427e+003 83539 240879,240957,240931
 5.4000e+001 241032 -4.3268e+004 -1.4592e+004 -1.6584e+004 83539 240879,240983,240957
 5.4000e+001 241009 -9.4117e+003 -5.8539e+003 -7.4948e+003 83539 240879,240931,240905
 5.4000e+001 241207  5.5411e+004 -1.9704e+006  1.6929e+005 83079 241106,241158,241132
 5.4000e+001 241184  4.4138e+004 -1.2184e+006  2.7821e+005 83079 241080,241158,241106
 5.4000e+001 241408  1.4699e+006 -3.3738e+006  6.7894e+005 82665 241232,241284,241258
 5.4000e+001 241385 -2.1660e+006 -1.5041e+007 -4.7401e+006 82665 241232,241336,241284
 5.4000e+001 241362 -5.0270e+006  6.8974e+006  8.3970e+006 82665 241284,241336,241310
 5.4000e+001 241658 -2.6017e+005 -4.2745e+006  5.0306e+005 82375 241485,241563,241511
 5.4000e+001 241635  1.7479e+004 -2.4849e+006  2.5331e+005 82375 241433,241563,241485
 5.4000e+001 241612 -9.3102e+004 -2.9329e+006  2.6710e+005 82375 241433,241485,241459
 5.4000e+001 241589 -6.1245e+005 -4.7810e+006  7.5474e+005 82375 241511,241563,241537
 5.4000e+001 241810 -9.7324e+005 -3.2489e+006 -3.8652e+005 82035 241683,241735,241709
 5.4000e+001 241787 -1.3397e+006 -4.1210e+006  7.2908e+005 82035 241683,241761,241735
 5.4000e+001 241962 -7.5329e+005 -3.1488e+006  5.9574e+005 81695 241861,241913,241887
 5.4000e+001 241939 -2.4593e+005 -3.8652e+006 -7.6528e+005 81695 241835,241913,241861
 5.4000e+001 242114 -1.3321e+006 -7.0507e+006  2.4507e+006 81355 242013,242065,242039
 5.4000e+001 242091 -2.4469e+005 -3.5978e+006  1.0463e+006 81355 241987,242065,242013
 5.4000e+001 242266 -4.8766e+004 -5.7846e+005 -1.1670e+005 80951 242139,242191,242165
 5.4000e+001 242243 -3.2481e+005 -1.6251e+006 -3.3920e+005 80951 242139,242217,242191
 5.4000e+001 242467 -4.6684e+005 -5.1566e+006  5.8243e+005 80311 242291,242369,242343
 5.4000e+001 242444  6.1658e+004 -2.8379e+006  4.8979e+005 80311 242291,242395,242369
 5.4000e+001 242421 -3.3985e+005 -1.8340e+006  1.3848e+005 80311 242291,242343,242317
 5.4000e+001 242619 -1.5396e+006 -3.3624e+006  4.7492e+005 80021 242492,242544,242518
 5.4000e+001 242596 -1.4250e+006 -2.9898e+006  1.6140e+006 80021 242492,242570,242544
 5.4000e+001 242869 -5.3080e+005 -7.1817e+005 -8.3760e+003 79631 242644,242722,242696
 5.4000e+001 242846 -1.5733e+005 -1.9540e+006  2.1878e+005 79631 242644,242774,242722
 5.4000e+001 242823 -2.3068e+004 -1.6098e+006  1.2333e+004 79631 242722,242774,242748
 5.4000e+001 242800 -5.1162e+005 -7.1479e+005  6.7316e+004 79631 242644,242696,242670
 5.4000e+001 243070 -7.9791e+004 -1.6567e+007  3.6700e+006 79341 242920,242972,242946
 5.4000e+001 243047 -8.5710e+005 -8.7042e+006 -3.1701e+005 79341 242920,242998,242972
 5.4000e+001 243024 -1.0446e+006 -5.6198e+006  2.4230e+006 79341 242894,242998,242920
 5.4000e+001 243222 -4.9692e+005 -4.2547e+006  1.7323e+006 78801 243121,243173,243147
 5.4000e+001 243199 -5.4020e+005 -4.5756e+006  1.5448e+006 78801 243095,243173,243121
 5.4000e+001 243423 -8.4871e+005 -4.8812e+006 -6.6661e+005 78511 243273,243325,243299
 5.4000e+001 243400  8.2903e+005 -9.8384e+006  1.9171e+006 78511 243273,243351,243325
 5.4000e+001 243377 -6.4238e+003 -1.0151e+007  2.5506e+005 78511 243247,243351,243273
 5.4000e+001 243624 -4.5297e+005 -4.5334e+006 -1.5219e+006 78107 243474,243552,243526
 5.4000e+001 243601 -4.8253e+005 -4.9846e+006 -1.4503e+006 78107 243448,243552,243474
 5.4000e+001 243578 -2.1092e+005 -4.8259e+006 -1.8209e+006 78107 243474,243526,243500
 5.4000e+001 243776 -7.2098e+005 -4.8034e+006 -8.1301e+005 77653 243649,243701,243675
 5.4000e+001 243753 -1.6152e+006 -7.9194e+006 -3.3405e+005 77653 243649,243727,243701
 5.4000e+001 243977 -4.3461e+005 -6.1038e+006  2.4470e+004 77093 243801,243853,243827
 5.4000e+001 243954 -7.3493e+004 -5.0050e+006  7.2082e+005 77093 243801,243879,243853
 5.4000e+001 243931 -1.3034e+005 -2.4921e+006 -8.8145e+004 77093 243801,243905,243879
 5.4000e+001 244080 -1.4073e+006 -5.0831e+006  5.7200e+005 76791 244002,244054,244028
 5.4000e+001 244232 -2.9787e+005 -4.8729e+006  1.1312e+004 76311 244131,244183,244157
 5.4000e+001 244209 -2.5070e+005 -9.6344e+006  5.0686e+005 76311 244105,244183,244131
 5.4000e+001 244433 -1.8774e+006 -1.8968e+007  5.0310e+006 75903 244283,244335,244309
 5.4000e+001 244410 -1.6009e+006 -1.2092e+007 -8.7877e+004 75903 244283,244361,244335
 5.4000e+001 244387 -2.5964e+006 -1.0659e+007  9.4088e+005 75903 244257,244361,244283
 5.4000e+001 244585 -7.3264e+004 -1.8307e+007  1.7318e+006 75419 244458,244510,244484
 5.4000e+001 244562 -9.4174e+005 -1.1024e+007  4.2018e+004 75419 244458,244536,244510
 5.4000e+001 244737 -4.9034e+005 -2.0516e+006 -2.0555e+005 75215 244636,244688,244662
 5.4000e+001 244714 -4.8093e+005 -3.0069e+006 -2.2772e+005 75215 244610,244688,244636
 5.4000e+001 244889 -1.0000e+006 -5.4994e+006 -4.2971e+005 74857 244788,244840,244814
 5.4000e+001 244866 -2.0807e+005 -2.4354e+006 -1.9920e+005 74857 244762,244840,244788
 5.4000e+001 245041  6.9477e+003 -3.9209e+005 -2.4770e+005 74653 244940,244992,244966
 5.4000e+001 245018 -5.6936e+004 -8.1298e+004  1.6500e+005 74653 244914,244992,244940
 5.4000e+001 245144 -1.0760e+006 -6.4115e+006 -1.4020e+006 74359 245066,245118,245092
 5.4000e+001 245296 -8.6195e+004 -1.3552e+006 -4.2529e+005 74007 245169,245221,245195
 5.4000e+001 245273 -4.8636e+005 -2.3378e+006 -7.2641e+005 74007 245169,245247,245221
 5.4000e+001 245448 -1.2467e+006 -7.2801e+006  1.4544e+006 73711 245321,245373,245347
 5.4000e+001 245425 -4.0776e+005 -7.0258e+006 -2.1745e+006 73711 245321,245399,245373
 5.4000e+001 245600  5.2684e+005 -1.3863e+007 -9.3992e+005 73301 245499,245551,245525
 5.4000e+001 245577 -1.6345e+006 -1.0144e+007  1.9817e+006 73301 245473,245551,245499
 5.4000e+001 245752 -1.9119e+006 -2.8286e+006 -1.7423e+006 72995 245625,245677,245651
 5.4000e+001 245729  4.4587e+005 -1.1017e+007 -1.3020e+006 72995 245625,245703,245677
 5.4000e+001 245953 -2.5843e+006 -1.0277e+007  1.1274e+006 72585 245777,245829,245803
 5.4000e+001 245930 -1.1707e+006 -1.7005e+007  4.4681e+006 72585 245777,245855,245829
 5.4000e+001 245907 -3.1322e+004 -7.5955e+006  1.0811e+006 72585 245777,245881,245855
 5.4000e+001 246154 -3.6615e+005 -7.0891e+006  1.2734e+006 72127 246030,246082,246056
 5.4000e+001 246131 -1.1441e+006 -9.2879e+006  6.3741e+005 72127 245978,246082,246030
 5.4000e+001 246108 -6.1161e+004 -9.2484e+006  5.0680e+004 72127 245978,246030,246004
 5.4000e+001 246257 -8.9015e+005 -1.3364e+006 -5.1326e+005 71737 246179,246231,246205
 5.4000e+001 246360  1.5855e+005 -3.2353e+006  4.5778e+005 71447 246282,246334,246308
 5.4000e+001 246512 -3.5880e+005 -2.9943e+006  1.1828e+006 71157 246385,246437,246411
 5.4000e+001 246489 -1.1128e+005 -2.2927e+006 -5.3451e+004 71157 246385,246463,246437
 5.4000e+001 246664 -1.5711e+005 -2.7342e+006 -4.0353e+005 70753 246537,246589,246563
 5.4000e+001 246641 -6.3996e+005 -1.4733e+006 -1.9856e+005 70753 246537,246615,246589
 5.4000e+001 246865 -2.3885e+006 -1.1658e+007  7.6290e+006 70249 246715,246767,246741
 5.4000e+001 246842 -1.8061e+006 -1.0467e+007 -7.5994e+005 70249 246715,246793,246767
 5.4000e+001 246819 -4.1351e+005 -1.2479e+007 -1.8813e+006 70249 246689,246793,246715
 5.4000e+001 247066  2.5612e+004 -2.4191e+006  2.7416e+005 70023 246916,246994,246942
 5.4000e+001 247043 -6.3139e+004 -2.2670e+006  3.3223e+005 70023 246890,246994,246916
 5.4000e+001 247020  7.1970e+004 -2.3951e+006  4.3135e+005 70023 246942,246994,246968
 5.4000e+001 247267 -4.1233e+005 -4.5433e+006 -4.2064e+005 69633 247091,247143,247117
 5.4000e+001 247244 -8.4357e+004 -3.1769e+006 -2.1753e+005 69633 247091,247169,247143
 5.4000e+001 247221  6.4652e+001 -3.1975e+006 -3.2406e+005 69633 247091,247195,247169
 5.4000e+001 247419 -1.0415e+006 -6.2044e+006  4.2190e+005 69457 247318,247370,247344
 5.4000e+001 247396 -1.3589e+006 -2.7929e+006  6.9335e+005 69457 247292,247370,247318
 5.4000e+001 247522 -1.2418e+000 -8.7153e+001  2.2731e-001 69209 247444,247496,247470
 5.4000e+001 247625 -1.8501e+006 -1.8562e+006 -1.3097e+006 68919 247547,247599,247573
 5.4000e+001 247777  1.3831e+005 -7.1626e+006 -2.1167e+005 68579 247650,247702,247676
 5.4000e+001 247754 -2.4359e+005 -2.0281e+006 -7.8878e+004 68579 247650,247728,247702
 5.4000e+001 247929  1.0968e+005 -3.9069e+006  1.6768e+006 68289 247802,247854,247828
 5.4000e+001 247906 -2.1528e+005 -1.6775e+006 -3.2056e+005 68289 247802,247880,247854
 5.4000e+001 248081 -3.6435e+005 -5.1023e+006  1.6761e+006 67949 247980,248032,248006
 5.4000e+001 248058 -5.3909e+005 -6.1118e+005  2.3969e+005 67949 247954,248032,247980
 5.4000e+001 248233 -1.4059e+006 -6.9862e+006 -7.1593e+005 67616 248132,248184,248158
 5.4000e+001 248210 -6.0950e+005 -6.3266e+006 -2.6871e+005 67616 248106,248184,248132
 5.4000e+001 248434 -1.4479e+005 -4.5315e+006 -1.8523e+005 67212 248284,248336,248310
 5.4000e+001 248411 -7.6985e+004 -4.5538e+006 -3.1552e+005 67212 248258,248336,248284
 5.4000e+001 248388 -1.6676e+006 -2.3440e+006 -6.4267e+005 67212 248258,248362,248336
 5.4000e+001 248586 -3.0026e+004 -5.7457e+006  7.4288e+005 66872 248485,248537,248511
 5.4000e+001 248563 -5.3525e+005 -1.0075e+006  6.9230e+004 66872 248459,248537,248485
 5.4000e+001 248738 -4.3927e+005 -6.3835e+006  1.9083e+005 66510 248637,248689,248663
 5.4000e+001 248715 -5.9324e+005 -8.5428e+006  1.7651e+005 66510 248611,248689,248637
 5.4000e+001 248890 -2.0495e+004 -5.2393e+005  1.0325e+005 66220 248789,248841,248815
 5.4000e+001 248867 -5.1484e+004 -6.7143e+005 -1.7967e+005 66220 248763,248841,248789
 5.4000e+001 249091 -1.0979e+006 -1.0310e+007  3.2767e+006 65759 248915,248967,248941
 5.4000e+001 249068 -8.6181e+005 -9.3339e+006  3.2824e+006 65759 248915,248993,248967
 5.4000e+001 249045 -5.9242e+005 -6.3766e+006  1.0871e+006 65759 248915,249019,248993
 5.4000e+001 249243  1.0466e+004 -9.1745e+006  1.6437e+006 65419 249142,249194,249168
 5.4000e+001 249220  2.2436e+005 -3.1906e+006  2.1631e+005 65419 249116,249194,249142
 5.4000e+001 249395 -2.6318e+005 -2.4359e+006 -2.1891e+005 65079 249268,249320,249294
 5.4000e+001 249372 -3.0803e+005 -4.0585e+006 -6.3298e+005 65079 249268,249346,249320
 5.4000e+001 249547 -3.9871e+005 -2.1686e+006  4.5350e+005 64739 249420,249472,249446
 5.4000e+001 249524  6.1968e+005 -1.6466e+006 -2.4677e+005 64739 249420,249498,249472
 5.4000e+001 249650 -1.6326e+006 -4.7433e+006 -2.4012e+006 64342 249572,249624,249598
 5.4000e+001 249851 -5.5240e+005 -3.6228e+006 -3.8563e+005 63938 249701,249779,249753
 5.4000e+001 249828 -1.3356e+005 -3.7614e+006  1.0547e+006 63938 249675,249779,249701
 5.4000e+001 249805 -4.3504e+005 -6.7280e+006 -2.5590e+005 63938 249701,249753,249727
 5.4000e+001 250052 -6.4149e+005 -5.9123e+006 -7.8421e+005 63341 249876,249954,249902
 5.4000e+001 250029 -9.7574e+005 -6.7996e+006 -5.4327e+005 63341 249876,249980,249954
 5.4000e+001 250006  7.1755e+005 -7.1228e+006  2.3079e+005 63341 249902,249954,249928
 5.4000e+001 250253 -1.2864e+005 -3.6704e+006 -5.2259e+005 63058 250077,250129,250103
 5.4000e+001 250230 -8.5011e+005 -2.0437e+006  2.4772e+005 63058 250077,250155,250129
 5.4000e+001 250207 -1.6623e+005 -1.6576e+006 -1.7389e+005 63058 250077,250181,250155
 5.4000e+001 250454 -8.6219e+005 -7.7730e+006  1.1917e+006 62832 250304,250382,250330
 5.4000e+001 250431  1.8013e+005 -9.6402e+006 -2.5049e+006 62832 250278,250382,250304
 5.4000e+001 250408 -2.0745e+006 -5.1246e+006  2.7357e+005 62832 250330,250382,250356
 5.4000e+001 250606  2.1038e+002 -1.7207e+007 -6.8327e+005 62428 250479,250531,250505
 5.4000e+001 250583 -5.0107e+005 -1.5962e+007 -8.1150e+005 62428 250479,250557,250531
 5.4000e+001 250758  7.1229e+004 -8.2790e+006  7.3063e+005 62202 250631,250683,250657
 5.4000e+001 250735 -3.1989e+005 -8.4497e+006  8.7761e+005 62202 250631,250709,250683
 5.4000e+001 250861 -7.2813e+005 -3.7758e+006 -2.5093e+005 61954 250783,250835,250809
 5.4000e+001 251062 -2.6055e+006 -1.3765e+007 -3.4071e+005 61557 250912,250990,250938
 5.4000e+001 251039  2.8160e+004 -1.6680e+007 -4.3775e+005 61557 250886,250990,250912
 5.4000e+001 251016 -1.7566e+006 -1.7915e+007 -2.6514e+006 61557 250938,250990,250964
 5.4000e+001 251263 -7.2172e+005 -8.2867e+006 -1.5714e+005 61167 251113,251165,251139
 5.4000e+001 251240 -4.0659e+005 -7.6361e+006 -4.0771e+005 61167 251113,251191,251165
 5.4000e+001 251217 -1.2706e+006 -7.4203e+006  1.9704e+006 61167 251087,251191,251113
 5.4000e+001 251415 -7.0763e+005 -8.3256e+006  2.1043e+006 60827 251288,251340,251314
 5.4000e+001 251392 -7.7401e+005 -3.4385e+006 -5.2686e+005 60827 251288,251366,251340
 5.4000e+001 251567  1.8011e+005 -4.9727e+006  3.6747e+004 60487 251466,251518,251492
 5.4000e+001 251544 -3.8156e+004 -5.0174e+006 -3.2864e+005 60487 251440,251518,251466
 5.4000e+001 251719 -1.0189e+005 -1.0986e+007 -4.0924e+005 59983 251592,251644,251618
 5.4000e+001 251696 -9.1708e+005 -9.3371e+006 -2.0721e+005 59983 251592,251670,251644
 5.4000e+001 251920 -6.7549e+004 -2.1661e+006 -6.7596e+004 59807 251770,251848,251796
 5.4000e+001 251897 -2.0426e+004 -1.8097e+006 -9.3168e+004 59807 251744,251848,251770
 5.4000e+001 251874 -8.8586e+004 -2.1741e+006 -1.6523e+004 59807 251796,251848,251822
 5.4000e+001 252023  5.6895e+005 -5.4678e+006 -9.9772e+004 59517 251945,251997,251971
 5.4000e+001 252175  1.8817e+006 -1.6285e+007 -3.4537e+005 59269 252074,252126,252100
 5.4000e+001 252152 -2.3342e+005 -1.0029e+007  1.9671e+005 59269 252048,252126,252074
 5.4000e+001 252278 -4.3042e+005 -1.0679e+007  1.7352e+006 58979 252200,252252,252226
 5.4000e+001 252381 -2.3895e+006 -1.9290e+006  1.2424e+006 58689 252303,252355,252329
 5.4000e+001 252533 -5.8788e+005 -4.4929e+006 -9.3007e+005 58249 252432,252484,252458
 5.4000e+001 252510 -1.2412e+006 -7.6089e+006 -1.1964e+006 58249 252406,252484,252432
 5.4000e+001 252734 -4.4744e+005 -4.2083e+006  1.9105e+005 57902 252584,252662,252610
 5.4000e+001 252711  4.5930e+005 -6.1350e+006 -6.8208e+005 57902 252558,252662,252584
 5.4000e+001 252688 -4.4354e+005 -3.1363e+006 -4.9715e+005 57902 252610,252662,252636
 5.4000e+001 252886  2.6029e+005 -6.0567e+006 -3.4165e+005 57540 252785,252837,252811
 5.4000e+001 252863  1.7106e+005 -4.2143e+006  1.8046e+005 57540 252759,252837,252785
 5.4000e+001 253038 -7.5463e+005 -6.9158e+006  1.6624e+006 57086 252937,252989,252963
 5.4000e+001 253015 -1.1384e+005 -1.8192e+006  3.1548e+005 57086 252911,252989,252937
 5.4000e+001 253239 -2.0248e+006 -8.5254e+006 -2.5675e+006 56796 253063,253141,253115
 5.4000e+001 253216  3.8913e+005 -1.0944e+007  8.4123e+005 56796 253063,253167,253141
 5.4000e+001 253193 -2.7025e+006 -5.7851e+006 -2.3202e+006 56796 253063,253115,253089
 5.4000e+001 253342 -7.1464e+005 -2.0736e+007 -4.1000e+003 56349 253264,253316,253290
 5.4000e+001 253543 -3.9738e+005 -5.1458e+006 -1.0829e+006 56009 253367,253419,253393
 5.4000e+001 253520 -5.7739e+005 -3.0792e+006 -4.6075e+005 56009 253367,253445,253419
 5.4000e+001 253497 -5.5801e+005 -2.9526e+006 -5.2635e+005 56009 253367,253471,253445
 5.4000e+001 253695 -3.9337e+005 -1.3904e+006  7.4028e+005 55733 253594,253646,253620
 5.4000e+001 253672 -8.4289e+005 -4.8636e+005  6.0852e+005 55733 253568,253646,253594
 5.4000e+001 253798 -5.0984e+005 -2.2224e+006 -2.2165e+005 55557 253720,253772,253746
 5.4000e+001 253950 -5.7809e+005 -4.4405e+006  1.7032e+005 55153 253849,253901,253875
 5.4000e+001 253927  1.0141e+005 -4.9924e+006 -5.0587e+005 55153 253823,253901,253849
 5.4000e+001 254151 -1.0490e+006 -5.0034e+006  5.4303e+005 54863 253975,254053,254001
 5.4000e+001 254128 -4.8974e+005 -4.9047e+006 -1.1023e+005 54863 253975,254079,254053
 5.4000e+001 254105 -5.1526e+005 -4.7212e+006  3.2467e+005 54863 254001,254053,254027
 5.4000e+001 254303 -2.2359e+005 -8.2338e+005  4.5637e+005 54373 254176,254228,254202
 5.4000e+001 254280 -3.5389e+005 -9.5297e+005  5.3510e+005 54373 254176,254254,254228
 5.4000e+001 254455  9.0013e+004 -5.8195e+006 -4.4223e+005 53975 254354,254406,254380
 5.4000e+001 254432 -3.6808e+005 -1.3527e+006  2.3576e+005 53975 254328,254406,254354
 5.4000e+001 254607 -2.8588e+005 -5.8047e+006 -3.3081e+005 53585 254480,254532,254506
 5.4000e+001 254584 -2.6643e+005 -5.5685e+006 -3.8540e+005 53585 254480,254558,254532
 5.4000e+001 254808 -9.0490e+005 -3.9460e+006 -1.6429e+005 53245 254658,254736,254684
 5.4000e+001 254785 -1.0895e+006 -2.0980e+006 -6.0256e+005 53245 254632,254736,254658
 5.4000e+001 254762 -4.9222e+005 -2.9179e+006 -5.1536e+005 53245 254684,254736,254710
 5.4000e+001 254911 -1.3669e+005 -2.8260e+006 -3.0507e+005 52955 254833,254885,254859
 5.4000e+001 255063 -5.2596e+005 -7.5709e+006 -2.3499e+005 52551 254962,255014,254988
 5.4000e+001 255040 -5.9534e+005 -7.8995e+006 -3.8911e+005 52551 254936,255014,254962
 5.4000e+001 255264 -6.6900e+005 -8.4205e+005  3.4668e+005 52261 255114,255166,255140
 5.4000e+001 255241 -1.3396e+006 -1.3686e+006  7.0729e+005 52261 255114,255192,255166
 5.4000e+001 255218 -5.3810e+005 -1.5414e+006  5.0887e+005 52261 255088,255192,255114
 5.4000e+001 255416 -6.7496e+005 -6.3056e+006  2.0689e+006 51971 255289,255341,255315
 5.4000e+001 255393 -3.8295e+005 -5.6088e+006 -8.9552e+005 51971 255289,255367,255341
 5.4000e+001 255568 -8.9512e+005 -9.9198e+005 -4.2012e+005 51681 255441,255493,255467
 5.4000e+001 255545 -3.8971e+005 -3.9569e+006  9.3042e+004 51681 255441,255519,255493
 5.4000e+001 255769 -1.6890e+005 -3.6529e+006 -2.0763e+005 51291 255619,255697,255671
 5.4000e+001 255746 -1.4202e+005 -3.3994e+006 -3.7131e+005 51291 255593,255697,255619
 5.4000e+001 255723 -1.5513e+005 -4.6409e+006 -4.4334e+005 51291 255619,255671,255645
 5.4000e+001 255921 -3.7704e+005 -3.1285e+006  6.1128e+005 50951 255820,255872,255846
 5.4000e+001 255898 -1.4273e+005 -2.3494e+006  1.7179e+005 50951 255794,255872,255820
 5.4000e+001 256171 -1.2006e+006 -5.0276e+006 -4.4010e+004 50547 256024,256076,256050
 5.4000e+001 256148 -8.7663e+005 -4.6971e+006  3.4192e+005 50547 255972,256076,256024
 5.4000e+001 256125 -2.9628e+005 -5.5623e+006 -2.9284e+005 50547 255946,256076,255972
 5.4000e+001 256102 -9.1164e+005 -4.0547e+006  1.4471e+005 50547 255972,256024,255998
 5.4000e+001 256323  5.5595e+005 -5.8186e+006  7.1484e+005 50093 256196,256248,256222
 5.4000e+001 256300 -1.0205e+006 -3.3648e+006 -1.2419e+006 50093 256196,256274,256248
 5.4000e+001 256426 -3.1964e+000 -1.3328e+002 -3.3876e-001 49845 256348,256400,256374
 5.4000e+001 256627 -2.3380e+005 -4.8496e+006  8.2262e+004 49555 256477,256555,256503
 5.4000e+001 256604 -3.8161e+005 -4.1190e+006  5.0224e+004 49555 256451,256555,256477
 5.4000e+001 256581 -3.9776e+005 -4.3495e+006  1.7236e+005 49555 256503,256555,256529
 5.4000e+001 256828 -4.6502e+005 -2.6109e+006 -2.6281e+005 49056 256652,256730,256678
 5.4000e+001 256805 -3.1372e+005 -3.3562e+006 -3.6316e+005 49056 256652,256756,256730
 5.4000e+001 256782 -5.7773e+005 -2.3153e+006 -4.5815e+005 49056 256678,256730,256704
 5.4000e+001 256931 -7.2701e+004 -1.9960e+005  5.3874e+004 48766 256853,256905,256879
 5.4000e+001 257083 -1.0150e+006 -4.1197e+006 -7.0330e+005 48568 256982,257034,257008
 5.4000e+001 257060 -8.6983e+005 -3.5844e+006 -3.1243e+005 48568 256956,257034,256982
 5.4000e+001 257186  3.8314e+002 -3.7210e+006 -2.2447e+002 48228 257108,257160,257134
 5.4000e+001 257338 -4.5057e+005 -1.2928e+006  5.0130e+005 47888 257237,257289,257263
 5.4000e+001 257315 -3.8144e+005 -1.9547e+006  8.5936e+005 47888 257211,257289,257237
 5.4000e+001 257539 -3.2658e+005 -4.5072e+006  1.9208e+005 47548 257363,257441,257415
 5.4000e+001 257516 -1.0149e+006 -4.1859e+006 -5.0717e+005 47548 257363,257467,257441
 5.4000e+001 257493 -7.6027e+005 -3.1414e+006 -1.2227e+005 47548 257363,257415,257389
 5.4000e+001 257740 -3.0869e+005 -4.4428e+006  3.8609e+005 46994 257564,257642,257616
 5.4000e+001 257717 -4.1061e+005 -3.7409e+006  1.1036e+005 46994 257564,257668,257642
 5.4000e+001 257694 -7.1286e+005 -4.6367e+006  6.3040e+004 46994 257564,257616,257590
 5.4000e+001 257843 -6.2543e+005 -1.9761e+006 -4.0319e+005 46654 257765,257817,257791
 5.4000e+001 257995 -6.1724e+005 -3.4929e+006  3.3003e+005 46364 257894,257946,257920
 5.4000e+001 257972 -6.4193e+005 -3.6929e+006  2.1483e+005 46364 257868,257946,257894
 5.4000e+001 258147 -5.7892e+004 -3.8582e+006  3.4582e+004 46024 258046,258098,258072
 5.4000e+001 258124 -3.3017e+005 -2.9786e+006  3.2759e+005 46024 258020,258098,258046
 5.4000e+001 258250 -6.3280e+005 -2.7239e+006  9.2592e+005 45741 258172,258224,258198
 5.4000e+001 258402 -4.3462e+005 -2.5154e+006  1.8861e+005 45401 258301,258353,258327
 5.4000e+001 258379 -3.7310e+005 -2.3018e+006  2.4845e+005 45401 258275,258353,258301
 5.4000e+001 258603 -7.8006e+005 -2.2943e+006 -3.1175e+004 45071 258427,258505,258479
 5.4000e+001 258580 -1.0790e+005 -5.5928e+006  2.6833e+005 45071 258427,258531,258505
 5.4000e+001 258557 -2.3429e+005 -3.2789e+006  2.3262e+005 45071 258427,258479,258453
 5.4000e+001 258755 -2.7178e+005 -4.2280e+006 -5.5425e+005 44681 258654,258706,258680
 5.4000e+001 258732 -1.4634e+005 -4.3170e+006 -4.8908e+005 44681 258628,258706,258654
 5.4000e+001 258907 -6.7967e+005 -1.2252e+006 -1.2949e+005 44157 258806,258858,258832
 5.4000e+001 258884 -3.3980e+005 -1.3332e+006 -7.2076e+004 44157 258780,258858,258806
 5.4000e+001 259010 -6.6232e+005 -6.9557e+005 -6.7760e+004 43705 258932,258984,258958
 5.4000e+001 259113 -5.6789e+005 -2.4955e+006  6.8421e+004 43284 259035,259087,259061
 5.4000e+001 259216 -7.2315e+005 -2.3486e+006 -6.7050e+004 42954 259138,259190,259164
 5.4000e+001 259319 -8.1372e+005 -1.7549e+006  1.4634e+004 42116 259241,259293,259267
 5.4000e+001 259422 -4.4455e+005 -2.9109e+006 -9.5650e+004 41804 259344,259396,259370
 5.4000e+001 259525 -5.9563e+005 -5.3673e+006  7.5143e+005 41219 259447,259499,259473
 5.4000e+001 259628 -9.7534e+005 -2.8186e+006 -4.2781e+005 385 259550,259602,259576
 5.6000e+001 190120 -2.5582e+005 -1.7178e+006 -2.9151e+005 189630 189993,190045,190019
 5.6000e+001 190097 -6.2780e+005 -1.2922e+006 -1.9110e+005 189630 189993,190071,190045
 5.6000e+001 190319 -3.4911e+005 -6.1114e+006 -1.0444e+006 189312 190169,190221,190195
 5.6000e+001 190296 -7.6784e+005 -6.1566e+006 -1.0415e+006 189312 190169,190247,190221
 5.6000e+001 190273 -9.4020e+005 -5.5894e+006  1.1063e+004 189312 190143,190247,190169
 5.6000e+001 190518 -4.7713e+005  4.8991e+004  1.6149e+004 189124 190368,190446,190420
 5.6000e+001 190495 -5.6194e+005  2.1594e+004 -4.2663e+003 189124 190342,190446,190368
 5.6000e+001 190472 -9.8820e+005 -5.2667e+004 -4.8751e+004 189124 190368,190420,190394
 5.6000e+001 190619 -4.5030e+005 -4.6007e+004 -6.1708e+003 188926 190541,190593,190567
 5.6000e+001 190771 -4.7783e+005 -8.1475e+004  2.5627e+004 188614 190670,190722,190696
 5.6000e+001 190748 -5.6548e+005  1.5863e+005  6.0927e+004 188614 190644,190722,190670
 5.6000e+001 190972 -4.6740e+005 -4.6887e+005 -4.1259e+005 188324 190848,190900,190874
 5.6000e+001 190949 -4.3606e+005 -4.9481e+005 -4.2382e+005 188324 190796,190900,190848
 5.6000e+001 190926 -1.7717e+005 -2.0244e+005 -2.4873e+005 188324 190796,190848,190822
 5.6000e+001 191124 -7.0587e+005 -6.4650e+005 -1.3496e+005 188034 191023,191075,191049
 5.6000e+001 191101 -1.4007e+005 -7.8886e+005 -8.2520e+004 188034 190997,191075,191023
 5.6000e+001 191276  2.7118e+004 -3.2421e+006 -2.4166e+005 187836 191149,191201,191175
 5.6000e+001 191253 -4.9234e+005 -1.7335e+006  5.3075e+005 187836 191149,191227,191201
 5.6000e+001 191379 -4.0257e+005 -1.9856e+006 -2.1517e+005 187546 191301,191353,191327
 5.6000e+001 191531  3.4581e+005 -7.1011e+006 -8.0306e+005 187256 191430,191482,191456
 5.6000e+001 191508 -1.1710e+006 -8.4758e+006 -2.2878e+006 187256 191404,191482,191430
 5.6000e+001 191634 -8.1028e+005 -2.3138e+005  9.7316e+004 187058 191556,191608,191582
 5.6000e+001 191835 -5.0959e+005 -1.5323e+005  1.7519e+004 186860 191659,191711,191685
 5.6000e+001 191812 -3.5960e+005 -4.0760e+005  5.4440e+003 186860 191659,191737,191711
 5.6000e+001 191789 -3.6854e+005 -3.4688e+005  6.4613e+004 186860 191659,191763,191737
 5.6000e+001 191987  7.3056e+003 -1.1981e+006 -1.3027e+005 186662 191886,191938,191912
 5.6000e+001 191964 -1.4900e+005 -1.7414e+006  2.4765e+005 186662 191860,191938,191886
 5.6000e+001 192090 -5.8594e+005 -1.7566e+006 -2.4027e+005 186486 192012,192064,192038
 5.6000e+001 192242 -6.2817e+004 -1.3166e+007 -3.8862e+005 186288 192115,192167,192141
 5.6000e+001 192219 -9.6139e+005 -8.7028e+006  3.7255e+005 186288 192115,192193,192167
 5.6000e+001 192394  4.7945e+005 -1.1080e+007 -1.7808e+005 185935 192293,192345,192319
 5.6000e+001 192371 -7.3115e+005 -7.5878e+006 -9.6843e+005 185935 192267,192345,192293
 5.6000e+001 192546 -4.3428e+005 -2.7345e+006 -5.6660e+005 185675 192419,192471,192445
 5.6000e+001 192523 -8.7528e+005 -1.6936e+006 -6.7617e+005 185675 192419,192497,192471
 5.6000e+001 192649 -3.6531e+005 -2.6268e+006 -4.4029e+005 185499 192571,192623,192597
 5.6000e+001 192801 -9.9374e+005 -9.0661e+005 -3.5490e+005 185301 192674,192726,192700
 5.6000e+001 192778 -4.5664e+005 -1.2126e+006  8.9268e+005 185301 192674,192752,192726
 5.6000e+001 193002 -9.1423e+004 -1.5201e+006 -5.3287e+005 185046 192852,192930,192878
 5.6000e+001 192979 -5.3180e+005 -3.1355e+006 -3.3635e+005 185046 192826,192930,192852
 5.6000e+001 192956  6.9461e+005 -4.2444e+006  2.8132e+005 185046 192878,192930,192904
 5.6000e+001 193203 -3.5932e+005 -8.9933e+006 -1.2288e+006 184798 193079,193131,193105
 5.6000e+001 193180 -5.3750e+005 -6.8649e+006 -1.2997e+006 184798 193027,193131,193079
 5.6000e+001 193157  8.1121e+004 -6.8227e+006  5.6064e+005 184798 193027,193079,193053
 5.6000e+001 193404 -2.0414e+005 -6.1082e+006 -1.6190e+006 184600 193254,193306,193280
 5.6000e+001 193381 -7.8005e+005 -3.0430e+006 -3.0149e+005 184600 193254,193332,193306
 5.6000e+001 193358 -1.2903e+006 -9.0981e+005 -8.0237e+005 184600 193228,193332,193254
 5.6000e+001 193556 -9.5659e+005 -2.5574e+005 -3.7882e+005 184402 193429,193481,193455
 5.6000e+001 193533 -4.8752e+005 -3.2380e+005 -3.2415e+005 184402 193429,193507,193481
 5.6000e+001 193708 -1.2198e+006 -3.5735e+006 -4.2302e+005 184204 193607,193659,193633
 5.6000e+001 193685 -1.2815e+006 -9.5579e+006 -1.8548e+006 184204 193581,193659,193607
 5.6000e+001 193860 -6.2835e+005 -1.1494e+006  2.1775e+005 183908 193759,193811,193785
 5.6000e+001 193837 -8.2010e+004 -1.4720e+006  3.8218e+005 183908 193733,193811,193759
 5.6000e+001 194061 -3.4503e+005 -6.5713e+005  1.6398e+005 183710 193911,193989,193937
 5.6000e+001 194038 -5.8954e+005 -1.1786e+006  3.8228e+005 183710 193885,193989,193911
 5.6000e+001 194015 -6.2988e+005 -1.3244e+006  4.1057e+005 183710 193937,193989,193963
 5.6000e+001 194262 -1.0989e+005 -3.5216e+006 -8.2999e+005 183420 194086,194164,194112
 5.6000e+001 194239 -8.3845e+004 -3.8767e+006 -1.5323e+006 183420 194086,194190,194164
 5.6000e+001 194216 -2.2214e+004 -5.8353e+006  3.5011e+005 183420 194112,194164,194138
 5.6000e+001 194414 -5.5049e+005 -6.3781e+006 -7.4306e+005 183222 194287,194339,194313
 5.6000e+001 194391  2.9170e+004 -3.4789e+006 -4.7987e+005 183222 194287,194365,194339
 5.6000e+001 194517 -9.5431e+005 -1.9642e+006 -3.0549e+005 183024 194439,194491,194465
 5.6000e+001 194718  2.8669e+006 -1.7707e+007  1.1776e+006 182734 194568,194620,194594
 5.6000e+001 194695 -1.4758e+006 -4.5883e+006 -4.4526e+006 182734 194542,194620,194568
 5.6000e+001 194672 -4.4456e+006 -2.6908e+006 -2.2420e+006 182734 194542,194646,194620
 5.6000e+001 194870 -1.0683e+005 -7.2312e+005  4.4991e+005 182444 194769,194821,194795
 5.6000e+001 194847 -1.7123e+005 -9.1066e+005  3.7487e+005 182444 194743,194821,194769
 5.6000e+001 195071 -3.4926e+005 -1.4907e+006  7.6876e+005 182154 194895,194947,194921
 5.6000e+001 195048 -4.3669e+005 -7.5237e+005  6.7647e+004 182154 194895,194999,194947
 5.6000e+001 195025 -3.1382e+005 -1.5419e+005  1.8829e+005 182154 194947,194999,194973
 5.6000e+001 195223 -3.2082e+005 -6.1783e+005 -3.1412e+005 181814 195096,195148,195122
 5.6000e+001 195200 -5.4251e+005 -2.0194e+006 -1.2161e+006 181814 195096,195174,195148
 5.6000e+001 195375 -3.7736e+004 -6.2149e+004 -3.4738e+004 181524 195248,195300,195274
 5.6000e+001 195352  2.1186e+004 -3.0173e+005 -2.1514e+003 181524 195248,195326,195300
 5.6000e+001 195527 -2.4757e+005 -2.4469e+006 -6.7714e+004 181326 195426,195478,195452
 5.6000e+001 195504 -1.2048e+006 -2.8836e+006  5.5103e+005 181326 195400,195478,195426
 5.6000e+001 195679 -3.5973e+005 -1.0221e+007 -1.3670e+006 180936 195578,195630,195604
 5.6000e+001 195656 -3.7224e+005 -5.1966e+006 -9.3129e+005 180936 195552,195630,195578
 5.6000e+001 195831 -4.6032e+005 -3.7776e+005 -1.7912e+005 180646 195704,195756,195730
 5.6000e+001 195808 -7.3408e+005 -2.4680e+004  1.4809e+004 180646 195704,195782,195756
 5.6000e+001 196032 -1.3335e+005 -1.8813e+006  3.1718e+005 180306 195882,195960,195934
 5.6000e+001 196009 -2.4809e+004 -6.5145e+005  1.7316e+004 180306 195856,195960,195882
 5.6000e+001 195986  2.1249e+004 -2.0256e+006  1.4933e+005 180306 195882,195934,195908
 5.6000e+001 196233 -5.6335e+005 -4.7105e+003 -9.8385e+005 179944 196057,196109,196083
 5.6000e+001 196210 -6.0790e+005 -4.8507e+005 -2.2300e+005 179944 196057,196135,196109
 5.6000e+001 196187 -1.4107e+006  2.9057e+006 -9.2740e+005 179944 196057,196161,196135
 5.6000e+001 196385 -6.6563e+005 -6.2712e+005 -6.4724e+005 179604 196258,196310,196284
 5.6000e+001 196362 -5.7760e+005 -3.2564e+005 -5.8941e+005 179604 196258,196336,196310
 5.6000e+001 196586 -8.7543e+005 -7.3218e+005 -7.6590e+005 179114 196410,196488,196436
 5.6000e+001 196563 -6.0567e+005 -2.3375e+006 -7.4212e+005 179114 196410,196514,196488
 5.6000e+001 196540 -6.2386e+003 -6.9053e+005 -6.6278e+004 179114 196436,196488,196462
 5.6000e+001 196738 -9.1110e+005 -1.7723e+006 -9.2067e+005 178674 196611,196663,196637
 5.6000e+001 196715  2.7929e+004 -4.1807e+006 -2.9520e+005 178674 196611,196689,196663
 5.6000e+001 196939  2.6847e+006 -1.0062e+007 -2.2403e+006 178334 196789,196867,196841
 5.6000e+001 196916 -1.7302e+006 -1.0774e+007  1.7088e+006 178334 196763,196867,196789
 5.6000e+001 196893 -6.4638e+006 -3.9111e+006 -7.4554e+006 178334 196789,196841,196815
 5.6000e+001 197091 -4.0264e+005 -3.9302e+006 -9.6388e+005 177930 196990,197042,197016
 5.6000e+001 197068 -5.5620e+005 -4.3731e+006 -6.5287e+005 177930 196964,197042,196990
 5.6000e+001 197194  1.9382e+002 -4.4019e+005  2.5613e+002 177732 197116,197168,197142
 5.6000e+001 197346 -3.1206e+005 -4.3276e+006 -4.0906e+005 177534 197219,197271,197245
 5.6000e+001 197323  3.3673e+005 -6.5238e+006  7.6722e+005 177534 197219,197297,197271
 5.6000e+001 197547 -6.1814e+005 -4.9925e+006 -1.4685e+006 177130 197397,197449,197423
 5.6000e+001 197524 -1.5734e+006 -5.0351e+006 -2.2934e+006 177130 197397,197475,197449
 5.6000e+001 197501 -1.5863e+006 -9.6632e+006 -2.8704e+006 177130 197371,197475,197397
 5.6000e+001 197748 -5.8580e+004 -4.9721e+006  1.9332e+004 176790 197598,197676,197624
 5.6000e+001 197725  2.4388e+004 -4.2566e+006  1.1600e+005 176790 197572,197676,197598
 5.6000e+001 197702 -1.2409e+005 -4.4780e+006  1.7321e+005 176790 197624,197676,197650
 5.6000e+001 197900 -2.1113e+005 -2.8419e+006 -3.4002e+005 176300 197773,197825,197799
 5.6000e+001 197877  1.7089e+005 -4.2421e+006 -2.8390e+005 176300 197773,197851,197825
 5.6000e+001 198052 -8.7348e+005 -6.0506e+006 -1.1287e+006 176010 197925,197977,197951
 5.6000e+001 198029 -4.4084e+005 -5.3656e+006 -1.4641e+006 176010 197925,198003,197977
 5.6000e+001 198204 -1.2135e+006 -4.0945e+006 -1.8059e+006 175670 198103,198155,198129
 5.6000e+001 198181 -1.4887e+006 -3.2018e+006 -8.0619e+005 175670 198077,198155,198103
 5.6000e+001 198405 -1.8333e+005 -4.3499e+006 -8.2724e+005 175266 198255,198307,198281
 5.6000e+001 198382 -4.8031e+004 -5.0353e+006 -1.3951e+006 175266 198229,198307,198255
 5.6000e+001 198359 -1.0284e+006 -4.1483e+006 -2.0655e+006 175266 198229,198333,198307
 5.6000e+001 198606 -6.9523e+003 -5.4884e+004 -8.5073e+003 174876 198430,198508,198482
 5.6000e+001 198583 -7.4945e+004 -6.6214e+004 -6.9845e+004 174876 198430,198534,198508
 5.6000e+001 198560 -1.6360e+004 -2.2038e+004 -1.8874e+004 174876 198430,198482,198456
 5.6000e+001 198758  1.5584e+000  1.1980e-002  1.3664e-001 174536 198657,198709,198683
 5.6000e+001 198735 -1.1180e+000 -8.5947e-003 -9.8024e-002 174536 198631,198709,198657
 5.6000e+001 199008 -1.0449e+006 -5.2857e+006 -4.5125e+005 174132 198835,198913,198887
 5.6000e+001 198985 -6.7421e+005 -1.9423e+006 -9.3212e+004 174132 198809,198913,198835
 5.6000e+001 198962 -7.8420e+005 -2.2241e+006 -1.6607e+006 174132 198783,198913,198809
 5.6000e+001 198939 -3.7861e+005 -6.1179e+006 -5.3969e+005 174132 198835,198887,198861
 5.6000e+001 199160 -6.7758e+005 -7.8689e+005 -4.4797e+005 173842 199059,199111,199085
 5.6000e+001 199137 -8.0210e+005 -9.1996e+005 -5.7068e+005 173842 199033,199111,199059
 5.6000e+001 199361 -7.3581e+005 -2.0726e+006  3.8778e+005 173438 199237,199289,199263
 5.6000e+001 199338  8.2111e+004 -2.8965e+006  5.2543e+005 173438 199211,199289,199237
 5.6000e+001 199315  2.0742e+005 -5.0135e+006 -1.2464e+006 173438 199185,199289,199211
 5.6000e+001 199513 -8.7776e+004 -4.3923e+006 -5.8783e+005 173190 199386,199438,199412
 5.6000e+001 199490 -1.0929e+006 -4.5123e+006 -4.8071e+005 173190 199386,199464,199438
 5.6000e+001 199665 -1.1480e+006 -1.5651e+006  2.6361e+005 172750 199564,199616,199590
 5.6000e+001 199642 -1.5954e+006 -1.0306e+006 -2.9074e+004 172750 199538,199616,199564
 5.6000e+001 199817 -1.3738e+005 -1.1627e+006 -1.6405e+005 172524 199690,199742,199716
 5.6000e+001 199794  1.1861e+005 -1.1098e+006 -3.0938e+005 172524 199690,199768,199742
 5.6000e+001 199969 -5.8397e+003 -5.6506e+006 -1.7310e+005 172348 199842,199894,199868
 5.6000e+001 199946 -8.7926e+005 -5.8694e+006 -1.6220e+005 172348 199842,199920,199894
 5.6000e+001 200121  2.0573e+004 -8.9872e+005 -2.2784e+005 172008 199994,200046,200020
 5.6000e+001 200098 -9.1496e+004 -5.1020e+005 -1.8385e+005 172008 199994,200072,200046
 5.6000e+001 200273 -1.0444e+006 -6.2162e+006 -1.6438e+006 171668 200172,200224,200198
 5.6000e+001 200250 -8.4899e+005 -6.5573e+006 -1.1817e+006 171668 200146,200224,200172
 5.6000e+001 200474  2.7890e+005 -4.4099e+006 -7.7485e+005 171264 200350,200402,200376
 5.6000e+001 200451 -2.1323e+005 -4.6286e+006 -9.8236e+005 171264 200324,200402,200350
 5.6000e+001 200428 -3.8633e+005 -3.0783e+006  9.0601e+005 171264 200298,200402,200324
 5.6000e+001 200626 -7.6216e+005 -5.0569e+006 -8.3642e+005 170832 200525,200577,200551
 5.6000e+001 200603 -2.8182e+005 -2.5685e+006 -3.6868e+005 170832 200499,200577,200525
 5.6000e+001 200827 -1.7429e+005 -2.6746e+005  4.9295e+004 170492 200677,200729,200703
 5.6000e+001 200804 -8.7268e+005 -1.0272e+005 -6.4527e+004 170492 200651,200729,200677
 5.6000e+001 200781  1.3888e+005 -1.9192e+006 -9.0764e+005 170492 200651,200755,200729
 5.6000e+001 201077  3.5321e+004 -5.6852e+005 -1.7082e+004 170088 200878,200956,200904
 5.6000e+001 201054 -1.9893e+005 -5.9194e+005 -2.8874e+005 170088 200852,200956,200878
 5.6000e+001 201031  3.7949e+004 -2.7093e+005  3.2897e+005 170088 200904,200956,200930
 5.6000e+001 201008  8.1038e+005 -1.8109e+006  5.6055e+005 170088 200852,200982,200956
 5.6000e+001 201278 -5.8581e+005 -3.2608e+006 -1.8850e+006 169798 201102,201154,201128
 5.6000e+001 201255 -1.5278e+006 -5.8976e+006 -2.6337e+006 169798 201102,201206,201154
 5.6000e+001 201232 -1.4274e+006 -1.3256e+006 -7.4815e+005 169798 201154,201206,201180
 5.6000e+001 201430 -7.6033e+005 -5.1559e+005 -1.7510e+005 169337 201303,201355,201329
 5.6000e+001 201407 -5.7698e+005 -1.1315e+006 -4.6643e+005 169337 201303,201381,201355
 5.6000e+001 201631 -3.7864e+004 -9.6221e+005  2.1815e+005 168883 201481,201559,201507
 5.6000e+001 201608 -3.4597e+005 -1.4466e+006 -1.0043e+005 168883 201455,201559,201481
 5.6000e+001 201585 -2.0762e+005 -5.0454e+005  1.1903e+005 168883 201507,201559,201533
 5.6000e+001 201832  2.3212e+005 -8.4251e+006  1.6349e+005 168479 201682,201734,201708
 5.6000e+001 201809 -1.8713e+006 -5.8988e+006 -2.0509e+006 168479 201656,201734,201682
 5.6000e+001 201786 -1.1646e+006 -3.0122e+006  5.1548e+005 168479 201656,201760,201734
 5.6000e+001 202033 -2.5065e+005 -2.9410e+006  1.5369e+005 167825 201883,201935,201909
 5.6000e+001 202010 -1.2664e+006 -4.0090e+006 -1.7864e+006 167825 201857,201935,201883
 5.6000e+001 201987  3.9748e+004 -9.4799e+006 -9.6578e+005 167825 201857,201961,201935
 5.6000e+001 202234 -2.6045e+006 -2.8408e+006 -1.9512e+006 167435 202058,202136,202084
 5.6000e+001 202211 -7.2045e+005 -5.0928e+006  7.3914e+005 167435 202058,202162,202136
 5.6000e+001 202188 -2.0740e+006 -1.7132e+006 -1.0850e+006 167435 202084,202136,202110
 5.6000e+001 202386 -1.3341e+005 -1.9544e+005  4.8376e+004 167002 202285,202337,202311
 5.6000e+001 202363 -9.5557e+004 -9.5665e+004  8.2505e+004 167002 202259,202337,202285
 5.6000e+001 202538 -9.3133e+005 -3.1417e+006 -1.7991e+006 166662 202411,202463,202437
 5.6000e+001 202515 -5.2242e+005 -3.1984e+006 -2.0825e+006 166662 202411,202489,202463
 5.6000e+001 202690 -3.4784e+003 -1.2864e+006 -5.3033e+005 166322 202589,202641,202615
 5.6000e+001 202667 -9.0473e+004 -6.6263e+005 -1.2225e+005 166322 202563,202641,202589
 5.6000e+001 202891 -1.6350e+005 -3.5219e+005 -8.5696e+004 165918 202715,202767,202741
 5.6000e+001 202868 -3.1336e+005 -1.2262e+006 -6.2235e+005 165918 202715,202793,202767
 5.6000e+001 202845 -6.4717e+005 -1.9298e+006 -2.2731e+005 165918 202715,202819,202793
 5.6000e+001 203092  1.1323e+005 -1.9509e+006 -3.0610e+005 165628 202916,202968,202942
 5.6000e+001 203069 -4.7408e+005 -5.9631e+005 -3.9808e+005 165628 202916,202994,202968
 5.6000e+001 203046 -8.7884e+004 -6.8746e+005 -2.4552e+005 165628 202916,203020,202994
 5.6000e+001 203293 -4.9154e+006 -3.8308e+006 -2.8174e+006 165266 203143,203195,203169
 5.6000e+001 203270 -1.7387e+006 -6.4531e+006 -1.2363e+006 165266 203143,203221,203195
 5.6000e+001 203247 -1.2749e+006 -5.4072e+006 -2.2380e+005 165266 203117,203221,203143
 5.6000e+001 203445 -1.6124e+005 -1.8903e+005  1.0751e+004 164826 203318,203370,203344
 5.6000e+001 203422 -1.8032e+004 -1.3788e+005 -2.5212e+004 164826 203318,203396,203370
 5.6000e+001 203597 -2.4357e+005 -2.1690e+006 -8.0035e+004 164386 203470,203522,203496
 5.6000e+001 203574 -6.5828e+005 -2.9818e+006 -7.3445e+005 164386 203470,203548,203522
 5.6000e+001 203798  1.2720e+004 -2.5569e+006  1.2924e+005 163996 203622,203674,203648
 5.6000e+001 203775 -8.8588e+005 -1.5018e+005 -2.9536e+005 163996 203622,203726,203674
 5.6000e+001 203752 -1.2425e+006 -1.0973e+006  4.3306e+005 163996 203674,203726,203700
 5.6000e+001 203901 -3.1628e+005 -1.9947e+006 -6.6002e+005 163770 203823,203875,203849
 5.6000e+001 204053 -1.2268e+006 -2.8005e+006 -8.2109e+005 163474 203952,204004,203978
 5.6000e+001 204030 -1.3364e+006 -3.0592e+006 -1.2284e+006 163474 203926,204004,203952
 5.6000e+001 204205  1.8948e+004 -1.2414e+006 -6.1863e+005 163034 204104,204156,204130
 5.6000e+001 204182 -2.4320e+005 -8.6616e+005 -2.3589e+005 163034 204078,204156,204104
 5.6000e+001 204357 -3.8767e+005 -2.2135e+006  1.7295e+005 162624 204256,204308,204282
 5.6000e+001 204334 -1.0239e+005 -2.0681e+005  1.6666e+004 162624 204230,204308,204256
 5.6000e+001 204509 -3.1376e+005 -1.5682e+005  2.0810e+005 162200 204382,204434,204408
 5.6000e+001 204486 -3.1995e+005 -1.2216e+005  1.9293e+005 162200 204382,204460,204434
 5.6000e+001 204710 -8.1873e+003 -1.4447e+005  3.0351e+004 161810 204560,204638,204586
 5.6000e+001 204687 -8.7202e+003 -2.9843e+005 -1.7707e+005 161810 204534,204638,204560
 5.6000e+001 204664 -1.8508e+004 -2.8778e+004 -9.3255e+002 161810 204586,204638,204612
 5.6000e+001 204862 -1.7465e+006 -1.9932e+006 -1.1948e+006 161406 204735,204787,204761
 5.6000e+001 204839 -4.0664e+006 -2.0133e+005 -1.7952e+006 161406 204735,204813,204787
 5.6000e+001 205014  9.6459e-002  2.5486e-001  1.5679e-001 161180 204887,204939,204913
 5.6000e+001 204991 -2.0051e-001 -5.2979e-001 -3.2593e-001 161180 204887,204965,204939
 5.6000e+001 205215 -4.4543e+005 -1.2327e+006 -1.2585e+006 160726 205039,205091,205065
 5.6000e+001 205192 -9.7311e+005 -3.3699e+006 -1.2049e+006 160726 205039,205143,205091
 5.6000e+001 205169 -1.3861e+006 -1.7300e+006 -1.4679e+006 160726 205091,205143,205117
 5.6000e+001 205416 -1.2204e+003  2.1116e+002  5.7783e+002 160272 205292,205344,205318
 5.6000e+001 205393 -6.8823e+002  4.6338e+002  9.6635e+002 160272 205240,205344,205292
 5.6000e+001 205370 -4.7705e+002  9.4404e+002  4.7867e+002 160272 205240,205292,205266
 5.6000e+001 205568 -2.7785e+000 -3.8017e-001 -1.0278e+000 159932 205441,205493,205467
 5.6000e+001 205545  7.5229e-001  1.0293e-001  2.7827e-001 159932 205441,205519,205493
 5.6000e+001 205720 -1.1768e+005 -3.6503e+005 -8.2740e+004 159542 205593,205645,205619
 5.6000e+001 205697 -2.4468e+005 -4.6051e+004  8.2828e+004 159542 205593,205671,205645
 5.6000e+001 205872 -1.5471e+000 -2.2230e-003 -5.8644e-002 159252 205745,205797,205771
 5.6000e+001 205849  1.2940e+000  1.8593e-003  4.9051e-002 159252 205745,205823,205797
 5.6000e+001 206024  5.9265e+004 -3.3267e+005 -3.9221e+004 159004 205923,205975,205949
 5.6000e+001 206001  1.0898e+004 -3.2103e+005 -8.3378e+004 159004 205897,205975,205923
 5.6000e+001 206127 -4.8203e+006 -4.0791e+006 -3.3955e+003 158364 206049,206101,206075
 5.6000e+001 206328 -4.3983e+005 -1.9787e+005  5.4980e+003 157960 206178,206256,206204
 5.6000e+001 206305 -1.8071e+005 -9.8737e+004  7.9591e+004 157960 206152,206256,206178
 5.6000e+001 206282 -1.9831e+005 -9.8175e+004  1.3958e+005 157960 206204,206256,206230
 5.6000e+001 206529 -1.7281e+006 -9.3397e+006  1.1726e+006 157648 206405,206457,206431
 5.6000e+001 206506 -4.4162e+006 -5.0158e+006  3.0599e+005 157648 206379,206457,206405
 5.6000e+001 206483 -3.2555e+006 -3.8804e+006  1.4721e+006 157648 206353,206457,206379
 5.6000e+001 206730 -7.4209e+004 -2.8999e+005  1.6056e+005 157208 206554,206606,206580
 5.6000e+001 206707 -8.5827e+004 -2.1704e+005  1.7119e+005 157208 206554,206632,206606
 5.6000e+001 206684 -6.7539e+003 -1.2406e+005 -1.1702e+004 157208 206554,206658,206632
 5.6000e+001 206882 -5.2097e-001 -1.1421e+000 -7.7135e-001 157010 206755,206807,206781
 5.6000e+001 206859  2.9999e-001  6.5764e-001  4.4417e-001 157010 206755,206833,206807
 5.6000e+001 207034 -3.8325e+003 -8.2564e+004 -3.0918e+003 156620 206907,206959,206933
 5.6000e+001 207011 -2.4537e+002 -1.4295e+005  8.1701e+002 156620 206907,206985,206959
 5.6000e+001 207186 -1.9122e+003 -1.2365e+006  4.8396e+004 156330 207085,207137,207111
 5.6000e+001 207163 -8.6422e+004 -1.3303e+006 -6.9426e+005 156330 207059,207137,207085
 5.6000e+001 207387 -9.8450e+005 -3.3374e+006  7.0410e+005 155890 207211,207289,207237
 5.6000e+001 207364 -1.6062e+006 -3.6381e+006 -1.5258e+006 155890 207211,207315,207289
 5.6000e+001 207341 -8.8532e+005 -3.0338e+006  8.9720e+005 155890 207237,207289,207263
 5.6000e+001 207588 -3.4645e+005 -2.5925e+007  9.0388e+006 155436 207438,207490,207464
 5.6000e+001 207565 -1.3516e+006 -1.8978e+007 -1.1486e+006 155436 207412,207490,207438
 5.6000e+001 207542 -2.8240e+006 -1.0900e+007 -1.4312e+006 155436 207412,207516,207490
 5.6000e+001 207789  2.0897e+006 -3.8671e+007 -2.3968e+006 155260 207639,207691,207665
 5.6000e+001 207766 -4.5931e+006 -1.3021e+007  5.5742e+006 155260 207613,207691,207639
 5.6000e+001 207743 -1.0105e+006 -1.0000e+007 -7.1478e+004 155260 207613,207717,207691
 5.6000e+001 207990 -6.2407e-003  6.3695e-001 -1.4867e-001 154920 207840,207918,207892
 5.6000e+001 207967 -1.4094e-002 -5.9734e-001  9.1753e-002 154920 207814,207918,207840
 5.6000e+001 207944  4.7398e-002  1.4485e-001  8.2858e-002 154920 207840,207892,207866
 5.6000e+001 208191 -1.7315e+005 -2.5752e+005  1.1589e+005 154630 208015,208093,208041
 5.6000e+001 208168 -3.4809e+004 -3.0974e+005 -7.8115e+004 154630 208015,208119,208093
 5.6000e+001 208145 -1.3729e+004 -2.3390e+004 -1.8054e+004 154630 208041,208093,208067
 5.6000e+001 208343  7.3552e-002  2.2787e-004  4.0939e-003 154240 208216,208268,208242
 5.6000e+001 208320 -1.4063e-001 -4.3568e-004 -7.8275e-003 154240 208216,208294,208268
 5.6000e+001 208495  3.0317e+006 -1.5661e+007 -4.4558e+006 153950 208394,208446,208420
 5.6000e+001 208472 -1.0561e+006 -6.0774e+006  1.9797e+006 153950 208368,208446,208394
 5.6000e+001 208647 -1.7046e+006 -5.1271e+006  5.6326e+006 153603 208520,208572,208546
 5.6000e+001 208624 -3.8312e+006 -3.5035e+006 -2.5465e+006 153603 208520,208598,208572
 5.6000e+001 208848 -1.3493e+005 -5.0657e+004  7.6050e+004 153149 208698,208776,208724
 5.6000e+001 208825 -6.1061e+003 -2.0384e+005  1.0198e+004 153149 208672,208776,208698
 5.6000e+001 208802 -1.7430e+005  6.5211e+002  5.9675e+004 153149 208724,208776,208750
 5.6000e+001 209000 -7.1135e+005 -5.4807e+006 -7.3736e+004 152859 208873,208925,208899
 5.6000e+001 208977 -1.4126e+005 -9.1340e+006  5.6574e+005 152859 208873,208951,208925
 5.6000e+001 209152  4.4326e+005 -7.8916e+006  8.7366e+004 152569 209051,209103,209077
 5.6000e+001 209129 -2.9896e+005 -7.8637e+006  2.7872e+004 152569 209025,209103,209051
 5.6000e+001 209304 -3.1909e-001 -4.4371e-001 -3.7627e-001 152065 209177,209229,209203
 5.6000e+001 209281  7.2938e-001  1.0142e+000  8.6009e-001 152065 209177,209255,209229
 5.6000e+001 209456 -1.6819e+006 -6.1461e+006 -2.8880e+005 151775 209355,209407,209381
 5.6000e+001 209433 -5.7686e+005 -1.0640e+007  2.0084e+004 151775 209329,209407,209355
 5.6000e+001 209608 -7.5653e+005 -9.7067e+006 -1.1997e+006 151371 209481,209533,209507
 5.6000e+001 209585  8.6972e+005 -1.4112e+007  9.1466e+004 151371 209481,209559,209533
 5.6000e+001 209760 -7.1898e+005 -1.4058e+005  2.1417e+005 150981 209659,209711,209685
 5.6000e+001 209737 -6.8970e+005 -2.8581e+005 -2.1184e+005 150981 209633,209711,209659
 5.6000e+001 209912  2.7676e+006 -3.9163e+007 -3.3545e+006 150619 209811,209863,209837
 5.6000e+001 209889 -3.5088e+006 -1.7016e+007  4.2529e+006 150619 209785,209863,209811
 5.6000e+001 210064 -3.1041e+004 -3.8860e+005  8.8543e+004 150279 209937,209989,209963
 5.6000e+001 210041 -6.9241e+004 -9.0130e+005  8.2306e+004 150279 209937,210015,209989
 5.6000e+001 210265 -2.2542e+006 -1.1196e+007  1.0544e+005 149989 210115,210167,210141
 5.6000e+001 210242 -2.5229e+005 -1.1803e+007 -7.8938e+005 149989 210115,210193,210167
 5.6000e+001 210219 -1.5317e+005 -1.2490e+007 -7.3959e+005 149989 210089,210193,210115
 5.6000e+001 210417 -5.0303e+005 -4.9870e+005  2.3187e+005 149599 210316,210368,210342
 5.6000e+001 210394 -1.6676e+005 -1.1739e+006  2.4695e+005 149599 210290,210368,210316
 5.6000e+001 210618 -3.2056e+006 -1.5746e+007  4.9411e+006 149095 210468,210520,210494
 5.6000e+001 210595 -3.2770e+006 -1.5582e+007  2.7239e+006 149095 210442,210520,210468
 5.6000e+001 210572 -1.8514e+006 -2.1868e+007  3.2818e+006 149095 210442,210546,210520
 5.6000e+001 210819  2.3716e+002  6.3184e+002 -5.2659e+002 148748 210695,210747,210721
 5.6000e+001 210796  2.4342e+002 -5.7496e+002 -1.2523e+002 148748 210669,210747,210695
 5.6000e+001 210773  3.8630e+002 -4.8752e+002 -5.3439e+001 148748 210643,210747,210669
 5.6000e+001 210971 -8.4501e+002 -6.1824e+002  4.3092e+002 148408 210870,210922,210896
 5.6000e+001 210948 -1.1069e+003  1.0787e+002 -2.9190e+001 148408 210844,210922,210870
 5.6000e+001 211123 -5.2266e+005 -6.0353e+006  8.5483e+005 148118 210996,211048,211022
 5.6000e+001 211100 -1.6338e+006 -6.9708e+006  3.3893e+006 148118 210996,211074,211048
 5.6000e+001 211275 -9.6737e+005 -4.6093e+006  1.3936e+006 147778 211148,211200,211174
 5.6000e+001 211252 -1.6266e+006 -1.0415e+007  5.7297e+006 147778 211148,211226,211200
 5.6000e+001 211427 -1.0924e+006 -2.1516e+006  1.0224e+006 147324 211326,211378,211352
 5.6000e+001 211404 -2.3987e+005 -2.8422e+006  1.0163e+006 147324 211300,211378,211326
 5.6000e+001 211628 -1.0377e+003 -2.0787e+003  6.1274e+002 147012 211452,211504,211478
 5.6000e+001 211605 -1.6920e+003 -5.4247e+002  1.7481e+003 147012 211452,211556,211504
 5.6000e+001 211582 -2.1095e+003 -7.2725e+002  1.1430e+003 147012 211504,211556,211530
 5.6000e+001 211829 -1.7569e+006 -4.0875e+006  2.3200e+006 146636 211679,211757,211731
 5.6000e+001 211806  6.8657e+005 -6.9641e+006  1.9626e+006 146636 211653,211757,211679
 5.6000e+001 211783 -1.0453e+006 -3.7175e+006  1.9753e+006 146636 211679,211731,211705
 5.6000e+001 211981 -3.9331e+002 -5.7531e+004 -1.9687e+002 146246 211880,211932,211906
 5.6000e+001 211958  1.7146e+002 -1.2337e+002 -4.2367e+001 146246 211854,211932,211880
 5.6000e+001 212133 -1.2679e+004 -1.9542e+003  7.0594e+003 145956 212006,212058,212032
 5.6000e+001 212110 -3.3854e+004 -2.9590e+004  2.4723e+004 145956 212006,212084,212058
 5.6000e+001 212285 -4.7268e+003 -1.3211e+005  2.1469e+003 145544 212184,212236,212210
 5.6000e+001 212262  1.9712e+003 -1.0423e+004 -8.5794e+002 145544 212158,212236,212184
 5.6000e+001 212486 -3.7123e+005 -1.7329e+007  4.0423e+006 144990 212362,212414,212388
 5.6000e+001 212463  1.4906e+005 -1.3838e+007  5.9616e+006 144990 212310,212414,212362
 5.6000e+001 212440 -4.3088e+006 -2.8806e+006  2.7834e+006 144990 212310,212362,212336
 5.6000e+001 212638 -2.6969e+005 -6.5419e+005  1.0756e+005 144600 212537,212589,212563
 5.6000e+001 212615 -2.8517e+005 -6.0803e+005  2.5758e+005 144600 212511,212589,212537
 5.6000e+001 212839 -4.8597e+005 -2.3886e+006  8.1469e+005 144210 212689,212741,212715
 5.6000e+001 212816 -4.8009e+005 -2.3234e+006  7.3860e+005 144210 212663,212741,212689
 5.6000e+001 212793 -5.5675e+005 -2.8250e+006  9.5576e+005 144210 212663,212767,212741
 5.6000e+001 212991 -8.4657e+002  1.9849e+003 -7.6026e+002 143920 212890,212942,212916
 5.6000e+001 212968  1.1817e+003 -1.4509e+003 -8.3281e+001 143920 212864,212942,212890
 5.6000e+001 213143 -8.9839e+001 -1.2698e+002 -1.5808e+002 143480 213016,213068,213042
 5.6000e+001 213120 -2.5738e+000 -2.0414e+002 -7.4175e+001 143480 213016,213094,213068
 5.6000e+001 213295 -5.5761e+005 -3.4669e+006  1.5339e+006 142990 213194,213246,213220
 5.6000e+001 213272 -4.0136e+005 -2.0193e+006  1.1377e+006 142990 213168,213246,213194
 5.6000e+001 213447 -2.2603e+005 -3.1522e+006  8.6261e+005 142600 213320,213372,213346
 5.6000e+001 213424 -4.2710e+005 -4.5729e+006  2.0641e+006 142600 213320,213398,213372
 5.6000e+001 213599 -4.2136e+004 -6.0847e+005  6.0779e+004 142260 213472,213524,213498
 5.6000e+001 213576 -1.9066e+005 -7.3736e+005  4.5785e+005 142260 213472,213550,213524
 5.6000e+001 213751 -3.2113e-002 -5.8470e-001 -1.3703e-001 141870 213624,213676,213650
 5.6000e+001 213728  2.1447e-002  3.9049e-001  9.1514e-002 141870 213624,213702,213676
 5.6000e+001 213903 -1.3922e+006 -1.5098e+006 -1.4636e+006 141530 213776,213828,213802
 5.6000e+001 213880 -3.9434e+005 -1.8105e+006 -7.5290e+005 141530 213776,213854,213828
 5.6000e+001 214055 -1.5885e+005 -1.0783e+005  1.3060e+005 141218 213928,213980,213954
 5.6000e+001 214032 -1.9726e+004  1.4351e+004  5.2239e+004 141218 213928,214006,213980
 5.6000e+001 214207 -1.2212e+005 -3.4719e+004  6.5052e+004 140928 214080,214132,214106
 5.6000e+001 214184 -1.3576e+005 -3.9092e+004  7.3401e+004 140928 214080,214158,214132
 5.6000e+001 214359 -5.9805e+004 -2.9269e+005  1.1497e+004 140538 214232,214284,214258
 5.6000e+001 214336 -1.6426e+005 -1.0660e+006  5.8204e+005 140538 214232,214310,214284
 5.6000e+001 214560 -3.2356e+005 -4.1870e+006  1.0194e+006 140248 214384,214462,214410
 5.6000e+001 214537 -6.2817e+004 -2.4120e+006  6.7406e+005 140248 214384,214488,214462
 5.6000e+001 214514 -3.4443e+005 -2.2030e+006 -7.2570e+004 140248 214410,214462,214436
 5.6000e+001 214712 -8.9112e+005 -3.5103e+006  7.3591e+005 140000 214611,214663,214637
 5.6000e+001 214689 -5.4661e+005 -2.6492e+006  9.9045e+005 140000 214585,214663,214611
 5.6000e+001 214913 -3.1894e+005 -1.5961e+006 -5.7912e+005 139596 214737,214815,214763
 5.6000e+001 214890 -2.8722e+005 -6.7135e+005 -1.0799e+004 139596 214737,214841,214815
 5.6000e+001 214867  8.3768e+005 -5.7696e+006  4.4983e+005 139596 214763,214815,214789
 5.6000e+001 215016  1.4303e+002 -5.1986e+001 -4.1827e+001 139420 214938,214990,214964
 5.6000e+001 215168 -4.1263e+006 -1.0996e+007  6.7679e+006 139130 215067,215119,215093
 5.6000e+001 215145 -1.5316e+006 -1.2513e+007  2.2529e+006 139130 215041,215119,215067
 5.6000e+001 215320 -1.8819e+006 -6.7303e+006  3.9606e+006 138790 215219,215271,215245
 5.6000e+001 215297 -1.7571e+006 -1.0758e+007  4.9872e+006 138790 215193,215271,215219
 5.6000e+001 215472 -7.9341e+003 -1.6510e+005  7.3498e+004 138514 215345,215397,215371
 5.6000e+001 215449 -1.0117e+004 -6.1639e+004 -8.8614e+003 138514 215345,215423,215397
 5.6000e+001 215624 -1.5411e+005 -9.4375e+006  2.2405e+006 138174 215497,215549,215523
 5.6000e+001 215601 -1.7239e+005 -6.2601e+006  1.7054e+006 138174 215497,215575,215549
 5.6000e+001 215776 -1.0915e+005 -8.0046e+005  2.3825e+005 137734 215649,215701,215675
 5.6000e+001 215753 -4.7523e+004 -6.4067e+005 -1.5639e+005 137734 215649,215727,215701
 5.6000e+001 215977  6.6061e+005 -1.6060e+007  3.6872e+006 137344 215801,215879,215827
 5.6000e+001 215954 -1.7984e+006 -7.3423e+006 -2.7098e+006 137344 215801,215905,215879
 5.6000e+001 215931 -7.8596e+004 -2.0801e+007 -7.6944e+004 137344 215827,215879,215853
 5.6000e+001 216129 -7.6449e+005 -3.4495e+006  5.1894e+005 136940 216028,216080,216054
 5.6000e+001 216106 -8.0583e+005 -6.6807e+006  1.8689e+006 136940 216002,216080,216028
 5.6000e+001 216330 -1.3764e+006 -9.1298e+006  1.8582e+006 136600 216180,216232,216206
 5.6000e+001 216307 -2.9436e+005 -8.9621e+006  2.6958e+006 136600 216154,216232,216180
 5.6000e+001 216284 -1.3098e+006 -4.9081e+006  4.9447e+005 136600 216154,216258,216232
 5.6000e+001 216482 -1.1230e+005 -5.8480e+006  1.5508e+006 136260 216381,216433,216407
 5.6000e+001 216459 -3.9464e+005 -5.4242e+006  1.4778e+006 136260 216355,216433,216381
 5.6000e+001 216634 -8.1914e+005 -3.1969e+006  1.3661e+006 135970 216533,216585,216559
 5.6000e+001 216611 -3.8452e+005 -5.1290e+006  1.8225e+006 135970 216507,216585,216533
 5.6000e+001 216835 -2.3642e+005 -2.9276e+006 -3.1038e+005 135608 216685,216763,216711
 5.6000e+001 216812  2.2678e+004 -2.6552e+006  1.4826e+004 135608 216659,216763,216685
 5.6000e+001 216789 -2.8280e+004 -3.3420e+006  9.5002e+003 135608 216711,216763,216737
 5.6000e+001 217036 -1.5586e+006 -1.0584e+006  6.6122e+005 135312 216912,216964,216938
 5.6000e+001 217013 -1.1449e+006 -4.1905e+006  2.7737e+006 135312 216886,216964,216912
 5.6000e+001 216990  1.0940e+006 -9.3738e+006  1.6927e+006 135312 216860,216964,216886
 5.6000e+001 217237 -1.7195e+005 -1.0579e+006  4.2308e+005 134908 217061,217139,217113
 5.6000e+001 217214 -2.0723e+005 -1.0818e+006  4.8888e+005 134908 217061,217165,217139
 5.6000e+001 217191 -2.3454e+005 -1.5617e+006  6.4599e+005 134908 217061,217113,217087
 5.6000e+001 217438 -1.3455e+006 -1.9936e+007  3.4993e+005 134568 217288,217366,217314
 5.6000e+001 217415  1.1516e+006 -2.7699e+007 -1.2981e+005 134568 217262,217366,217288
 5.6000e+001 217392 -3.1451e+005 -2.2310e+007 -1.1086e+006 134568 217314,217366,217340
 5.6000e+001 217590 -1.8413e+004 -1.9450e+005  1.2092e+005 134106 217463,217515,217489
 5.6000e+001 217567 -1.1340e+004 -1.2440e+005  1.2922e+004 134106 217463,217541,217515
 5.6000e+001 217791 -1.8032e+006 -2.6294e+007 -7.8606e+006 133816 217641,217693,217667
 5.6000e+001 217768  2.6742e+006 -3.0523e+007  3.0512e+006 133816 217641,217719,217693
 5.6000e+001 217745 -6.7966e+006 -3.5512e+006  4.7097e+006 133816 217615,217719,217641
 5.6000e+001 217992 -4.2108e+006 -5.3694e+006  4.9953e+006 133355 217842,217920,217894
 5.6000e+001 217969  4.0397e+005 -1.2928e+007  2.0653e+006 133355 217816,217920,217842
 5.6000e+001 217946 -7.2061e+005 -3.0233e+006  1.2692e+006 133355 217842,217894,217868
 5.6000e+001 218193 -4.3662e+005 -8.3881e+006 -1.0078e+005 132851 218017,218095,218069
 5.6000e+001 218170 -4.1972e+006 -9.3697e+006  7.2285e+006 132851 218017,218121,218095
 5.6000e+001 218147 -2.1277e+006 -3.8858e+006 -1.1107e+006 132851 218017,218069,218043
 5.6000e+001 218345 -5.5467e+004 -3.7399e+005  1.0883e+005 132511 218244,218296,218270
 5.6000e+001 218322 -3.4149e+004 -7.4098e+005  1.8083e+005 132511 218218,218296,218244
 5.6000e+001 218497  2.0952e+006 -3.1897e+007 -2.6938e+005 132235 218396,218448,218422
 5.6000e+001 218474 -8.4516e+005 -1.0147e+007  6.5163e+005 132235 218370,218448,218396
 5.6000e+001 218698 -8.9106e+004 -1.0703e+007 -1.6515e+006 131945 218574,218626,218600
 5.6000e+001 218675 -1.9753e+006 -2.0798e+007  1.1229e+003 131945 218522,218626,218574
 5.6000e+001 218652 -2.0132e+006 -1.2827e+007 -2.3591e+006 131945 218522,218574,218548
 5.6000e+001 218850 -5.5303e+005 -1.9932e+007  5.1060e+005 131655 218723,218775,218749
 5.6000e+001 218827  3.9173e+005 -1.3289e+007  1.2647e+005 131655 218723,218801,218775
 5.6000e+001 218953 -1.8559e+005 -1.2090e+006  1.2920e+005 131215 218875,218927,218901
 5.6000e+001 219105 -1.0156e+005 -2.9543e+006 -8.3493e+005 130875 218978,219030,219004
 5.6000e+001 219082 -2.8104e+005 -8.1311e+005 -2.3136e+005 130875 218978,219056,219030
 5.6000e+001 219306 -4.2553e+005 -2.2315e+006  2.1608e+004 130429 219156,219234,219208
 5.6000e+001 219283 -5.2143e+005 -1.1028e+006  2.6578e+005 130429 219130,219234,219156
 5.6000e+001 219260 -2.0668e+006 -2.7035e+006  9.6589e+005 130429 219156,219208,219182
 5.6000e+001 219507 -3.8508e+005 -1.6784e+006  6.9350e+005 130025 219383,219435,219409
 5.6000e+001 219484 -3.6437e+005 -1.8310e+006  7.7160e+005 130025 219331,219435,219383
 5.6000e+001 219461 -4.0746e+005 -1.2898e+006  5.3300e+005 130025 219331,219383,219357
 5.6000e+001 219659 -5.2434e+005 -6.6259e+006  1.0747e+006 129685 219558,219610,219584
 5.6000e+001 219636  6.3813e+005 -1.1368e+007 -5.3198e+006 129685 219532,219610,219558
 5.6000e+001 219860 -2.0540e+005 -1.6520e+006  7.4483e+005 129395 219710,219788,219762
 5.6000e+001 219837 -3.6886e+005 -1.5288e+006  6.5445e+005 129395 219684,219788,219710
 5.6000e+001 219814 -4.2224e+004 -2.2040e+006  3.4324e+005 129395 219710,219762,219736
 5.6000e+001 220061  5.6915e+004 -7.3155e+005  1.3323e+005 128991 219937,219989,219963
 5.6000e+001 220038  5.8638e+003 -8.2855e+005  9.2490e+004 128991 219885,219989,219937
 5.6000e+001 220015 -8.9358e+004 -1.2423e+006  1.1029e+005 128991 219885,219937,219911
 5.6000e+001 220262 -1.7521e+005 -3.7575e+005  5.3320e+004 128701 220086,220164,220112
 5.6000e+001 220239 -4.2501e+004 -7.7919e+005  2.0566e+005 128701 220086,220190,220164
 5.6000e+001 220216 -3.0744e+004 -4.4726e+005 -1.1593e+005 128701 220112,220164,220138
 5.6000e+001 220463 -3.9862e+006 -8.2530e+006  3.7582e+006 128297 220339,220391,220365
 5.6000e+001 220440  1.6555e+006 -1.8735e+007  1.2562e+006 128297 220313,220391,220339
 5.6000e+001 220417 -1.2094e+006 -2.3157e+007 -5.6284e+006 128297 220287,220391,220313
 5.6000e+001 220615 -1.3685e+006 -2.5548e+006 -1.3482e+006 128007 220488,220540,220514
 5.6000e+001 220592  1.3421e+006 -1.2134e+007 -1.4806e+004 128007 220488,220566,220540
 5.6000e+001 220767  7.8860e+004 -4.9916e+006  2.3268e+004 127567 220640,220692,220666
 5.6000e+001 220744 -4.1910e+005 -1.8492e+006 -9.4455e+004 127567 220640,220718,220692
 5.6000e+001 220919 -1.4736e+006 -1.7147e+007 -1.8198e+006 127163 220792,220844,220818
 5.6000e+001 220896  7.5475e+005 -2.0384e+007  2.8355e+006 127163 220792,220870,220844
 5.6000e+001 221071 -2.0639e+006 -5.1386e+006  2.8534e+006 126915 220970,221022,220996
 5.6000e+001 221048 -2.2574e+006 -5.4580e+006  2.6945e+006 126915 220944,221022,220970
 5.6000e+001 221272 -2.3214e+006 -4.3640e+006  3.5608e+006 126461 221122,221174,221148
 5.6000e+001 221249 -4.3459e+006 -5.9547e+006  7.3648e+004 126461 221122,221200,221174
 5.6000e+001 221226  8.8567e+005 -1.3252e+007 -3.0666e+006 126461 221096,221200,221122
 5.6000e+001 221375 -1.7163e+000 -6.2051e+000  8.9176e-001 126213 221297,221349,221323
 5.6000e+001 221478  1.0508e-064  4.3015e-065 -1.4608e-066 125766 221400,221452,221426
 5.6000e+001 221679 -3.3918e+004 -4.6934e+005  7.8446e+004 125212 221503,221555,221529
 5.6000e+001 221656 -3.1474e+004 -5.4509e+005  3.9772e+004 125212 221503,221581,221555
 5.6000e+001 221633  2.4719e+005 -1.6503e+006  5.6199e+005 125212 221503,221607,221581
 5.6000e+001 221929 -1.8818e+003 -3.0470e+002 -9.9386e+002 124872 221782,221834,221808
 5.6000e+001 221906 -4.7328e+003  5.4692e+002  2.1225e+003 124872 221756,221834,221782
 5.6000e+001 221883 -5.6471e+003 -5.7192e+003  2.3956e+003 124872 221704,221834,221756
 5.6000e+001 221860 -2.0045e+004 -1.4716e+004  2.1691e+004 124872 221704,221756,221730
 5.6000e+001 222130 -4.5032e+005 -8.9329e+006 -8.2572e+004 124582 221980,222058,222006
 5.6000e+001 222107 -2.2876e+006 -8.5420e+006  3.2133e+005 124582 221954,222058,221980
 5.6000e+001 222084 -1.7270e+006 -8.8660e+006 -5.9347e+005 124582 222006,222058,222032
 5.6000e+001 222282 -1.7380e+006 -8.6084e+006 -2.2623e+006 124192 222181,222233,222207
 5.6000e+001 222259 -7.6920e+005 -7.3270e+006 -1.0621e+006 124192 222155,222233,222181
 5.6000e+001 222483 -4.0132e+005 -5.9738e+006 -3.3440e+006 123702 222333,222385,222359
 5.6000e+001 222460 -2.4858e+005 -2.6924e+006  3.6829e+005 123702 222333,222411,222385
 5.6000e+001 222437 -2.1009e+005 -7.3810e+005 -1.3035e+005 123702 222307,222411,222333
 5.6000e+001 222635 -8.4547e+005 -1.4224e+006 -7.2592e+005 123312 222508,222560,222534
 5.6000e+001 222612  4.4910e+005 -7.0014e+006 -4.5828e+005 123312 222508,222586,222560
 5.6000e+001 222787  1.4328e+004 -1.9339e+005 -1.9878e+004 122858 222686,222738,222712
 5.6000e+001 222764 -3.7450e+004 -3.3548e+005 -8.6126e+004 122858 222660,222738,222686
 5.6000e+001 222939 -4.9315e+004 -7.2027e+005 -5.4621e+003 122568 222812,222864,222838
 5.6000e+001 222916  9.0102e+003 -4.2906e+005  3.0834e+004 122568 222812,222890,222864
 5.6000e+001 223091 -1.0732e+006 -4.2105e+006 -6.8169e+005 122392 222964,223016,222990
 5.6000e+001 223068 -2.0478e+005 -4.0940e+006 -6.8351e+005 122392 222964,223042,223016
 5.6000e+001 223292 -6.7451e+005 -3.7890e+006 -6.4339e+005 121852 223142,223220,223194
 5.6000e+001 223269 -3.3290e+006 -2.5198e+006 -2.0522e+005 121852 223116,223220,223142
 5.6000e+001 223246 -3.5995e+006 -3.8045e+006 -3.0409e+006 121852 223142,223194,223168
 5.6000e+001 223493 -9.3029e+005 -2.0841e+006  3.6017e+005 121406 223343,223395,223369
 5.6000e+001 223470 -1.8536e+006 -1.8618e+006  5.0334e+004 121406 223343,223421,223395
 5.6000e+001 223447 -5.7118e+005 -1.2822e+006  5.5602e+005 121406 223317,223421,223343
 5.6000e+001 223645  3.6050e+005 -1.0327e+007  1.4118e+006 121002 223544,223596,223570
 5.6000e+001 223622 -1.1904e+006 -6.0278e+006  1.5764e+006 121002 223518,223596,223544
 5.6000e+001 223846 -1.8577e+005 -2.0013e+006 -2.1200e+005 120662 223670,223748,223696
 5.6000e+001 223823 -6.5004e+004 -9.4222e+005  3.6477e+004 120662 223670,223774,223748
 5.6000e+001 223800 -4.3339e+005 -1.0111e+006 -5.9495e+005 120662 223696,223748,223722
 5.6000e+001 224047 -3.8601e+005 -1.2842e+006 -1.0934e+005 120222 223897,223949,223923
 5.6000e+001 224024  1.8979e+005 -1.2231e+006 -8.6231e+004 120222 223871,223949,223897
 5.6000e+001 224001 -1.9457e+005 -7.4693e+005 -2.3277e+005 120222 223871,223975,223949
 5.6000e+001 224248 -7.8337e+004 -7.0128e+005 -5.6614e+005 119875 224124,224176,224150
 5.6000e+001 224225 -6.6909e+005 -1.8001e+006 -1.0068e+006 119875 224098,224176,224124
 5.6000e+001 224202 -1.0704e+005 -3.5388e+005 -8.6425e+003 119875 224072,224176,224098
 5.6000e+001 224449  4.3716e+004 -1.0082e+006  7.1193e+004 119677 224325,224377,224351
 5.6000e+001 224426  7.8140e+003 -1.1521e+006  5.4723e+004 119677 224299,224377,224325
 5.6000e+001 224403 -1.0255e+004 -2.8871e+005  1.8673e+004 119677 224273,224377,224299
 5.6000e+001 224552 -7.1375e+004 -1.9688e+005 -5.1206e+004 119273 224474,224526,224500
 5.6000e+001 224704  6.6684e+004 -3.2319e+006 -3.8156e+005 118983 224603,224655,224629
 5.6000e+001 224681 -1.5309e+004 -2.5984e+006 -4.1978e+004 118983 224577,224655,224603
 5.6000e+001 224856 -8.6403e+004 -2.5788e+006 -1.6710e+005 118529 224755,224807,224781
 5.6000e+001 224833  1.9831e+004 -2.9517e+006 -2.2326e+005 118529 224729,224807,224755
 5.6000e+001 225008 -1.8250e+005 -2.5227e+006  1.6558e+004 118353 224881,224933,224907
 5.6000e+001 224985 -6.8167e+004  6.3200e+003 -1.0461e+004 118353 224881,224959,224933
 5.6000e+001 225209 -2.0027e+005 -6.3264e+006 -1.2329e+006 117949 225059,225137,225111
 5.6000e+001 225186 -3.7994e+005 -5.7806e+006 -1.9458e+005 117949 225033,225137,225059
 5.6000e+001 225163 -6.0016e+005 -6.4298e+006 -1.1286e+006 117949 225059,225111,225085
 5.6000e+001 225410 -7.3067e+004 -6.3683e+006  9.2432e+005 117559 225260,225338,225312
 5.6000e+001 225387 -1.0737e+006 -6.7170e+006  5.7396e+005 117559 225234,225338,225260
 5.6000e+001 225364 -5.0990e+005 -4.2935e+006 -1.4796e+006 117559 225260,225312,225286
 5.6000e+001 225611 -1.3220e+006 -8.1495e+006 -2.8511e+006 117361 225461,225513,225487
 5.6000e+001 225588 -5.3642e+005 -8.6303e+006  1.0962e+006 117361 225461,225539,225513
 5.6000e+001 225565 -9.8044e+005 -7.6009e+006  1.7575e+006 117361 225435,225539,225461
 5.6000e+001 225812  2.9310e+005 -6.8494e+006 -1.1037e+006 116900 225636,225714,225662
 5.6000e+001 225789 -8.6818e+005 -4.4916e+006 -1.2945e+006 116900 225636,225740,225714
 5.6000e+001 225766 -4.5801e+003 -6.9808e+006 -1.7116e+005 116900 225662,225714,225688
 5.6000e+001 225964 -1.1605e+005 -2.7942e+006 -1.8393e+005 116560 225837,225889,225863
 5.6000e+001 225941  1.2154e+005 -3.9774e+006  5.8234e+004 116560 225837,225915,225889
 5.6000e+001 226165 -1.2423e+005 -1.4643e+006 -4.9710e+005 116106 226015,226093,226041
 5.6000e+001 226142 -7.4049e+005 -1.3720e+006 -1.1478e+006 116106 225989,226093,226015
 5.6000e+001 226119 -1.1112e+006 -7.2681e+005  3.5491e+005 116106 226041,226093,226067
 5.6000e+001 226268 -1.1091e+006 -4.9287e+006  5.5462e+005 115716 226190,226242,226216
 5.6000e+001 226420 -1.7686e+005 -8.5716e+006  2.1526e+006 115376 226293,226345,226319
 5.6000e+001 226397 -1.7206e+005 -8.3828e+006  1.8225e+006 115376 226293,226371,226345
 5.6000e+001 226621 -3.9360e+005 -1.2320e+006  2.2213e+005 114972 226497,226549,226523
 5.6000e+001 226598 -4.9141e+005 -6.7627e+006 -4.8179e+005 114972 226445,226549,226497
 5.6000e+001 226575 -2.1334e+005 -3.3253e+006  7.5067e+005 114972 226445,226497,226471
 5.6000e+001 226773 -1.4964e+006 -1.4651e+006 -8.4249e+005 114670 226646,226698,226672
 5.6000e+001 226750  3.2969e+005 -4.4860e+006  4.5170e+005 114670 226646,226724,226698
 5.6000e+001 226974  2.0819e+004 -1.1934e+006 -1.7963e+005 114082 226798,226850,226824
 5.6000e+001 226951  6.8929e+004 -1.5874e+006 -4.2036e+004 114082 226798,226902,226850
 5.6000e+001 226928  5.4582e+003 -2.2220e+006 -1.8501e+005 114082 226850,226902,226876
 5.6000e+001 227175 -5.3674e+005 -4.7162e+006 -2.1470e+006 113678 226999,227051,227025
 5.6000e+001 227152 -1.8628e+006 -8.6244e+006 -3.5196e+006 113678 226999,227077,227051
 5.6000e+001 227129 -2.5684e+006 -5.5341e+006 -3.0674e+006 113678 226999,227103,227077
 5.6000e+001 227425 -3.4751e+006 -8.4787e+006 -9.0536e+006 113274 227226,227278,227252
 5.6000e+001 227402 -4.5409e+005 -7.9940e+006 -1.7085e+006 113274 227226,227330,227278
 5.6000e+001 227379 -3.8336e+006 -4.5207e+006 -1.8656e+006 113274 227200,227330,227226
 5.6000e+001 227356 -1.3928e+006 -1.5801e+006 -1.7198e+006 113274 227278,227330,227304
 5.6000e+001 227626 -1.4291e+005 -2.6841e+006 -1.2720e+006 112934 227502,227554,227528
 5.6000e+001 227603  6.4907e+004 -2.0349e+006 -1.7529e+005 112934 227450,227554,227502
 5.6000e+001 227580 -1.2188e+006 -8.0782e+005 -1.1252e+005 112934 227450,227502,227476
 5.6000e+001 227876 -1.9217e+005 -1.2260e+006  6.6387e+003 112437 227677,227755,227703
 5.6000e+001 227853 -8.9663e+005 -1.5285e+006  9.3385e+005 112437 227677,227781,227755
 5.6000e+001 227830 -2.2169e+005 -7.4535e+005  2.9434e+005 112437 227703,227755,227729
 5.6000e+001 227807 -4.2373e+005 -3.6004e+006  2.2140e+005 112437 227651,227781,227677
 5.6000e+001 228126 -1.4550e+005 -4.2870e+006 -3.2406e+005 112041 227927,228005,227953
 5.6000e+001 228103 -3.1031e+005 -3.8375e+006 -7.7919e+004 112041 227927,228031,228005
 5.6000e+001 228080  1.8757e+005 -5.5095e+006 -1.1173e+005 112041 227953,228005,227979
 5.6000e+001 228057 -8.6026e+005 -2.5582e+006 -4.4528e+005 112041 227901,228031,227927
 5.6000e+001 228327 -1.1304e+006 -2.4567e+006 -3.2328e+005 111693 228151,228203,228177
 5.6000e+001 228304 -4.9726e+005 -1.6324e+006 -7.6776e+005 111693 228151,228229,228203
 5.6000e+001 228281  1.4686e+005 -2.9340e+006  1.8560e+005 111693 228151,228255,228229
 5.6000e+001 228479 -3.8348e+006 -2.4584e+006 -3.9404e+006 111253 228352,228404,228378
 5.6000e+001 228456 -2.4087e+006 -4.9661e+005 -1.2908e+005 111253 228352,228430,228404
 5.6000e+001 228582  1.1048e+002 -5.2897e+004  2.7836e+003 110906 228504,228556,228530
 5.6000e+001 228783  3.7982e+003 -1.3400e+006 -3.8985e+004 110416 228633,228711,228659
 5.6000e+001 228760  7.6959e+004 -1.0951e+006  5.4887e+003 110416 228607,228711,228633
 5.6000e+001 228737  4.0945e+004 -1.4223e+006 -7.0063e+004 110416 228659,228711,228685
 5.6000e+001 228935 -8.7317e+004 -2.3292e+006 -4.9024e+005 110012 228808,228860,228834
 5.6000e+001 228912 -7.1505e+005 -4.4460e+006 -1.1083e+006 110012 228808,228886,228860
 5.6000e+001 229087 -1.2262e+006 -2.3610e+006 -8.3769e+005 109672 228960,229012,228986
 5.6000e+001 229064 -3.1629e+005 -4.2082e+006 -3.1286e+005 109672 228960,229038,229012
 5.6000e+001 229190 -7.1166e+004 -5.6374e+005 -3.3036e+003 109332 229112,229164,229138
 5.6000e+001 229391 -6.4083e+005 -1.3415e+005  1.8753e+005 109156 229267,229319,229293
 5.6000e+001 229368 -6.4963e+005 -7.6358e+005  2.8057e+005 109156 229215,229319,229267
 5.6000e+001 229345 -3.9237e+005 -1.4759e+005 -6.4667e+004 109156 229215,229267,229241
 5.6000e+001 229543  5.4578e+005 -1.0574e+007  1.4169e+006 108752 229416,229468,229442
 5.6000e+001 229520 -1.0237e+006 -4.5284e+006 -6.1590e+005 108752 229416,229494,229468
 5.6000e+001 229744 -1.7145e+005 -6.4162e+006 -1.2351e+005 108198 229594,229646,229620
 5.6000e+001 229721  4.8108e+005 -6.2595e+006 -3.4742e+004 108198 229594,229672,229646
 5.6000e+001 229698 -8.6812e+005 -5.3769e+006  3.4534e+005 108198 229568,229672,229594
 5.6000e+001 229847 -1.2599e+005 -1.5589e+006 -3.4222e+005 107758 229769,229821,229795
 5.6000e+001 230048 -6.2720e+005 -1.6484e+006 -2.2085e+005 107468 229898,229950,229924
 5.6000e+001 230025 -5.8758e+005 -1.4954e+006  7.2550e+004 107468 229872,229950,229898
 5.6000e+001 230002 -8.0150e+005 -1.9426e+006  4.5844e+005 107468 229872,229976,229950
 5.6000e+001 230298  5.6791e+003 -6.7191e+005  2.9228e+004 107121 230099,230203,230177
 5.6000e+001 230275  7.8559e+004 -1.5285e+006  6.1136e+004 107121 230073,230203,230099
 5.6000e+001 230252  1.2722e+005 -6.5263e+005  1.3999e+004 107121 230099,230177,230151
 5.6000e+001 230229 -7.0608e+004 -4.7577e+005 -1.8340e+005 107121 230099,230151,230125
 5.6000e+001 230450  1.1919e+005 -1.5286e+006 -1.2348e+005 106823 230349,230401,230375
 5.6000e+001 230427 -7.2658e+004 -6.1960e+005  6.9790e+004 106823 230323,230401,230349
 5.6000e+001 230602 -2.2998e+006 -1.1812e+007 -7.7092e+006 106533 230501,230553,230527
 5.6000e+001 230579 -3.6428e+005 -1.1816e+007  1.3663e+006 106533 230475,230553,230501
 5.6000e+001 230803 -6.2297e+004 -1.5944e+006 -4.5448e+004 106029 230679,230731,230705
 5.6000e+001 230780  5.1018e+004 -1.1391e+006 -2.2092e+004 106029 230653,230731,230679
 5.6000e+001 230757 -7.8002e+003 -1.3925e+006 -8.7631e+004 106029 230627,230731,230653
 5.6000e+001 231004 -8.6891e+004 -1.0173e+006  4.7155e+004 105689 230854,230906,230880
 5.6000e+001 230981 -1.9593e+003 -1.3812e+006 -3.4643e+005 105689 230828,230906,230854
 5.6000e+001 230958 -2.7826e+005 -1.1540e+006 -5.3100e+005 105689 230828,230932,230906
 5.6000e+001 231156  4.9297e+005 -8.2667e+006 -5.3245e+005 105377 231055,231107,231081
 5.6000e+001 231133  2.4000e+005 -5.1476e+006  4.5848e+005 105377 231029,231107,231055
 5.6000e+001 231406 -3.4416e+005 -8.9583e+006 -1.6274e+006 104858 231207,231259,231233
 5.6000e+001 231383 -1.5830e+006 -9.1377e+006 -1.6917e+006 104858 231207,231311,231259
 5.6000e+001 231360 -6.5955e+005 -1.0604e+007 -2.5263e+006 104858 231259,231311,231285
 5.6000e+001 231337 -9.7699e+005 -1.2014e+007 -2.4658e+006 104858 231181,231311,231207
 5.6000e+001 231558 -1.5237e+006 -1.4624e+007  4.0534e+006 104418 231457,231509,231483
 5.6000e+001 231535 -2.4145e+006 -1.4313e+007 -7.3842e+006 104418 231431,231509,231457
 5.6000e+001 231710 -1.3186e+006 -1.2431e+006 -4.4482e+005 103978 231583,231635,231609
 5.6000e+001 231687 -8.8811e+005 -1.2759e+006 -6.8763e+005 103978 231583,231661,231635
 5.6000e+001 231862 -4.0894e+004 -2.2335e+006  4.8988e+003 103588 231761,231813,231787
 5.6000e+001 231839  4.3459e+004 -1.8521e+006 -1.4715e+004 103588 231735,231813,231761
 5.6000e+001 232014 -2.2918e+006 -9.4621e+006 -2.9566e+006 103248 231887,231939,231913
 5.6000e+001 231991 -2.0218e+006 -1.9733e+007 -7.3058e+006 103248 231887,231965,231939
 5.6000e+001 232215 -5.6565e+004 -1.0082e+006  3.6619e+004 102844 232039,232117,232065
 5.6000e+001 232192  3.8692e+004 -5.4936e+005  3.8701e+004 102844 232039,232143,232117
 5.6000e+001 232169 -1.2418e+005 -6.8231e+005 -1.8778e+005 102844 232065,232117,232091
 5.6000e+001 232416 -4.2124e+006 -1.0994e+007 -4.4330e+006 102554 232240,232318,232292
 5.6000e+001 232393  1.5874e+006 -1.8049e+007 -8.2567e+004 102554 232240,232344,232318
 5.6000e+001 232370 -5.5941e+006 -4.1130e+006 -9.2039e+005 102554 232240,232292,232266
 5.6000e+001 232568 -4.6803e+004 -7.7306e+005  2.6160e+004 102100 232441,232493,232467
 5.6000e+001 232545 -4.0679e+005 -9.5104e+005  3.0424e+005 102100 232441,232519,232493
 5.6000e+001 232769 -2.8835e+004 -3.5542e+005  6.1747e+004 101596 232645,232697,232671
 5.6000e+001 232746  1.1841e+004 -1.9509e+005  3.3699e+004 101596 232593,232697,232645
 5.6000e+001 232723 -1.0193e+004 -3.4230e+005  5.9285e+004 101596 232593,232645,232619
 5.6000e+001 232921 -5.4948e+000 -2.9248e+001  2.1232e+001 101420 232794,232846,232820
 5.6000e+001 232898  1.3728e+001 -1.6000e+001  5.7820e-001 101420 232794,232872,232846
 5.6000e+001 233073 -1.1020e+006 -7.0969e+005 -4.0797e+005 101023 232946,232998,232972
 5.6000e+001 233050 -4.2064e+005 -1.5450e+006  2.2328e+005 101023 232946,233024,232998
 5.6000e+001 233225  4.9655e+004 -1.0120e+006 -4.7432e+003 100661 233098,233150,233124
 5.6000e+001 233202 -3.1839e+004 -6.5025e+005 -2.3755e+004 100661 233098,233176,233150
 5.6000e+001 233426 -2.5217e+006 -7.9814e+006 -2.8408e+006 100265 233276,233328,233302
 5.6000e+001 233403 -1.0724e+006 -6.6133e+006 -6.0238e+004 100265 233276,233354,233328
 5.6000e+001 233380 -2.0264e+006 -8.6037e+006 -8.5740e+005 100265 233250,233354,233276
 5.6000e+001 233578 -6.6864e+002 -3.6841e+005  1.4676e+004 100032 233451,233503,233477
 5.6000e+001 233555 -4.7948e+004 -3.7592e+005  5.7102e+004 100032 233451,233529,233503
 5.6000e+001 233681 -4.1940e+005 -7.0230e+003 -4.3056e+004 99742 233603,233655,233629
 5.6000e+001 233784 -5.9557e+005 -2.7838e+006 -2.6883e+005 99402 233706,233758,233732
 5.6000e+001 233936 -6.1687e+005 -1.6345e+006  2.8244e+005 99062 233835,233887,233861
 5.6000e+001 233913 -5.7441e+005 -1.5000e+006  4.2897e+005 99062 233809,233887,233835
 5.6000e+001 234088 -8.1260e+005 -3.5074e+006  1.1735e+006 98772 233987,234039,234013
 5.6000e+001 234065 -3.3918e+005 -3.4443e+006  1.0019e+006 98772 233961,234039,233987
 5.6000e+001 234240 -1.4574e+004 -5.7996e+004  1.9385e+004 98160 234139,234191,234165
 5.6000e+001 234217 -1.8326e+004 -7.2429e+004 -9.2749e+003 98160 234113,234191,234139
 5.6000e+001 234441 -2.8867e+002  4.1187e+002  1.6376e+002 97820 234317,234369,234343
 5.6000e+001 234418 -1.6512e+002  7.7633e+002 -1.7219e+002 97820 234291,234369,234317
 5.6000e+001 234395 -5.1349e+002  1.7338e+003 -2.0851e+002 97820 234265,234369,234291
 5.6000e+001 234593 -3.6533e+005 -1.3333e+006 -3.1863e+005 97366 234466,234518,234492
 5.6000e+001 234570  2.2331e+005 -3.6403e+006 -4.2599e+005 97366 234466,234544,234518
 5.6000e+001 234794 -8.5992e+005 -1.3155e+006 -8.9620e+005 96976 234618,234670,234644
 5.6000e+001 234771 -2.2084e+005 -2.7550e+006 -7.0734e+005 96976 234618,234722,234670
 5.6000e+001 234748 -7.8626e+005 -2.8123e+006 -1.6039e+006 96976 234670,234722,234696
 5.6000e+001 234946 -9.6458e+005 -1.7033e+006  6.7997e+005 96568 234845,234897,234871
 5.6000e+001 234923 -6.7616e+005 -1.0212e+006  1.1269e+006 96568 234819,234897,234845
 5.6000e+001 235196 -1.7452e+005 -7.7265e+005 -2.2096e+005 96216 234997,235075,235049
 5.6000e+001 235173  8.3807e+004 -3.7246e+006  1.0642e+006 96216 234997,235101,235075
 5.6000e+001 235150 -4.0037e+005 -9.5634e+005  9.5749e+004 96216 234997,235049,235023
 5.6000e+001 235127 -1.7479e+005 -3.9055e+006  8.2628e+005 96216 234971,235101,234997
 5.6000e+001 235348 -1.0315e+006 -1.7251e+006 -1.2644e+006 95863 235247,235299,235273
 5.6000e+001 235325 -7.4524e+005 -1.3658e+006 -9.1769e+005 95863 235221,235299,235247
 5.6000e+001 235500 -7.1963e+005 -2.3224e+006 -1.0964e+006 95339 235373,235425,235399
 5.6000e+001 235477 -4.5231e+005 -3.8655e+006  2.8095e+006 95339 235373,235451,235425
 5.6000e+001 235701  8.6292e+004 -3.3909e+006  7.2194e+005 95023 235525,235577,235551
 5.6000e+001 235678 -1.4850e+005 -3.3293e+006  6.6824e+005 95023 235525,235629,235577
 5.6000e+001 235655 -1.6125e+005 -5.7713e+006  1.1777e+006 95023 235577,235629,235603
 5.6000e+001 235853  7.0179e+005 -1.4661e+007  6.3866e+005 94671 235726,235778,235752
 5.6000e+001 235830 -1.2975e+005 -1.3464e+007 -2.5982e+005 94671 235726,235804,235778
 5.6000e+001 236005 -1.4274e+006 -9.3318e+006 -8.3878e+005 94261 235904,235956,235930
 5.6000e+001 235982 -2.3196e+005 -1.1748e+007 -3.2652e+006 94261 235878,235956,235904
 5.6000e+001 236206 -6.7535e+005 -6.5477e+005  9.9520e+005 93853 236056,236134,236082
 5.6000e+001 236183 -1.2433e+006 -8.2081e+005  4.8146e+005 93853 236030,236134,236056
 5.6000e+001 236160 -9.2135e+005 -9.2779e+005  8.4006e+005 93853 236082,236134,236108
 5.6000e+001 236407 -1.6092e+006 -6.0392e+006  2.2553e+004 93557 236257,236309,236283
 5.6000e+001 236384 -2.6710e+006 -6.6884e+006 -1.8254e+006 93557 236231,236309,236257
 5.6000e+001 236361  1.0463e+006 -1.8077e+007  1.7554e+006 93557 236231,236335,236309
 5.6000e+001 236559 -1.1057e+003 -4.1190e+004  1.3182e+004 93149 236432,236484,236458
 5.6000e+001 236536  1.6559e+004 -8.8413e+003  3.5377e+004 93149 236432,236510,236484
 5.6000e+001 236711  5.9237e+002 -1.4349e+005  9.8185e+003 92853 236584,236636,236610
 5.6000e+001 236688 -1.8417e+004 -4.7586e+005  8.9722e+004 92853 236584,236662,236636
 5.6000e+001 236912 -3.0536e+005 -2.8504e+006  1.1562e+006 92501 236736,236788,236762
 5.6000e+001 236889 -5.1949e+005 -1.5344e+006  4.1669e+005 92501 236736,236840,236788
 5.6000e+001 236866 -6.3584e+005 -2.2735e+006  2.7528e+005 92501 236788,236840,236814
 5.6000e+001 237113 -1.5556e+005 -5.9433e+006  3.5570e+005 92291 236963,237041,237015
 5.6000e+001 237090  1.0553e+005 -3.1263e+006  6.3090e+004 92291 236937,237041,236963
 5.6000e+001 237067 -2.8435e+005 -5.4544e+006  1.2457e+006 92291 236963,237015,236989
 5.6000e+001 237265  1.2757e+005 -1.0455e+006 -5.2510e+005 91871 237138,237190,237164
 5.6000e+001 237242 -1.0435e+006 -3.1604e+006 -1.5150e+006 91871 237138,237216,237190
 5.6000e+001 237368  8.6952e+002 -1.6051e+006 -6.0522e+002 91581 237290,237342,237316
 5.6000e+001 237520 -1.6048e+004 -1.1314e+005  2.9145e+004 91184 237419,237471,237445
 5.6000e+001 237497 -1.4344e+004 -2.0071e+005 -4.8414e+004 91184 237393,237471,237419
 5.6000e+001 237672 -8.0832e+005 -1.3462e+006 -3.5611e+005 90894 237545,237597,237571
 5.6000e+001 237649 -2.6921e+005 -4.9493e+006  1.2260e+006 90894 237545,237623,237597
 5.6000e+001 237873 -8.7307e+005 -5.0055e+006  9.2477e+005 90490 237749,237801,237775
 5.6000e+001 237850 -7.1994e+005 -3.7136e+006  9.7429e+005 90490 237723,237801,237749
 5.6000e+001 237827 -1.1914e+006 -3.8375e+006 -5.9045e+005 90490 237697,237801,237723
 5.6000e+001 238074 -8.7936e+005 -6.4171e+006  6.4373e+005 90100 237898,237976,237950
 5.6000e+001 238051 -1.5104e+006 -6.3343e+006  3.3134e+005 90100 237898,238002,237976
 5.6000e+001 238028 -6.1032e+005 -5.8914e+006  4.4129e+005 90100 237898,237950,237924
 5.6000e+001 238275  7.7764e+003 -2.1286e+006  1.0612e+006 89696 238125,238177,238151
 5.6000e+001 238252 -3.6923e+005 -1.2026e+006 -9.3385e+005 89696 238099,238177,238125
 5.6000e+001 238229 -7.8577e+005 -1.7500e+006 -6.4286e+005 89696 238099,238203,238177
 5.6000e+001 238427  1.0960e+004 -3.7551e+004 -1.5063e+004 89206 238326,238378,238352
 5.6000e+001 238404 -1.2690e+004 -2.1820e+005 -3.8641e+004 89206 238300,238378,238326
 5.6000e+001 238579 -8.5343e+005 -3.6276e+006  1.8494e+006 88908 238452,238504,238478
 5.6000e+001 238556 -1.7330e+005 -2.6713e+006  4.3702e+004 88908 238452,238530,238504
 5.6000e+001 238682  3.1053e-054 -5.0478e-052 -2.5167e-052 88568 238604,238656,238630
 5.6000e+001 238883  3.2581e+005 -6.1768e+006  1.7683e+006 88278 238733,238811,238785
 5.6000e+001 238860 -8.1959e+005 -2.9464e+006  1.5084e+006 88278 238707,238811,238733
 5.6000e+001 238837 -2.3034e+005 -6.5527e+006  1.2284e+006 88278 238733,238785,238759
 5.6000e+001 239035 -1.4296e+006 -4.6244e+006 -4.1873e+005 87988 238908,238960,238934
 5.6000e+001 239012 -1.6155e+006 -2.1755e+006  3.7978e+005 87988 238908,238986,238960
 5.6000e+001 239138  1.2088e+003 -5.6941e+005  1.3553e+005 87648 239060,239112,239086
 5.6000e+001 239339 -1.1008e+006 -3.4676e+006 -2.1432e+006 87358 239163,239215,239189
 5.6000e+001 239316 -1.1009e+006 -2.2534e+006 -5.6412e+005 87358 239163,239241,239215
 5.6000e+001 239293 -8.7115e+005 -1.1963e+006 -1.0210e+006 87358 239163,239267,239241
 5.6000e+001 239589  6.6920e+001  3.3637e+002  2.6691e+002 86961 239390,239468,239416
 5.6000e+001 239566 -6.0691e+002 -2.2918e+002 -4.3942e+002 86961 239390,239494,239468
 5.6000e+001 239543 -3.7387e+002  8.1126e+002 -1.0368e+002 86961 239416,239468,239442
 5.6000e+001 239520 -7.1380e+002 -4.4061e+002 -5.3177e+002 86961 239364,239494,239390
 5.6000e+001 239741 -9.8682e+005 -3.2458e+006 -4.2907e+005 86621 239640,239692,239666
 5.6000e+001 239718 -1.8932e+004 -3.9318e+006 -8.8774e+005 86621 239614,239692,239640
 5.6000e+001 239893 -5.6870e+005 -5.5083e+006  1.5895e+006 86217 239792,239844,239818
 5.6000e+001 239870 -6.7616e+005 -4.0520e+006  9.5882e+005 86217 239766,239844,239792
 5.6000e+001 240045 -9.2857e+005 -3.7735e+006  9.7445e+005 85827 239918,239970,239944
 5.6000e+001 240022 -2.3096e+005 -3.5748e+006  3.1618e+005 85827 239918,239996,239970
 5.6000e+001 240197 -6.5160e+005 -8.0927e+006  1.1364e+006 85437 240096,240148,240122
 5.6000e+001 240174 -1.6090e+006 -9.8942e+005 -5.2154e+005 85437 240070,240148,240096
 5.6000e+001 240349 -4.1672e+004 -1.5709e+006  3.8552e+005 85147 240222,240274,240248
 5.6000e+001 240326 -9.9484e+004 -1.0017e+006 -1.7027e+005 85147 240222,240300,240274
 5.6000e+001 240501 -3.4962e+005 -1.4327e+006  6.2830e+005 84807 240374,240426,240400
 5.6000e+001 240478 -1.7365e+006 -2.2369e+006  1.2956e+006 84807 240374,240452,240426
 5.6000e+001 240653  4.1074e+002 -1.4891e+002  6.7734e+001 84303 240552,240604,240578
 5.6000e+001 240630  2.2156e+002 -8.0813e+002 -3.0347e+001 84303 240526,240604,240552
 5.6000e+001 240854 -6.8247e+004 -1.1077e+007 -5.1684e+006 83929 240704,240756,240730
 5.6000e+001 240831  1.5852e+006 -8.9890e+006  2.2943e+006 83929 240704,240782,240756
 5.6000e+001 240808 -3.1853e+006  1.6718e+006  2.6426e+006 83929 240678,240782,240704
 5.6000e+001 241055 -4.4768e+001 -1.2322e+004 -2.8982e+003 83539 240879,240957,240931
 5.6000e+001 241032  1.2008e+002 -1.3314e+004 -1.2507e+003 83539 240879,240983,240957
 5.6000e+001 241009 -4.1925e+003 -2.5576e+003 -2.9066e+003 83539 240879,240931,240905
 5.6000e+001 241207  1.3645e+004 -1.5951e+006  1.0937e+005 83079 241106,241158,241132
 5.6000e+001 241184  4.9672e+004 -1.4211e+006  1.5298e+005 83079 241080,241158,241106
 5.6000e+001 241408  8.8333e+003 -2.0927e+006 -1.1867e+006 82665 241232,241284,241258
 5.6000e+001 241385 -3.7264e+005 -2.1051e+006 -3.7477e+006 82665 241232,241336,241284
 5.6000e+001 241362 -3.8393e+006 -1.0892e+007  6.4666e+006 82665 241284,241336,241310
 5.6000e+001 241658 -2.2563e+005 -4.1792e+006  5.5900e+005 82375 241485,241563,241511
 5.6000e+001 241635  1.7542e+004 -2.3365e+006  2.1043e+005 82375 241433,241563,241485
 5.6000e+001 241612 -9.0651e+004 -2.7864e+006  2.1388e+005 82375 241433,241485,241459
 5.6000e+001 241589 -6.6177e+005 -4.5215e+006  7.9786e+005 82375 241511,241563,241537
 5.6000e+001 241810 -1.0838e+006 -3.4247e+006 -3.6250e+005 82035 241683,241735,241709
 5.6000e+001 241787 -1.3796e+006 -4.2917e+006  7.6198e+005 82035 241683,241761,241735
 5.6000e+001 241962 -7.8811e+005 -2.9183e+006  4.7163e+005 81695 241861,241913,241887
 5.6000e+001 241939 -2.2396e+005 -3.4809e+006 -6.5751e+005 81695 241835,241913,241861
 5.6000e+001 242114 -1.3027e+006 -6.8298e+006  2.3899e+006 81355 242013,242065,242039
 5.6000e+001 242091 -2.4098e+005 -3.4699e+006  1.0133e+006 81355 241987,242065,242013
 5.6000e+001 242266 -4.6199e+004 -5.8183e+005 -1.4166e+005 80951 242139,242191,242165
 5.6000e+001 242243 -3.6731e+005 -1.7922e+006 -4.2785e+005 80951 242139,242217,242191
 5.6000e+001 242467 -4.3324e+005 -5.0971e+006  5.6571e+005 80311 242291,242369,242343
 5.6000e+001 242444  1.5393e+005 -2.6354e+006  4.2004e+005 80311 242291,242395,242369
 5.6000e+001 242421 -2.4102e+005 -1.5226e+006  1.5742e+005 80311 242291,242343,242317
 5.6000e+001 242619 -1.4560e+006 -3.0784e+006  4.3209e+005 80021 242492,242544,242518
 5.6000e+001 242596 -1.3536e+006 -2.7505e+006  1.5186e+006 80021 242492,242570,242544
 5.6000e+001 242869 -5.8309e+005 -3.0467e+005 -1.3699e+005 79631 242644,242722,242696
 5.6000e+001 242846 -1.0401e+005 -2.0331e+006  1.9515e+005 79631 242644,242774,242722
 5.6000e+001 242823  1.6625e+005 -1.0979e+006  1.4195e+004 79631 242722,242774,242748
 5.6000e+001 242800 -5.9311e+005 -4.9994e+005  1.6306e+004 79631 242644,242696,242670
 5.6000e+001 243070 -3.1354e+005 -1.5888e+007  3.5917e+006 79341 242920,242972,242946
 5.6000e+001 243047 -8.0339e+005 -8.3395e+006 -2.7430e+005 79341 242920,242998,242972
 5.6000e+001 243024 -1.0064e+006 -5.4012e+006  2.3327e+006 79341 242894,242998,242920
 5.6000e+001 243222 -4.8822e+005 -4.1314e+006  1.6942e+006 78801 243121,243173,243147
 5.6000e+001 243199 -5.1691e+005 -4.3929e+006  1.5080e+006 78801 243095,243173,243121
 5.6000e+001 243423 -9.2144e+005 -5.4478e+006 -6.3244e+005 78511 243273,243325,243299
 5.6000e+001 243400  8.1897e+005 -1.0315e+007  1.8931e+006 78511 243273,243351,243325
 5.6000e+001 243377 -6.6757e+003 -1.0623e+007  2.6448e+005 78511 243247,243351,243273
 5.6000e+001 243624 -4.7348e+005 -4.8584e+006 -1.6292e+006 78107 243474,243552,243526
 5.6000e+001 243601 -4.9727e+005 -5.2736e+006 -1.5585e+006 78107 243448,243552,243474
 5.6000e+001 243578 -2.2336e+005 -5.0904e+006 -1.8713e+006 78107 243474,243526,243500
 5.6000e+001 243776 -7.5123e+005 -5.1162e+006 -1.0106e+006 77653 243649,243701,243675
 5.6000e+001 243753 -1.7014e+006 -8.2092e+006 -4.4126e+005 77653 243649,243727,243701
 5.6000e+001 243977 -4.0555e+005 -5.9642e+006  2.3594e+004 77093 243801,243853,243827
 5.6000e+001 243954 -6.8907e+004 -4.9558e+006  7.0391e+005 77093 243801,243879,243853
 5.6000e+001 243931 -2.6032e+005 -2.1674e+006 -1.5879e+005 77093 243801,243905,243879
 5.6000e+001 244080 -5.9730e+005 -7.8081e+006  5.8458e+005 76791 244002,244054,244028
 5.6000e+001 244232 -2.3964e+005 -5.3010e+006  4.3506e+004 76311 244131,244183,244157
 5.6000e+001 244209 -2.2466e+005 -9.9753e+006  4.9856e+005 76311 244105,244183,244131
 5.6000e+001 244433 -1.6450e+006 -1.8249e+007  4.9819e+006 75903 244283,244335,244309
 5.6000e+001 244410 -1.6762e+006 -1.1217e+007 -2.6029e+005 75903 244283,244361,244335
 5.6000e+001 244387 -2.3309e+006 -1.0472e+007  2.7185e+005 75903 244257,244361,244283
 5.6000e+001 244585 -7.0281e+004 -1.7816e+007  1.4721e+006 75419 244458,244510,244484
 5.6000e+001 244562 -8.9041e+005 -1.0700e+007 -1.9319e+005 75419 244458,244536,244510
 5.6000e+001 244737 -4.3854e+005 -6.9936e+005 -1.9519e+005 75215 244636,244688,244662
 5.6000e+001 244714 -2.4568e+005 -4.6565e+006 -1.8113e+005 75215 244610,244688,244636
 5.6000e+001 244889 -9.1251e+005 -5.4890e+006 -3.9879e+005 74857 244788,244840,244814
 5.6000e+001 244866 -9.6320e+004 -2.2810e+006 -2.3368e+005 74857 244762,244840,244788
 5.6000e+001 245041  4.0065e+004 -7.0246e+005 -4.5315e+005 74653 244940,244992,244966
 5.6000e+001 245018 -9.6701e+004 -1.4924e+005  2.8628e+005 74653 244914,244992,244940
 5.6000e+001 245144 -1.1650e+006 -5.7831e+006 -1.3088e+006 74359 245066,245118,245092
 5.6000e+001 245296 -8.6491e+004 -1.4202e+006 -4.5041e+005 74007 245169,245221,245195
 5.6000e+001 245273 -5.0026e+005 -2.4548e+006 -7.5892e+005 74007 245169,245247,245221
 5.6000e+001 245448 -1.1376e+006 -7.0346e+006  1.3956e+006 73711 245321,245373,245347
 5.6000e+001 245425 -2.7794e+005 -6.7774e+006 -1.9309e+006 73711 245321,245399,245373
 5.6000e+001 245600  5.3202e+005 -1.3361e+007 -9.3550e+005 73301 245499,245551,245525
 5.6000e+001 245577 -1.5891e+006 -9.7152e+006  1.9219e+006 73301 245473,245551,245499
 5.6000e+001 245752 -1.7770e+006 -2.6307e+006 -1.6288e+006 72995 245625,245677,245651
 5.6000e+001 245729  3.4203e+005 -1.0183e+007 -1.1586e+006 72995 245625,245703,245677
 5.6000e+001 245953 -2.5574e+006 -8.7889e+006  8.0052e+005 72585 245777,245829,245803
 5.6000e+001 245930 -1.1785e+006 -1.6164e+007  4.2866e+006 72585 245777,245855,245829
 5.6000e+001 245907 -2.9603e+005 -6.0070e+006  7.0118e+005 72585 245777,245881,245855
 5.6000e+001 246154 -3.5762e+005 -6.9454e+006  1.2173e+006 72127 246030,246082,246056
 5.6000e+001 246131 -1.0617e+006 -8.8211e+006  5.8935e+005 72127 245978,246082,246030
 5.6000e+001 246108 -5.4596e+004 -8.9443e+006  6.2160e+004 72127 245978,246030,246004
 5.6000e+001 246257 -1.4632e+006 -3.6568e+005 -2.1074e+005 71737 246179,246231,246205
 5.6000e+001 246360  1.2775e+005 -3.2242e+006  5.0262e+005 71447 246282,246334,246308
 5.6000e+001 246512 -2.1610e+005 -2.9949e+006  1.1482e+006 71157 246385,246437,246411
 5.6000e+001 246489 -8.9970e+004 -2.3002e+006 -1.2103e+005 71157 246385,246463,246437
 5.6000e+001 246664 -1.5977e+005 -2.5981e+006 -3.8089e+005 70753 246537,246589,246563
 5.6000e+001 246641 -6.3000e+005 -1.4202e+006 -1.7656e+005 70753 246537,246615,246589
 5.6000e+001 246865 -2.1608e+006 -1.1000e+007  7.6571e+006 70249 246715,246767,246741
 5.6000e+001 246842 -1.4641e+006 -9.8225e+006 -1.0846e+006 70249 246715,246793,246767
 5.6000e+001 246819 -2.1140e+005 -1.1263e+007 -1.8547e+006 70249 246689,246793,246715
 5.6000e+001 247066 -2.2645e+003 -2.3098e+006  2.9794e+005 70023 246916,246994,246942
 5.6000e+001 247043 -4.9069e+004 -2.2186e+006  3.3387e+005 70023 246890,246994,246916
 5.6000e+001 247020  4.3524e+004 -2.2278e+006  3.9845e+005 70023 246942,246994,246968
 5.6000e+001 247267 -3.7509e+005 -4.3456e+006 -3.3005e+005 69633 247091,247143,247117
 5.6000e+001 247244 -6.3903e+004 -2.9242e+006 -1.4544e+005 69633 247091,247169,247143
 5.6000e+001 247221  2.8146e+004 -3.1667e+006 -3.0271e+005 69633 247091,247195,247169
 5.6000e+001 247419 -9.8878e+005 -6.2697e+006  4.7923e+005 69457 247318,247370,247344
 5.6000e+001 247396 -1.3260e+006 -2.9305e+006  7.3248e+005 69457 247292,247370,247318
 5.6000e+001 247522  4.3555e+000 -1.1599e+001  2.3941e+000 69209 247444,247496,247470
 5.6000e+001 247625 -1.9419e+006 -2.2552e+006 -1.5304e+006 68919 247547,247599,247573
 5.6000e+001 247777  1.5607e+005 -7.6217e+006 -2.5671e+005 68579 247650,247702,247676
 5.6000e+001 247754 -2.6384e+005 -2.1247e+006 -1.0232e+005 68579 247650,247728,247702
 5.6000e+001 247929  7.3138e+004 -3.3390e+006  1.3084e+006 68289 247802,247854,247828
 5.6000e+001 247906 -2.1179e+005 -1.4851e+006 -3.5371e+005 68289 247802,247880,247854
 5.6000e+001 248081 -4.7235e+005 -5.2575e+006  1.7685e+006 67949 247980,248032,248006
 5.6000e+001 248058 -6.6219e+005 -6.3661e+005  2.9854e+005 67949 247954,248032,247980
 5.6000e+001 248233 -1.6876e+006 -6.6808e+006 -6.1982e+005 67616 248132,248184,248158
 5.6000e+001 248210 -5.4209e+005 -6.6204e+006 -1.9527e+005 67616 248106,248184,248132
 5.6000e+001 248434 -1.5101e+005 -4.8375e+006 -2.2525e+005 67212 248284,248336,248310
 5.6000e+001 248411 -7.9599e+004 -4.8561e+006 -3.4720e+005 67212 248258,248336,248284
 5.6000e+001 248388 -1.7778e+006 -2.4182e+006 -7.1922e+005 67212 248258,248362,248336
 5.6000e+001 248586  2.2540e+004 -5.9513e+006  9.6891e+005 66872 248485,248537,248511
 5.6000e+001 248563 -5.4966e+005 -8.7450e+005  1.7553e+005 66872 248459,248537,248485
 5.6000e+001 248738 -3.4701e+005 -5.9895e+006  1.5094e+005 66510 248637,248689,248663
 5.6000e+001 248715 -4.8105e+005 -8.9777e+006  2.0034e+005 66510 248611,248689,248637
 5.6000e+001 248890 -1.9177e+004 -4.8392e+005  9.5148e+004 66220 248789,248841,248815
 5.6000e+001 248867 -4.8878e+004 -6.1955e+005 -1.6534e+005 66220 248763,248841,248789
 5.6000e+001 249091 -9.2837e+005 -9.6306e+006  2.9657e+006 65759 248915,248967,248941
 5.6000e+001 249068 -7.8540e+005 -8.9481e+006  3.0590e+006 65759 248915,248993,248967
 5.6000e+001 249045 -7.5612e+005 -5.6324e+006  5.3718e+005 65759 248915,249019,248993
 5.6000e+001 249243  9.2842e+003 -9.2757e+006  1.6942e+006 65419 249142,249194,249168
 5.6000e+001 249220  2.6213e+005 -3.2788e+006  3.2752e+005 65419 249116,249194,249142
 5.6000e+001 249395 -2.4022e+005 -2.1500e+006 -1.3004e+005 65079 249268,249320,249294
 5.6000e+001 249372 -2.7528e+005 -3.9993e+006 -6.2944e+005 65079 249268,249346,249320
 5.6000e+001 249547 -6.2002e+005 -2.1200e+006  7.4671e+005 64739 249420,249472,249446
 5.6000e+001 249524  5.0052e+005 -1.4612e+006 -2.2378e+005 64739 249420,249498,249472
 5.6000e+001 249650 -1.7326e+006 -4.5169e+006 -2.4212e+006 64342 249572,249624,249598
 5.6000e+001 249851 -2.9756e+005 -2.7797e+006 -2.6029e+005 63938 249701,249779,249753
 5.6000e+001 249828 -6.9306e+004 -2.8758e+006  6.4730e+005 63938 249675,249779,249701
 5.6000e+001 249805 -2.7017e+005 -4.5886e+006 -1.5925e+005 63938 249701,249753,249727
 5.6000e+001 250052 -6.0862e+005 -5.9360e+006 -6.6759e+005 63341 249876,249954,249902
 5.6000e+001 250029 -8.0073e+005 -7.3445e+006 -6.5992e+005 63341 249876,249980,249954
 5.6000e+001 250006  5.7416e+005 -6.8265e+006  7.9366e+004 63341 249902,249954,249928
 5.6000e+001 250253 -2.8761e+005 -2.4362e+006 -2.8721e+005 63058 250077,250129,250103
 5.6000e+001 250230 -1.0709e+006 -1.5568e+006  4.8485e+005 63058 250077,250155,250129
 5.6000e+001 250207 -1.8917e+005 -1.1126e+006  3.0372e+004 63058 250077,250181,250155
 5.6000e+001 250454 -8.7808e+005 -7.9433e+006  1.2761e+006 62832 250304,250382,250330
 5.6000e+001 250431  2.0589e+005 -9.8770e+006 -2.5653e+006 62832 250278,250382,250304
 5.6000e+001 250408 -2.0941e+006 -5.1400e+006  3.5805e+005 62832 250330,250382,250356
 5.6000e+001 250606  8.5321e+004 -1.7228e+007 -7.4603e+005 62428 250479,250531,250505
 5.6000e+001 250583 -6.1999e+005 -1.5105e+007 -9.9642e+005 62428 250479,250557,250531
 5.6000e+001 250758  4.2374e+004 -8.3845e+006  6.9074e+005 62202 250631,250683,250657
 5.6000e+001 250735 -2.7719e+005 -8.6635e+006  1.0177e+006 62202 250631,250709,250683
 5.6000e+001 250861 -6.2785e+005 -3.7506e+006 -2.3692e+005 61954 250783,250835,250809
 5.6000e+001 251062 -2.3423e+006 -1.3774e+007 -4.4056e+005 61557 250912,250990,250938
 5.6000e+001 251039 -9.3489e+004 -1.5804e+007 -4.1936e+005 61557 250886,250990,250912
 5.6000e+001 251016 -1.6919e+006 -1.7733e+007 -2.5085e+006 61557 250938,250990,250964
 5.6000e+001 251263 -6.7322e+005 -8.4511e+006 -1.3808e+005 61167 251113,251165,251139
 5.6000e+001 251240 -3.8442e+005 -7.8087e+006 -3.7476e+005 61167 251113,251191,251165
 5.6000e+001 251217 -1.2943e+006 -7.5897e+006  2.1041e+006 61167 251087,251191,251113
 5.6000e+001 251415 -7.9130e+005 -9.4807e+006  2.6641e+006 60827 251288,251340,251314
 5.6000e+001 251392 -9.3101e+005 -3.3162e+006 -7.1599e+005 60827 251288,251366,251340
 5.6000e+001 251567  1.6828e+005 -4.7952e+006  2.1999e+004 60487 251466,251518,251492
 5.6000e+001 251544 -4.6225e+004 -4.9364e+006 -3.0058e+005 60487 251440,251518,251466
 5.6000e+001 251719 -1.9648e+005 -1.1161e+007 -6.5463e+005 59983 251592,251644,251618
 5.6000e+001 251696 -1.1347e+006 -9.8847e+006 -3.3834e+005 59983 251592,251670,251644
 5.6000e+001 251920 -1.5319e+004 -2.0271e+006 -3.6386e+004 59807 251770,251848,251796
 5.6000e+001 251897  8.8367e+003 -1.8121e+006 -5.7966e+004 59807 251744,251848,251770
 5.6000e+001 251874 -5.4584e+004 -2.1977e+006 -3.5877e+004 59807 251796,251848,251822
 5.6000e+001 252023  4.8950e+005 -5.4705e+006 -3.8170e+004 59517 251945,251997,251971
 5.6000e+001 252175  1.9550e+006 -1.6958e+007 -3.6884e+005 59269 252074,252126,252100
 5.6000e+001 252152 -2.6345e+005 -1.0294e+007  2.2196e+005 59269 252048,252126,252074
 5.6000e+001 252278 -4.5689e+005 -1.2137e+007  2.2020e+006 58979 252200,252252,252226
 5.6000e+001 252381 -2.2987e+006 -2.1018e+006  1.3578e+006 58689 252303,252355,252329
 5.6000e+001 252533 -5.2536e+005 -4.5294e+006 -1.0009e+006 58249 252432,252484,252458
 5.6000e+001 252510 -1.2037e+006 -7.6264e+006 -1.1777e+006 58249 252406,252484,252432
 5.6000e+001 252734 -4.3480e+005 -4.0010e+006  2.4928e+005 57902 252584,252662,252610
 5.6000e+001 252711  4.4955e+005 -6.0744e+006 -7.0769e+005 57902 252558,252662,252584
 5.6000e+001 252688 -4.2181e+005 -2.8866e+006 -4.3221e+005 57902 252610,252662,252636
 5.6000e+001 252886  2.1763e+005 -5.8346e+006 -2.5964e+005 57540 252785,252837,252811
 5.6000e+001 252863  1.4345e+005 -4.3906e+006  1.4828e+005 57540 252759,252837,252785
 5.6000e+001 253038 -7.8824e+005 -6.8123e+006  1.6260e+006 57086 252937,252989,252963
 5.6000e+001 253015 -1.4197e+005 -1.8919e+006  4.0003e+005 57086 252911,252989,252937
 5.6000e+001 253239 -2.1487e+006 -9.1436e+006 -2.1129e+006 56796 253063,253141,253115
 5.6000e+001 253216  3.9764e+005 -1.1109e+007  8.6430e+005 56796 253063,253167,253141
 5.6000e+001 253193 -2.4842e+006 -5.6047e+006 -2.1593e+006 56796 253063,253115,253089
 5.6000e+001 253342 -7.5580e+005 -2.1541e+007 -1.7789e+004 56349 253264,253316,253290
 5.6000e+001 253543 -2.1661e+005 -4.2467e+006 -1.1513e+006 56009 253367,253419,253393
 5.6000e+001 253520 -4.8304e+005 -2.5948e+006 -4.9660e+005 56009 253367,253445,253419
 5.6000e+001 253497 -5.9628e+005 -1.9343e+006 -8.0754e+005 56009 253367,253471,253445
 5.6000e+001 253695 -4.0243e+005 -1.3702e+006  7.3411e+005 55733 253594,253646,253620
 5.6000e+001 253672 -8.4149e+005 -4.9867e+005  6.1776e+005 55733 253568,253646,253594
 5.6000e+001 253798 -4.5773e+005 -2.2430e+006 -1.7363e+005 55557 253720,253772,253746
 5.6000e+001 253950 -5.6457e+005 -4.4779e+006  2.3521e+005 55153 253849,253901,253875
 5.6000e+001 253927  1.3842e+005 -5.0638e+006 -4.8200e+005 55153 253823,253901,253849
 5.6000e+001 254151 -1.0405e+006 -4.9311e+006  5.7331e+005 54863 253975,254053,254001
 5.6000e+001 254128 -4.4908e+005 -4.9060e+006 -1.3276e+005 54863 253975,254079,254053
 5.6000e+001 254105 -4.6773e+005 -4.5141e+006  2.8673e+005 54863 254001,254053,254027
 5.6000e+001 254303 -2.1228e+005 -7.9646e+005  4.3517e+005 54373 254176,254228,254202
 5.6000e+001 254280 -3.3017e+005 -9.2302e+005  5.0871e+005 54373 254176,254254,254228
 5.6000e+001 254455  1.0607e+005 -5.5363e+006 -4.3195e+005 53975 254354,254406,254380
 5.6000e+001 254432 -3.3175e+005 -1.2667e+006  2.1614e+005 53975 254328,254406,254354
 5.6000e+001 254607 -3.0564e+005 -5.6471e+006 -3.4176e+005 53585 254480,254532,254506
 5.6000e+001 254584 -2.1939e+005 -5.4861e+006 -4.0944e+005 53585 254480,254558,254532
 5.6000e+001 254808 -1.0019e+006 -3.7719e+006 -8.0797e+004 53245 254658,254736,254684
 5.6000e+001 254785 -1.0388e+006 -1.9787e+006 -3.5223e+005 53245 254632,254736,254658
 5.6000e+001 254762 -5.3739e+005 -2.9959e+006 -6.0307e+005 53245 254684,254736,254710
 5.6000e+001 254911 -1.5554e+005 -2.5669e+006 -4.1801e+005 52955 254833,254885,254859
 5.6000e+001 255063 -5.6199e+005 -7.4599e+006 -2.0997e+005 52551 254962,255014,254988
 5.6000e+001 255040 -6.0016e+005 -7.8637e+006 -3.9069e+005 52551 254936,255014,254962
 5.6000e+001 255264 -6.7453e+005 -8.6150e+005  3.8289e+005 52261 255114,255166,255140
 5.6000e+001 255241 -1.2898e+006 -1.3178e+006  7.0614e+005 52261 255114,255192,255166
 5.6000e+001 255218 -5.2020e+005 -1.4997e+006  4.9984e+005 52261 255088,255192,255114
 5.6000e+001 255416 -6.8899e+005 -6.1977e+006  2.1143e+006 51971 255289,255341,255315
 5.6000e+001 255393 -4.8442e+005 -5.5197e+006 -8.5202e+005 51971 255289,255367,255341
 5.6000e+001 255568 -1.0142e+006 -9.1652e+005 -4.2899e+005 51681 255441,255493,255467
 5.6000e+001 255545 -4.5173e+005 -3.3037e+006 -7.6795e+004 51681 255441,255519,255493
 5.6000e+001 255769 -1.6086e+005 -3.7009e+006 -2.2982e+005 51291 255619,255697,255671
 5.6000e+001 255746 -1.3342e+005 -3.4558e+006 -3.7940e+005 51291 255593,255697,255619
 5.6000e+001 255723 -1.4056e+005 -4.4793e+006 -4.1287e+005 51291 255619,255671,255645
 5.6000e+001 255921 -3.3800e+005 -3.1925e+006  5.9826e+005 50951 255820,255872,255846
 5.6000e+001 255898 -1.1140e+005 -2.4219e+006  2.1108e+005 50951 255794,255872,255820
 5.6000e+001 256171 -1.2545e+006 -4.7929e+006 -9.3781e+004 50547 256024,256076,256050
 5.6000e+001 256148 -8.8249e+005 -4.4997e+006  3.7119e+005 50547 255972,256076,256024
 5.6000e+001 256125 -3.3794e+005 -5.5205e+006 -3.8022e+005 50547 255946,256076,255972
 5.6000e+001 256102 -8.8041e+005 -3.7844e+006  1.4063e+005 50547 255972,256024,255998
 5.6000e+001 256323  5.0079e+005 -5.5166e+006  6.3005e+005 50093 256196,256248,256222
 5.6000e+001 256300 -1.0041e+006 -3.2497e+006 -1.1769e+006 50093 256196,256274,256248
 5.6000e+001 256426  6.9355e-001 -3.2473e+001  6.5433e+000 49845 256348,256400,256374
 5.6000e+001 256627 -2.8290e+005 -4.6994e+006  7.8270e+004 49555 256477,256555,256503
 5.6000e+001 256604 -4.1624e+005 -4.1903e+006  3.8381e+004 49555 256451,256555,256477
 5.6000e+001 256581 -4.0030e+005 -4.2390e+006  1.3934e+005 49555 256503,256555,256529
 5.6000e+001 256828 -5.0720e+005 -2.5613e+006 -2.0938e+005 49056 256652,256730,256678
 5.6000e+001 256805 -3.2329e+005 -3.3545e+006 -3.3413e+005 49056 256652,256756,256730
 5.6000e+001 256782 -5.4688e+005 -2.2865e+006 -3.9273e+005 49056 256678,256730,256704
 5.6000e+001 256931 -7.2297e+004 -1.9642e+005  5.4106e+004 48766 256853,256905,256879
 5.6000e+001 257083 -1.0402e+006 -3.9427e+006 -6.8582e+005 48568 256982,257034,257008
 5.6000e+001 257060 -8.7121e+005 -3.3264e+006 -2.1572e+005 48568 256956,257034,256982
 5.6000e+001 257186 -2.3593e+002 -3.5483e+006  1.6882e+002 48228 257108,257160,257134
 5.6000e+001 257338 -4.5462e+005 -1.3589e+006  5.4356e+005 47888 257237,257289,257263
 5.6000e+001 257315 -4.0535e+005 -1.8350e+006  7.9849e+005 47888 257211,257289,257237
 5.6000e+001 257539 -3.2806e+005 -4.2485e+006  1.6224e+005 47548 257363,257441,257415
 5.6000e+001 257516 -9.8522e+005 -3.9559e+006 -4.8241e+005 47548 257363,257467,257441
 5.6000e+001 257493 -7.7398e+005 -2.8797e+006 -1.4907e+005 47548 257363,257415,257389
 5.6000e+001 257740 -3.5102e+005 -4.1772e+006  3.6089e+005 46994 257564,257642,257616
 5.6000e+001 257717 -4.0063e+005 -3.5813e+006  1.2016e+005 46994 257564,257668,257642
 5.6000e+001 257694 -6.8536e+005 -4.3363e+006  9.4063e+004 46994 257564,257616,257590
 5.6000e+001 257843 -5.4057e+005 -1.8044e+006 -4.8045e+005 46654 257765,257817,257791
 5.6000e+001 257995 -6.3592e+005 -3.2374e+006  3.4786e+005 46364 257894,257946,257920
 5.6000e+001 257972 -6.2407e+005 -3.4820e+006  2.1099e+005 46364 257868,257946,257894
 5.6000e+001 258147 -7.5488e+004 -3.6164e+006  4.5471e+004 46024 258046,258098,258072
 5.6000e+001 258124 -3.2124e+005 -2.8296e+006  3.0758e+005 46024 258020,258098,258046
 5.6000e+001 258250 -6.7709e+005 -2.4987e+006  9.0990e+005 45741 258172,258224,258198
 5.6000e+001 258402 -3.6172e+005 -2.6199e+006  2.3854e+005 45401 258301,258353,258327
 5.6000e+001 258379 -4.7251e+005 -2.0286e+006  2.6290e+005 45401 258275,258353,258301
 5.6000e+001 258603 -7.6865e+005 -2.1368e+006 -3.8277e+004 45071 258427,258505,258479
 5.6000e+001 258580 -1.2195e+005 -5.2447e+006  2.3639e+005 45071 258427,258531,258505
 5.6000e+001 258557 -2.4822e+005 -3.1055e+006  2.1034e+005 45071 258427,258479,258453
 5.6000e+001 258755 -2.6874e+005 -3.9402e+006 -5.5453e+005 44681 258654,258706,258680
 5.6000e+001 258732 -1.3459e+005 -4.1414e+006 -4.9432e+005 44681 258628,258706,258654
 5.6000e+001 258907 -7.0835e+005 -1.3104e+006 -9.3712e+004 44157 258806,258858,258832
 5.6000e+001 258884 -3.1418e+005 -1.4433e+006 -3.0327e+004 44157 258780,258858,258806
 5.6000e+001 259010 -6.5332e+005 -9.0540e+005 -7.4207e+004 43705 258932,258984,258958
 5.6000e+001 259113 -5.5145e+005 -2.5690e+006  8.5159e+004 43284 259035,259087,259061
 5.6000e+001 259216 -7.4068e+005 -2.2170e+006 -5.6709e+004 42954 259138,259190,259164
 5.6000e+001 259319 -7.7796e+005 -1.5706e+006 -1.7508e+003 42116 259241,259293,259267
 5.6000e+001 259422 -3.3341e+005 -3.1432e+006 -1.2697e+005 41804 259344,259396,259370
 5.6000e+001 259525 -5.8407e+005 -5.1813e+006  7.1247e+005 41219 259447,259499,259473
 5.6000e+001 259628 -1.0030e+006 -2.5530e+006 -4.0613e+005 385 259550,259602,259576
 5.8000e+001 190120 -3.3083e+005 -2.1748e+006 -2.6885e+005 189630 189993,190045,190019
 5.8000e+001 190097 -5.9060e+005 -1.7825e+006 -1.5795e+005 189630 189993,190071,190045
 5.8000e+001 190319 -5.2164e+005 -6.7908e+006 -1.5270e+006 189312 190169,190221,190195
 5.8000e+001 190296 -3.5373e+005 -7.3364e+006 -9.6479e+005 189312 190169,190247,190221
 5.8000e+001 190273 -8.7901e+005 -6.8222e+006  9.2827e+004 189312 190143,190247,190169
 5.8000e+001 190518 -4.7853e+005  4.8852e+004  1.6154e+004 189124 190368,190446,190420
 5.8000e+001 190495 -5.6276e+005  2.1595e+004 -4.1585e+003 189124 190342,190446,190368
 5.8000e+001 190472 -9.9005e+005 -5.2878e+004 -4.8904e+004 189124 190368,190420,190394
 5.8000e+001 190619 -4.5078e+005 -4.6313e+004 -6.0607e+003 188926 190541,190593,190567
 5.8000e+001 190771 -4.8477e+005 -7.7566e+004  1.7946e+004 188614 190670,190722,190696
 5.8000e+001 190748 -5.6167e+005  1.6264e+005  5.6852e+004 188614 190644,190722,190670
 5.8000e+001 190972 -3.3938e+005 -6.5480e+005 -4.1263e+005 188324 190848,190900,190874
 5.8000e+001 190949 -3.6306e+005 -7.8100e+005 -4.8572e+005 188324 190796,190900,190848
 5.8000e+001 190926 -1.7347e+005 -4.5925e+005 -3.4727e+005 188324 190796,190848,190822
 5.8000e+001 191124 -7.3311e+005 -9.5359e+005 -1.7511e+005 188034 191023,191075,191049
 5.8000e+001 191101 -1.2190e+005 -1.1200e+006 -1.1258e+005 188034 190997,191075,191023
 5.8000e+001 191276  2.2228e+004 -3.4816e+006 -1.6589e+005 187836 191149,191201,191175
 5.8000e+001 191253 -5.8169e+005 -1.8833e+006  6.4037e+005 187836 191149,191227,191201
 5.8000e+001 191379 -4.0293e+005 -1.9526e+006 -1.9838e+005 187546 191301,191353,191327
 5.8000e+001 191531 -2.8808e+005 -7.0326e+006  3.9702e+005 187256 191430,191482,191456
 5.8000e+001 191508 -1.2484e+006 -9.9850e+006 -3.2571e+006 187256 191404,191482,191430
 5.8000e+001 191634 -8.5457e+005 -4.4866e+005  1.6776e+005 187058 191556,191608,191582
 5.8000e+001 191835 -5.2700e+005 -3.2461e+005  9.8617e+004 186860 191659,191711,191685
 5.8000e+001 191812 -3.1797e+005 -8.3606e+005  4.0385e+004 186860 191659,191737,191711
 5.8000e+001 191789 -3.2510e+005 -7.6148e+005  1.0415e+005 186860 191659,191763,191737
 5.8000e+001 191987  2.6033e+004 -1.5601e+006 -1.5587e+005 186662 191886,191938,191912
 5.8000e+001 191964 -1.1807e+005 -2.2389e+006  3.1131e+005 186662 191860,191938,191886
 5.8000e+001 192090 -5.6243e+005 -2.3230e+006 -2.7803e+005 186486 192012,192064,192038
 5.8000e+001 192242  1.9084e+004 -1.5081e+007 -4.6100e+005 186288 192115,192167,192141
 5.8000e+001 192219 -1.1261e+006 -9.6077e+006  4.5673e+005 186288 192115,192193,192167
 5.8000e+001 192394  6.7736e+005 -1.2687e+007 -9.1408e+004 185935 192293,192345,192319
 5.8000e+001 192371 -8.2643e+005 -8.3694e+006 -1.0734e+006 185935 192267,192345,192293
 5.8000e+001 192546 -4.7407e+005 -3.1927e+006 -6.1489e+005 185675 192419,192471,192445
 5.8000e+001 192523 -8.6246e+005 -2.1219e+006 -6.8970e+005 185675 192419,192497,192471
 5.8000e+001 192649 -3.8752e+005 -3.1622e+006 -5.4055e+005 185499 192571,192623,192597
 5.8000e+001 192801 -9.8922e+005 -1.0502e+006 -4.9359e+005 185301 192674,192726,192700
 5.8000e+001 192778 -3.8486e+005 -1.4285e+006  9.7557e+005 185301 192674,192752,192726
 5.8000e+001 193002 -1.0134e+005 -1.4379e+006 -5.5495e+005 185046 192852,192930,192878
 5.8000e+001 192979 -5.4578e+005 -3.0607e+006 -3.5046e+005 185046 192826,192930,192852
 5.8000e+001 192956  7.0279e+005 -4.1010e+006  2.3268e+005 185046 192878,192930,192904
 5.8000e+001 193203  2.6802e+005 -1.0942e+007 -1.2708e+006 184798 193079,193131,193105
 5.8000e+001 193180 -9.6512e+005 -6.7197e+006 -9.0290e+005 184798 193027,193131,193079
 5.8000e+001 193157 -2.1456e+005 -6.5895e+006  1.2076e+005 184798 193027,193079,193053
 5.8000e+001 193404 -2.5056e+005 -7.5564e+006 -1.9954e+006 184600 193254,193306,193280
 5.8000e+001 193381 -1.1110e+006 -3.2127e+006 -1.3130e+005 184600 193254,193332,193306
 5.8000e+001 193358 -1.2983e+006 -9.6053e+005 -7.7718e+005 184600 193228,193332,193254
 5.8000e+001 193556 -8.8351e+005 -5.1806e+005 -5.6068e+005 184402 193429,193481,193455
 5.8000e+001 193533 -5.9196e+005 -5.5209e+005 -5.3386e+005 184402 193429,193507,193481
 5.8000e+001 193708 -7.6526e+005 -2.7421e+006 -1.8422e+005 184204 193607,193659,193633
 5.8000e+001 193685 -5.5239e+005 -1.1401e+007 -2.1089e+006 184204 193581,193659,193607
 5.8000e+001 193860 -6.3829e+005 -1.5352e+006  1.6774e+005 183908 193759,193811,193785
 5.8000e+001 193837 -1.4844e+005 -1.6205e+006  3.5389e+005 183908 193733,193811,193759
 5.8000e+001 194061 -3.0147e+005 -8.3367e+005  1.8067e+005 183710 193911,193989,193937
 5.8000e+001 194038 -5.8982e+005 -1.5167e+006  4.2174e+005 183710 193885,193989,193911
 5.8000e+001 194015 -5.9755e+005 -1.7368e+006  4.7415e+005 183710 193937,193989,193963
 5.8000e+001 194262 -1.2881e+005 -3.5326e+006 -7.7155e+005 183420 194086,194164,194112
 5.8000e+001 194239 -1.4312e+005 -4.0963e+006 -1.4833e+006 183420 194086,194190,194164
 5.8000e+001 194216  4.9647e+005 -6.2620e+006  5.7587e+005 183420 194112,194164,194138
 5.8000e+001 194414 -8.2504e+005 -7.7452e+006 -1.1204e+006 183222 194287,194339,194313
 5.8000e+001 194391 -8.4022e+004 -4.2378e+006 -7.7179e+005 183222 194287,194365,194339
 5.8000e+001 194517 -9.1411e+005 -2.1984e+006 -3.5174e+005 183024 194439,194491,194465
 5.8000e+001 194718  2.6233e+006 -1.9034e+007  9.3001e+005 182734 194568,194620,194594
 5.8000e+001 194695 -1.3688e+006 -5.6638e+006 -4.8943e+006 182734 194542,194620,194568
 5.8000e+001 194672 -4.6764e+006 -2.8372e+006 -2.4429e+006 182734 194542,194646,194620
 5.8000e+001 194870 -4.0490e+004 -1.0934e+006  4.5441e+005 182444 194769,194821,194795
 5.8000e+001 194847 -7.5494e+004 -1.1852e+006  4.0542e+005 182444 194743,194821,194769
 5.8000e+001 195071 -3.1848e+005 -1.9829e+006  7.8115e+005 182154 194895,194947,194921
 5.8000e+001 195048 -3.7279e+005 -1.1613e+006  1.2641e+005 182154 194895,194999,194947
 5.8000e+001 195025 -3.0933e+005 -3.7046e+005  2.2788e+005 182154 194947,194999,194973
 5.8000e+001 195223 -3.0706e+005 -1.0620e+006 -3.7804e+005 181814 195096,195148,195122
 5.8000e+001 195200 -5.2081e+005 -2.4225e+006 -1.3038e+006 181814 195096,195174,195148
 5.8000e+001 195375 -5.4821e+004 -1.9909e+005 -1.5030e+004 181524 195248,195300,195274
 5.8000e+001 195352  1.2603e+004 -6.1427e+005  5.3665e+004 181524 195248,195326,195300
 5.8000e+001 195527 -2.6098e+005 -2.5452e+006 -4.9015e+004 181326 195426,195478,195452
 5.8000e+001 195504 -1.2516e+006 -3.0212e+006  5.9677e+005 181326 195400,195478,195426
 5.8000e+001 195679 -3.3047e+005 -1.0633e+007 -1.3143e+006 180936 195578,195630,195604
 5.8000e+001 195656 -3.7378e+005 -5.4970e+006 -9.1053e+005 180936 195552,195630,195578
 5.8000e+001 195831 -4.6061e+005 -3.7804e+005 -1.7923e+005 180646 195704,195756,195730
 5.8000e+001 195808 -7.3443e+005 -2.4704e+004  1.4852e+004 180646 195704,195782,195756
 5.8000e+001 196032 -1.6927e+005 -2.3232e+006  2.7799e+005 180306 195882,195960,195934
 5.8000e+001 196009 -6.7658e+004 -9.2926e+005 -1.0240e+005 180306 195856,195960,195882
 5.8000e+001 195986  4.6674e+003 -2.4067e+006  1.7043e+005 180306 195882,195934,195908
 5.8000e+001 196233 -3.7117e+005 -1.3078e+005 -9.4588e+005 179944 196057,196109,196083
 5.8000e+001 196210 -8.3764e+005 -2.4726e+006  2.3041e+005 179944 196057,196135,196109
 5.8000e+001 196187 -1.8038e+006  3.9941e+006 -1.2925e+006 179944 196057,196161,196135
 5.8000e+001 196385 -6.8326e+005 -8.6244e+005 -6.7148e+005 179604 196258,196310,196284
 5.8000e+001 196362 -8.0290e+005 -9.7853e+005 -9.9383e+005 179604 196258,196336,196310
 5.8000e+001 196586 -9.7671e+005 -8.8661e+005 -7.9746e+005 179114 196410,196488,196436
 5.8000e+001 196563 -3.6365e+005 -3.0044e+006 -9.1324e+005 179114 196410,196514,196488
 5.8000e+001 196540 -7.8605e+003 -8.2907e+005 -8.1458e+004 179114 196436,196488,196462
 5.8000e+001 196738 -1.0028e+006 -2.0812e+006 -1.0385e+006 178674 196611,196663,196637
 5.8000e+001 196715  1.0151e+005 -4.8878e+006 -2.9528e+005 178674 196611,196689,196663
 5.8000e+001 196939  2.8843e+006 -1.1025e+007 -2.2456e+006 178334 196789,196867,196841
 5.8000e+001 196916 -1.8312e+006 -1.1854e+007  1.7243e+006 178334 196763,196867,196789
 5.8000e+001 196893 -6.9566e+006 -4.1891e+006 -7.9205e+006 178334 196789,196841,196815
 5.8000e+001 197091 -3.7695e+005 -4.3521e+006 -9.6673e+005 177930 196990,197042,197016
 5.8000e+001 197068 -5.6433e+005 -4.9337e+006 -6.4386e+005 177930 196964,197042,196990
 5.8000e+001 197194  1.6925e+002 -3.6669e+005  2.4295e+002 177732 197116,197168,197142
 5.8000e+001 197346 -3.6652e+005 -4.6709e+006 -3.2953e+005 177534 197219,197271,197245
 5.8000e+001 197323  2.5392e+005 -6.7565e+006  7.8707e+005 177534 197219,197297,197271
 5.8000e+001 197547 -6.6952e+005 -5.5448e+006 -1.6321e+006 177130 197397,197449,197423
 5.8000e+001 197524 -1.6748e+006 -5.6008e+006 -2.4260e+006 177130 197397,197475,197449
 5.8000e+001 197501 -1.6867e+006 -1.1065e+007 -3.1186e+006 177130 197371,197475,197397
 5.8000e+001 197748 -9.7007e+004 -5.1903e+006  1.2487e+005 176790 197598,197676,197624
 5.8000e+001 197725 -1.5370e+004 -4.4613e+006  2.2168e+005 176790 197572,197676,197598
 5.8000e+001 197702 -1.4313e+005 -4.8839e+006  2.2676e+005 176790 197624,197676,197650
 5.8000e+001 197900 -2.7637e+005 -2.7393e+006 -3.4270e+005 176300 197773,197825,197799
 5.8000e+001 197877  1.3609e+005 -4.4440e+006 -2.4903e+005 176300 197773,197851,197825
 5.8000e+001 198052 -8.2368e+005 -6.3725e+006 -1.1882e+006 176010 197925,197977,197951
 5.8000e+001 198029 -4.4383e+005 -5.5880e+006 -1.4757e+006 176010 197925,198003,197977
 5.8000e+001 198204 -1.2147e+006 -4.2116e+006 -1.7442e+006 175670 198103,198155,198129
 5.8000e+001 198181 -1.4233e+006 -3.1536e+006 -7.9336e+005 175670 198077,198155,198103
 5.8000e+001 198405 -1.0408e+005 -4.5297e+006 -8.0070e+005 175266 198255,198307,198281
 5.8000e+001 198382 -7.4582e+002 -5.3171e+006 -1.4568e+006 175266 198229,198307,198255
 5.8000e+001 198359 -1.0933e+006 -4.3489e+006 -2.1799e+006 175266 198229,198333,198307
 5.8000e+001 198606 -1.3852e+003 -5.2773e+004 -3.7649e+003 174876 198430,198508,198482
 5.8000e+001 198583 -2.9985e+004 -5.8136e+004 -2.1208e+004 174876 198430,198534,198508
 5.8000e+001 198560 -1.2734e+004 -1.6949e+004 -1.4644e+004 174876 198430,198482,198456
 5.8000e+001 198758  1.0740e+003  2.1811e+003  3.0853e+001 174536 198657,198709,198683
 5.8000e+001 198735  5.5086e+002 -3.6613e+002 -3.1284e+002 174536 198631,198709,198657
 5.8000e+001 199008 -1.2002e+006 -6.0895e+006 -3.9480e+005 174132 198835,198913,198887
 5.8000e+001 198985 -5.8953e+005 -2.3748e+006  1.4375e+005 174132 198809,198913,198835
 5.8000e+001 198962 -7.8034e+005 -2.7676e+006 -2.0452e+006 174132 198783,198913,198809
 5.8000e+001 198939 -5.5026e+005 -6.4116e+006 -3.2306e+005 174132 198835,198887,198861
 5.8000e+001 199160 -1.0440e+006 -2.3015e+006 -7.3880e+005 173842 199059,199111,199085
 5.8000e+001 199137 -7.1786e+005 -1.4724e+006 -4.9686e+005 173842 199033,199111,199059
 5.8000e+001 199361 -7.0372e+005 -1.6900e+006  5.5638e+005 173438 199237,199289,199263
 5.8000e+001 199338  1.0853e+005 -2.7810e+006  6.3474e+005 173438 199211,199289,199237
 5.8000e+001 199315  3.1642e+005 -5.1755e+006 -1.3671e+006 173438 199185,199289,199211
 5.8000e+001 199513 -3.6445e+005 -3.8949e+006 -7.7257e+005 173190 199386,199438,199412
 5.8000e+001 199490 -7.7837e+005 -4.6941e+006 -1.9575e+005 173190 199386,199464,199438
 5.8000e+001 199665 -6.0279e+005 -1.6644e+006  3.2446e+005 172750 199564,199616,199590
 5.8000e+001 199642 -1.0828e+006 -9.7743e+005  1.3742e+004 172750 199538,199616,199564
 5.8000e+001 199817 -6.0515e+004 -1.7118e+006 -5.5552e+005 172524 199690,199742,199716
 5.8000e+001 199794 -2.0314e+005 -1.0304e+006 -5.5210e+005 172524 199690,199768,199742
 5.8000e+001 199969 -2.7112e+003 -5.9233e+006 -1.4967e+005 172348 199842,199894,199868
 5.8000e+001 199946 -8.2423e+005 -6.1280e+006 -1.5829e+005 172348 199842,199920,199894
 5.8000e+001 200121  8.8436e+004 -1.1864e+006 -1.7183e+005 172008 199994,200046,200020
 5.8000e+001 200098 -1.3306e+005 -2.7140e+005 -8.8608e+004 172008 199994,200072,200046
 5.8000e+001 200273 -1.1356e+006 -6.7472e+006 -1.9056e+006 171668 200172,200224,200198
 5.8000e+001 200250 -8.9917e+005 -6.8503e+006 -1.4609e+006 171668 200146,200224,200172
 5.8000e+001 200474  3.4134e+005 -4.9071e+006 -8.5029e+005 171264 200350,200402,200376
 5.8000e+001 200451 -2.1335e+005 -5.0904e+006 -1.0633e+006 171264 200324,200402,200350
 5.8000e+001 200428 -3.7337e+005 -3.3654e+006  1.0441e+006 171264 200298,200402,200324
 5.8000e+001 200626 -6.1807e+005 -5.5425e+006 -7.7958e+005 170832 200525,200577,200551
 5.8000e+001 200603 -2.9278e+005 -2.8094e+006 -3.8664e+005 170832 200499,200577,200525
 5.8000e+001 200827 -9.1755e+004 -8.5782e+005  2.0138e+005 170492 200677,200729,200703
 5.8000e+001 200804 -6.4490e+005 -3.5145e+005 -2.1516e+005 170492 200651,200729,200677
 5.8000e+001 200781 -3.9760e+005 -6.6932e+005 -3.9190e+005 170492 200651,200755,200729
 5.8000e+001 201077  1.9229e+005 -3.9471e+005  1.8939e+004 170088 200878,200956,200904
 5.8000e+001 201054 -1.5856e+005 -6.8396e+005 -3.4468e+005 170088 200852,200956,200878
 5.8000e+001 201031  9.4180e+004 -3.9252e+005  5.0696e+005 170088 200904,200956,200930
 5.8000e+001 201008  7.6416e+005 -1.9852e+006  5.6474e+005 170088 200852,200982,200956
 5.8000e+001 201278 -7.4564e+005 -3.4621e+006 -2.0141e+006 169798 201102,201154,201128
 5.8000e+001 201255 -1.6022e+006 -5.9322e+006 -2.6583e+006 169798 201102,201206,201154
 5.8000e+001 201232 -1.9404e+006 -1.4744e+006 -8.7990e+005 169798 201154,201206,201180
 5.8000e+001 201430 -1.1526e+005 -1.5579e+006 -3.8691e+005 169337 201303,201355,201329
 5.8000e+001 201407 -1.9789e+005 -5.1759e+005 -1.3741e+005 169337 201303,201381,201355
 5.8000e+001 201631 -2.9611e+005 -1.5776e+006 -9.9380e+004 168883 201481,201559,201507
 5.8000e+001 201608 -4.8649e+005 -1.2798e+006  7.0486e+004 168883 201455,201559,201481
 5.8000e+001 201585 -9.4304e+004 -4.3953e+005  7.7856e+004 168883 201507,201559,201533
 5.8000e+001 201832  2.2935e+005 -8.8897e+006  2.1602e+005 168479 201682,201734,201708
 5.8000e+001 201809 -2.3527e+006 -6.4868e+006 -1.9021e+006 168479 201656,201734,201682
 5.8000e+001 201786 -1.8216e+006 -4.3442e+006  2.1527e+004 168479 201656,201760,201734
 5.8000e+001 202033 -2.4760e+005 -2.9709e+006  1.9280e+005 167825 201883,201935,201909
 5.8000e+001 202010 -1.3959e+006 -4.0706e+006 -1.7812e+006 167825 201857,201935,201883
 5.8000e+001 201987  1.9240e+005 -1.0291e+007 -9.0574e+005 167825 201857,201961,201935
 5.8000e+001 202234 -2.1648e+006 -3.0767e+006 -1.8512e+006 167435 202058,202136,202084
 5.8000e+001 202211 -5.8807e+005 -5.1748e+006  6.1236e+005 167435 202058,202162,202136
 5.8000e+001 202188 -1.5009e+006 -1.6557e+006 -7.5470e+005 167435 202084,202136,202110
 5.8000e+001 202386  6.2443e+004 -8.9230e+005  1.4907e+005 167002 202285,202337,202311
 5.8000e+001 202363 -1.5888e+005 -2.2996e+005  1.3313e+005 167002 202259,202337,202285
 5.8000e+001 202538 -9.7899e+005 -3.7946e+006 -2.0855e+006 166662 202411,202463,202437
 5.8000e+001 202515 -7.7969e+005 -3.4170e+006 -2.2341e+006 166662 202411,202489,202463
 5.8000e+001 202690  9.9387e+004 -1.5379e+006 -6.2150e+005 166322 202589,202641,202615
 5.8000e+001 202667 -3.3498e+004 -5.4640e+005  3.6919e+004 166322 202563,202641,202589
 5.8000e+001 202891 -1.9200e+005 -4.2112e+005 -1.1721e+005 165918 202715,202767,202741
 5.8000e+001 202868 -3.8219e+005 -1.5000e+006 -7.6308e+005 165918 202715,202793,202767
 5.8000e+001 202845 -7.2577e+005 -2.2368e+006 -3.5148e+005 165918 202715,202819,202793
 5.8000e+001 203092  2.0636e+005 -2.1189e+006 -1.5247e+005 165628 202916,202968,202942
 5.8000e+001 203069 -3.6312e+005 -4.6197e+005 -3.0895e+005 165628 202916,202994,202968
 5.8000e+001 203046 -7.2541e+004 -5.3368e+005 -1.9429e+005 165628 202916,203020,202994
 5.8000e+001 203293 -4.8490e+006 -3.7695e+006 -2.8063e+006 165266 203143,203195,203169
 5.8000e+001 203270 -1.8673e+006 -6.7821e+006 -9.5957e+005 165266 203143,203221,203195
 5.8000e+001 203247 -1.1311e+006 -6.9391e+006 -1.2022e+006 165266 203117,203221,203143
 5.8000e+001 203445 -9.9283e+004 -6.3546e+005  1.8379e+005 164826 203318,203370,203344
 5.8000e+001 203422 -4.0909e+004 -4.1897e+005 -4.1596e+004 164826 203318,203396,203370
 5.8000e+001 203597 -2.2554e+005 -2.7713e+006  3.3220e+004 164386 203470,203522,203496
 5.8000e+001 203574 -5.8271e+005 -3.2328e+006 -6.8454e+005 164386 203470,203548,203522
 5.8000e+001 203798 -5.7945e+004 -2.4107e+006  1.1251e+005 163996 203622,203674,203648
 5.8000e+001 203775 -1.0300e+006 -3.2369e+005 -1.9371e+005 163996 203622,203726,203674
 5.8000e+001 203752 -1.3105e+006 -1.0783e+006  3.7182e+005 163996 203674,203726,203700
 5.8000e+001 203901 -1.8436e+005 -2.4398e+006 -6.1455e+005 163770 203823,203875,203849
 5.8000e+001 204053 -1.2675e+006 -3.2978e+006 -1.0578e+006 163474 203952,204004,203978
 5.8000e+001 204030 -1.3523e+006 -3.4500e+006 -1.2927e+006 163474 203926,204004,203952
 5.8000e+001 204205 -1.0671e+005 -1.2645e+006 -4.5501e+005 163034 204104,204156,204130
 5.8000e+001 204182 -3.1959e+005 -9.6946e+005 -1.3204e+005 163034 204078,204156,204104
 5.8000e+001 204357 -3.1378e+005 -2.0740e+006  1.7424e+005 162624 204256,204308,204282
 5.8000e+001 204334 -4.2809e+004 -5.2600e+005  1.3567e+005 162624 204230,204308,204256
 5.8000e+001 204509 -4.2080e+004 -2.9010e+005  1.2211e+005 162200 204382,204434,204408
 5.8000e+001 204486 -4.9885e+004 -1.7601e+005  7.7682e+004 162200 204382,204460,204434
 5.8000e+001 204710  2.4179e+000  3.0036e+000 -1.5176e+000 161810 204560,204638,204586
 5.8000e+001 204687 -2.9038e-001 -4.5750e+000  1.1526e+000 161810 204534,204638,204560
 5.8000e+001 204664 -8.9400e+000 -1.2493e+000  3.3419e+000 161810 204586,204638,204612
 5.8000e+001 204862 -1.6624e+006 -1.8412e+006 -1.2526e+006 161406 204735,204787,204761
 5.8000e+001 204839 -3.3249e+006 -5.2643e+005 -1.6399e+006 161406 204735,204813,204787
 5.8000e+001 205014  9.6459e-002  2.5486e-001  1.5679e-001 161180 204887,204939,204913
 5.8000e+001 204991 -2.0051e-001 -5.2979e-001 -3.2593e-001 161180 204887,204965,204939
 5.8000e+001 205215 -6.0519e+005 -1.5498e+006 -1.3116e+006 160726 205039,205091,205065
 5.8000e+001 205192 -1.2055e+006 -3.9991e+006 -1.2080e+006 160726 205039,205143,205091
 5.8000e+001 205169 -1.5681e+006 -1.8352e+006 -1.4192e+006 160726 205091,205143,205117
 5.8000e+001 205416 -1.0674e+005 -5.9972e+004  7.9152e+004 160272 205292,205344,205318
 5.8000e+001 205393 -7.9772e+004 -7.8258e+004  9.8110e+004 160272 205240,205344,205292
 5.8000e+001 205370 -5.0918e+004 -1.7350e+004  2.0227e+004 160272 205240,205292,205266
 5.8000e+001 205568 -2.7785e+000 -3.8017e-001 -1.0278e+000 159932 205441,205493,205467
 5.8000e+001 205545  7.5229e-001  1.0293e-001  2.7827e-001 159932 205441,205519,205493
 5.8000e+001 205720 -1.0562e+005 -1.2832e+005  8.8456e+004 159542 205593,205645,205619
 5.8000e+001 205697 -1.0037e+005 -1.9995e+005  7.7210e+004 159542 205593,205671,205645
 5.8000e+001 205872 -1.5471e+000 -2.2230e-003 -5.8644e-002 159252 205745,205797,205771
 5.8000e+001 205849  1.2940e+000  1.8593e-003  4.9051e-002 159252 205745,205823,205797
 5.8000e+001 206024 -4.0420e+005 -8.2704e+004 -1.0349e+005 159004 205923,205975,205949
 5.8000e+001 206001 -2.0404e+005 -3.4729e+004  8.1267e+004 159004 205897,205975,205923
 5.8000e+001 206127 -4.9251e+006 -4.1647e+006 -1.3811e+003 158364 206049,206101,206075
 5.8000e+001 206328 -1.1753e+004 -2.5244e+004  3.1814e+003 157960 206178,206256,206204
 5.8000e+001 206305 -1.8303e+004 -2.1769e+004  8.4126e+003 157960 206152,206256,206178
 5.8000e+001 206282 -7.3487e+003 -4.3386e+003  7.9280e+003 157960 206204,206256,206230
 5.8000e+001 206529 -1.7599e+006 -9.1576e+006  1.1942e+006 157648 206405,206457,206431
 5.8000e+001 206506 -4.3671e+006 -4.8281e+006  3.7045e+005 157648 206379,206457,206405
 5.8000e+001 206483 -3.2876e+006 -3.7351e+006  1.5000e+006 157648 206353,206457,206379
 5.8000e+001 206730 -6.5443e+005 -5.2818e+005  5.6855e+005 157208 206554,206606,206580
 5.8000e+001 206707 -3.6404e+005 -3.2163e+005  3.3712e+005 157208 206554,206632,206606
 5.8000e+001 206684 -5.3880e+005 -3.4598e+005  3.0476e+005 157208 206554,206658,206632
 5.8000e+001 206882 -5.2097e-001 -1.1421e+000 -7.7135e-001 157010 206755,206807,206781
 5.8000e+001 206859  2.9999e-001  6.5764e-001  4.4417e-001 157010 206755,206833,206807
 5.8000e+001 207034  1.1820e+004 -2.7942e+005  7.4862e+003 156620 206907,206959,206933
 5.8000e+001 207011 -9.1035e+003 -2.6838e+004 -5.5329e+003 156620 206907,206985,206959
 5.8000e+001 207186 -2.5184e+003 -1.3603e+006  5.1727e+004 156330 207085,207137,207111
 5.8000e+001 207163 -1.5157e+005 -1.4573e+006 -5.8001e+005 156330 207059,207137,207085
 5.8000e+001 207387 -8.6985e+005 -3.1858e+006  5.8505e+005 155890 207211,207289,207237
 5.8000e+001 207364 -1.6605e+006 -3.5074e+006 -1.4010e+006 155890 207211,207315,207289
 5.8000e+001 207341 -8.3269e+005 -2.8060e+006  8.2121e+005 155890 207237,207289,207263
 5.8000e+001 207588 -4.6411e+005 -2.5588e+007  9.0801e+006 155436 207438,207490,207464
 5.8000e+001 207565 -1.4031e+006 -1.8642e+007 -1.0521e+006 155436 207412,207490,207438
 5.8000e+001 207542 -2.8854e+006 -1.0534e+007 -1.3254e+006 155436 207412,207516,207490
 5.8000e+001 207789  1.9521e+006 -3.7895e+007 -2.2426e+006 155260 207639,207691,207665
 5.8000e+001 207766 -4.5674e+006 -1.2783e+007  5.5910e+006 155260 207613,207691,207639
 5.8000e+001 207743 -1.1934e+006 -9.8300e+006  2.2508e+004 155260 207613,207717,207691
 5.8000e+001 207990 -6.2407e-003  6.3695e-001 -1.4867e-001 154920 207840,207918,207892
 5.8000e+001 207967 -1.4094e-002 -5.9734e-001  9.1753e-002 154920 207814,207918,207840
 5.8000e+001 207944  4.7398e-002  1.4485e-001  8.2858e-002 154920 207840,207892,207866
 5.8000e+001 208191 -1.5518e+005 -2.8885e+005  1.4222e+005 154630 208015,208093,208041
 5.8000e+001 208168 -4.6386e+003 -3.6869e+004  2.9591e+003 154630 208015,208119,208093
 5.8000e+001 208145 -8.4825e+003 -1.6271e+004 -1.0176e+004 154630 208041,208093,208067
 5.8000e+001 208343  7.3552e-002  2.2787e-004  4.0939e-003 154240 208216,208268,208242
 5.8000e+001 208320 -1.4063e-001 -4.3568e-004 -7.8275e-003 154240 208216,208294,208268
 5.8000e+001 208495  2.4655e+006 -1.4035e+007 -3.5780e+006 153950 208394,208446,208420
 5.8000e+001 208472 -1.0531e+006 -5.8371e+006  2.0075e+006 153950 208368,208446,208394
 5.8000e+001 208647 -1.8902e+006 -4.2479e+006  5.2985e+006 153603 208520,208572,208546
 5.8000e+001 208624 -3.4450e+006 -3.3801e+006 -2.3329e+006 153603 208520,208598,208572
 5.8000e+001 208848 -6.5007e+005 -1.1938e+005  2.9169e+005 153149 208698,208776,208724
 5.8000e+001 208825 -1.4997e+005 -3.6071e+005  2.2071e+005 153149 208672,208776,208698
 5.8000e+001 208802 -4.9024e+005 -2.7387e+005  3.6266e+005 153149 208724,208776,208750
 5.8000e+001 209000 -7.8439e+005 -4.6266e+006 -3.0793e+004 152859 208873,208925,208899
 5.8000e+001 208977 -2.3699e+005 -8.7104e+006  7.0513e+005 152859 208873,208951,208925
 5.8000e+001 209152  4.6502e+005 -6.9469e+006  2.0272e+005 152569 209051,209103,209077
 5.8000e+001 209129  2.7683e+004 -7.4859e+006 -1.4379e+005 152569 209025,209103,209051
 5.8000e+001 209304 -3.1909e-001 -4.4371e-001 -3.7627e-001 152065 209177,209229,209203
 5.8000e+001 209281  7.2938e-001  1.0142e+000  8.6009e-001 152065 209177,209255,209229
 5.8000e+001 209456 -1.7049e+006 -5.1717e+006 -3.4389e+005 151775 209355,209407,209381
 5.8000e+001 209433 -5.7974e+005 -1.0424e+007 -9.7929e+004 151775 209329,209407,209355
 5.8000e+001 209608 -8.2432e+005 -8.7741e+006 -1.3710e+006 151371 209481,209533,209507
 5.8000e+001 209585  9.5776e+005 -1.3677e+007  5.6289e+004 151371 209481,209559,209533
 5.8000e+001 209760 -9.1639e+004 -1.0474e+005  6.1172e+004 150981 209659,209711,209685
 5.8000e+001 209737 -2.6339e+004 -1.1630e+005 -7.7219e+003 150981 209633,209711,209659
 5.8000e+001 209912  2.7165e+006 -3.8302e+007 -3.2927e+006 150619 209811,209863,209837
 5.8000e+001 209889 -3.4437e+006 -1.6565e+007  4.1740e+006 150619 209785,209863,209811
 5.8000e+001 210064 -4.4968e+003 -2.8336e+005  9.6245e+004 150279 209937,209989,209963
 5.8000e+001 210041 -6.9794e+004 -4.3035e+005  1.4539e+005 150279 209937,210015,209989
 5.8000e+001 210265 -2.3809e+006 -1.0293e+007  4.8639e+004 149989 210115,210167,210141
 5.8000e+001 210242 -2.3535e+005 -1.0960e+007 -9.2960e+005 149989 210115,210193,210167
 5.8000e+001 210219 -1.1719e+005 -1.2019e+007 -8.7731e+005 149989 210089,210193,210115
 5.8000e+001 210417 -2.7970e+005 -2.2680e+005  1.7849e+005 149599 210316,210368,210342
 5.8000e+001 210394 -2.1623e+004 -6.7369e+005  1.9973e+005 149599 210290,210368,210316
 5.8000e+001 210618 -2.9405e+006 -1.5843e+007  4.8445e+006 149095 210468,210520,210494
 5.8000e+001 210595 -3.2264e+006 -1.5762e+007  3.0297e+006 149095 210442,210520,210468
 5.8000e+001 210572 -1.7316e+006 -2.1246e+007  3.4039e+006 149095 210442,210546,210520
 5.8000e+001 210819  1.1692e+001  2.2000e+002  3.3763e+002 148748 210695,210747,210721
 5.8000e+001 210796 -1.9273e+002  6.0774e+002 -1.4548e+002 148748 210669,210747,210695
 5.8000e+001 210773 -8.1539e+002  1.2606e+003  3.1043e+002 148748 210643,210747,210669
 5.8000e+001 210971 -2.6109e+001 -2.5384e+002 -1.7584e+002 148408 210870,210922,210896
 5.8000e+001 210948  1.2924e+001  1.6336e+002 -2.0442e+002 148408 210844,210922,210870
 5.8000e+001 211123 -5.1246e+005 -5.5070e+006  8.8789e+005 148118 210996,211048,211022
 5.8000e+001 211100 -1.8197e+006 -6.2219e+006  3.2420e+006 148118 210996,211074,211048
 5.8000e+001 211275 -8.2255e+005 -4.2526e+006  1.5625e+006 147778 211148,211200,211174
 5.8000e+001 211252 -1.8621e+006 -9.2501e+006  5.2398e+006 147778 211148,211226,211200
 5.8000e+001 211427 -7.7231e+005 -2.7491e+006  1.1224e+006 147324 211326,211378,211352
 5.8000e+001 211404 -6.9933e+005 -2.3887e+006  1.2645e+006 147324 211300,211378,211326
 5.8000e+001 211628 -5.5287e+005 -5.4906e+005  2.2528e+005 147012 211452,211504,211478
 5.8000e+001 211605 -5.2938e+005  1.0697e+005  3.2722e+005 147012 211452,211556,211504
 5.8000e+001 211582 -3.8420e+005 -5.3697e+005  7.5355e+005 147012 211504,211556,211530
 5.8000e+001 211829 -2.1732e+006 -3.7335e+006  1.8070e+006 146636 211679,211757,211731
 5.8000e+001 211806  7.1426e+005 -6.0687e+006  1.7212e+006 146636 211653,211757,211679
 5.8000e+001 211783 -8.7273e+005 -4.2350e+006  2.8060e+006 146636 211679,211731,211705
 5.8000e+001 211981 -1.8394e+003  3.1284e+002 -3.9284e+002 146246 211880,211932,211906
 5.8000e+001 211958 -8.8830e+002  3.4687e+002  3.2919e+002 146246 211854,211932,211880
 5.8000e+001 212133 -9.4459e+002  2.5490e+002  7.7595e+002 145956 212006,212058,212032
 5.8000e+001 212110 -6.3766e+002  4.1098e+002  6.5780e+002 145956 212006,212084,212058
 5.8000e+001 212285 -1.2227e+001 -2.3388e+003  2.9936e+002 145544 212184,212236,212210
 5.8000e+001 212262 -6.2466e+002  5.4619e+002 -4.8660e+002 145544 212158,212236,212184
 5.8000e+001 212486 -6.8219e+005 -1.7349e+007  4.3161e+006 144990 212362,212414,212388
 5.8000e+001 212463  1.8216e+005 -1.4204e+007  6.1004e+006 144990 212310,212414,212362
 5.8000e+001 212440 -4.4247e+006 -2.9095e+006  2.8630e+006 144990 212310,212362,212336
 5.8000e+001 212638 -3.7356e+004 -2.1631e+005  9.6774e+004 144600 212537,212589,212563
 5.8000e+001 212615 -4.7515e+004 -2.3613e+005  1.2983e+005 144600 212511,212589,212537
 5.8000e+001 212839 -5.5969e+005 -2.6100e+006  9.5047e+005 144210 212689,212741,212715
 5.8000e+001 212816 -5.2877e+005 -2.5066e+006  8.2994e+005 144210 212663,212741,212689
 5.8000e+001 212793 -6.1075e+005 -3.0400e+006  1.0914e+006 144210 212663,212767,212741
 5.8000e+001 212991  2.6296e+001  1.1481e+001 -2.0571e+001 143920 212890,212942,212916
 5.8000e+001 212968  1.5001e+001  1.7159e+000 -2.8854e+001 143920 212864,212942,212890
 5.8000e+001 213143 -1.0482e+003 -1.4479e+002  4.2090e+002 143480 213016,213068,213042
 5.8000e+001 213120 -9.1456e+002  1.4713e+002  1.5677e+002 143480 213016,213094,213068
 5.8000e+001 213295 -5.9607e+005 -4.1253e+006  1.9115e+006 142990 213194,213246,213220
 5.8000e+001 213272 -3.1709e+005 -1.7601e+006  1.2929e+006 142990 213168,213246,213194
 5.8000e+001 213447  7.8032e+004 -3.2250e+006  1.0631e+006 142600 213320,213372,213346
 5.8000e+001 213424 -3.1864e+005 -3.5659e+006  1.3340e+006 142600 213320,213398,213372
 5.8000e+001 213599 -3.3578e+004 -2.1550e+005  2.1022e+004 142260 213472,213524,213498
 5.8000e+001 213576 -9.8799e+004 -2.7120e+005  1.7906e+005 142260 213472,213550,213524
 5.8000e+001 213751 -3.0313e-002 -5.6444e-001 -1.3081e-001 141870 213624,213676,213650
 5.8000e+001 213728  2.0245e-002  3.7696e-001  8.7359e-002 141870 213624,213702,213676
 5.8000e+001 213903 -1.2236e+006 -1.3363e+006 -1.2799e+006 141530 213776,213828,213802
 5.8000e+001 213880 -3.4508e+005 -1.5946e+006 -6.6051e+005 141530 213776,213854,213828
 5.8000e+001 214055 -1.2272e+006 -3.5729e+004  1.4415e+005 141218 213928,213980,213954
 5.8000e+001 214032 -7.4864e+005 -1.5744e+005  3.8196e+004 141218 213928,214006,213980
 5.8000e+001 214207  1.1668e+003 -2.0756e+002  2.0668e+003 140928 214080,214132,214106
 5.8000e+001 214184 -2.0746e+002 -4.2281e+002  1.2816e+003 140928 214080,214158,214132
 5.8000e+001 214359 -2.1618e+004 -1.0744e+005  1.7532e+003 140538 214232,214284,214258
 5.8000e+001 214336 -7.8603e+004 -3.8392e+005  2.2097e+005 140538 214232,214310,214284
 5.8000e+001 214560 -3.7665e+005 -4.5185e+006  1.1609e+006 140248 214384,214462,214410
 5.8000e+001 214537 -9.8857e+004 -2.6691e+006  7.7962e+005 140248 214384,214488,214462
 5.8000e+001 214514 -3.7218e+005 -2.3857e+006 -4.6515e+004 140248 214410,214462,214436
 5.8000e+001 214712 -7.7195e+005 -3.2440e+006  8.5349e+005 140000 214611,214663,214637
 5.8000e+001 214689 -5.2838e+005 -2.5106e+006  1.0175e+006 140000 214585,214663,214611
 5.8000e+001 214913 -2.2659e+005 -1.4674e+006 -4.7949e+005 139596 214737,214815,214763
 5.8000e+001 214890 -1.7205e+005 -6.8041e+005 -7.9847e+004 139596 214737,214841,214815
 5.8000e+001 214867  7.2331e+005 -5.1819e+006  4.5749e+005 139596 214763,214815,214789
 5.8000e+001 215016 -1.6008e+003 -2.6593e+003  6.8081e+002 139420 214938,214990,214964
 5.8000e+001 215168 -4.3224e+006 -1.1044e+007  7.0105e+006 139130 215067,215119,215093
 5.8000e+001 215145 -1.4807e+006 -1.2718e+007  2.3183e+006 139130 215041,215119,215067
 5.8000e+001 215320 -1.9592e+006 -6.8291e+006  4.0411e+006 138790 215219,215271,215245
 5.8000e+001 215297 -1.8570e+006 -1.0821e+007  5.1006e+006 138790 215193,215271,215219
 5.8000e+001 215472 -7.1704e+003 -2.0082e+005  8.3004e+004 138514 215345,215397,215371
 5.8000e+001 215449 -1.2461e+004 -8.0462e+004 -1.2926e+004 138514 215345,215423,215397
 5.8000e+001 215624 -1.7895e+005 -9.2066e+006  2.2322e+006 138174 215497,215549,215523
 5.8000e+001 215601 -2.1017e+005 -6.4120e+006  1.7599e+006 138174 215497,215575,215549
 5.8000e+001 215776 -2.4378e+005 -1.1634e+006  3.4592e+005 137734 215649,215701,215675
 5.8000e+001 215753 -3.4426e+005 -7.9736e+005 -6.7149e+005 137734 215649,215727,215701
 5.8000e+001 215977  1.3550e+006 -1.6540e+007  3.2818e+006 137344 215801,215879,215827
 5.8000e+001 215954 -1.9393e+006 -6.8947e+006 -3.3162e+006 137344 215801,215905,215879
 5.8000e+001 215931 -7.1781e+005 -1.9812e+007  5.9803e+005 137344 215827,215879,215853
 5.8000e+001 216129 -6.7602e+005 -3.4061e+006  6.3034e+005 136940 216028,216080,216054
 5.8000e+001 216106 -7.0845e+005 -5.5961e+006  1.5128e+006 136940 216002,216080,216028
 5.8000e+001 216330 -1.9310e+006 -8.8767e+006  1.6997e+006 136600 216180,216232,216206
 5.8000e+001 216307 -6.1949e+005 -8.6242e+006  2.3499e+006 136600 216154,216232,216180
 5.8000e+001 216284 -1.3296e+006 -5.3605e+006  5.4967e+005 136600 216154,216258,216232
 5.8000e+001 216482 -2.4148e+005 -5.6851e+006  1.5159e+006 136260 216381,216433,216407
 5.8000e+001 216459 -4.9182e+005 -5.1878e+006  1.4666e+006 136260 216355,216433,216381
 5.8000e+001 216634 -8.2638e+005 -3.1053e+006  1.3527e+006 135970 216533,216585,216559
 5.8000e+001 216611 -3.9524e+005 -5.0247e+006  1.8208e+006 135970 216507,216585,216533
 5.8000e+001 216835 -1.9189e+005 -2.6041e+006 -8.6646e+004 135608 216685,216763,216711
 5.8000e+001 216812 -4.9670e+004 -2.5671e+006 -7.0006e+004 135608 216659,216763,216685
 5.8000e+001 216789 -7.3099e+004 -2.4324e+006  2.4652e+004 135608 216711,216763,216737
 5.8000e+001 217036 -1.1905e+006 -1.6536e+006  8.4322e+005 135312 216912,216964,216938
 5.8000e+001 217013 -9.8229e+005 -4.3960e+006  2.4690e+006 135312 216886,216964,216912
 5.8000e+001 216990  9.9190e+005 -9.2287e+006  1.4810e+006 135312 216860,216964,216886
 5.8000e+001 217237 -1.4661e+005 -9.6860e+005  3.6413e+005 134908 217061,217139,217113
 5.8000e+001 217214 -1.9925e+005 -1.0062e+006  4.7161e+005 134908 217061,217165,217139
 5.8000e+001 217191 -2.1371e+005 -1.3669e+006  5.4416e+005 134908 217061,217113,217087
 5.8000e+001 217438 -1.4102e+006 -1.9396e+007  1.6388e+005 134568 217288,217366,217314
 5.8000e+001 217415  1.5573e+006 -2.9427e+007 -7.4277e+005 134568 217262,217366,217288
 5.8000e+001 217392 -4.9875e+005 -2.4199e+007 -1.6467e+006 134568 217314,217366,217340
 5.8000e+001 217590 -1.0137e+004 -2.2475e+005  1.1932e+005 134106 217463,217515,217489
 5.8000e+001 217567 -1.0614e+004 -1.6381e+005  2.3375e+004 134106 217463,217541,217515
 5.8000e+001 217791 -2.5043e+006 -2.4441e+007 -8.0631e+006 133816 217641,217693,217667
 5.8000e+001 217768  3.5418e+006 -2.8652e+007  2.1943e+006 133816 217641,217719,217693
 5.8000e+001 217745 -9.9839e+006 -4.3376e+006  6.5807e+006 133816 217615,217719,217641
 5.8000e+001 217992 -4.3930e+006 -5.3359e+006  5.0536e+006 133355 217842,217920,217894
 5.8000e+001 217969  1.7194e+005 -1.2557e+007  2.3228e+006 133355 217816,217920,217842
 5.8000e+001 217946 -9.6459e+005 -3.0162e+006  1.2888e+006 133355 217842,217894,217868
 5.8000e+001 218193 -3.6782e+005 -8.3331e+006  1.7718e+005 132851 218017,218095,218069
 5.8000e+001 218170 -4.3571e+006 -9.2002e+006  7.2407e+006 132851 218017,218121,218095
 5.8000e+001 218147 -1.9765e+006 -3.6599e+006 -9.7302e+005 132851 218017,218069,218043
 5.8000e+001 218345 -3.9406e+004 -2.4884e+005  7.1347e+004 132511 218244,218296,218270
 5.8000e+001 218322 -2.2185e+004 -5.6279e+005  1.3172e+005 132511 218218,218296,218244
 5.8000e+001 218497  2.0227e+006 -3.1061e+007 -4.1908e+005 132235 218396,218448,218422
 5.8000e+001 218474 -7.3781e+005 -9.9542e+006  6.2174e+005 132235 218370,218448,218396
 5.8000e+001 218698  2.9159e+005 -1.1198e+007 -2.1902e+006 131945 218574,218626,218600
 5.8000e+001 218675 -1.5972e+006 -2.1929e+007 -2.1273e+005 131945 218522,218626,218574
 5.8000e+001 218652 -2.5867e+006 -1.1457e+007 -2.9549e+006 131945 218522,218574,218548
 5.8000e+001 218850 -3.4310e+005 -1.9506e+007  4.7694e+005 131655 218723,218775,218749
 5.8000e+001 218827  3.2115e+005 -1.2714e+007  3.4012e+005 131655 218723,218801,218775
 5.8000e+001 218953 -2.8620e+004 -1.2889e+006  1.8191e+005 131215 218875,218927,218901
 5.8000e+001 219105 -8.9841e+004 -2.5658e+006 -6.8305e+005 130875 218978,219030,219004
 5.8000e+001 219082 -2.2953e+005 -7.3816e+005 -1.8424e+005 130875 218978,219056,219030
 5.8000e+001 219306 -3.9908e+005 -1.8405e+006  6.6505e+004 130429 219156,219234,219208
 5.8000e+001 219283 -4.8777e+005 -9.5559e+005  2.5308e+005 130429 219130,219234,219156
 5.8000e+001 219260 -1.7991e+006 -2.2341e+006  7.3683e+005 130429 219156,219208,219182
 5.8000e+001 219507 -3.6585e+005 -1.4521e+006  6.0707e+005 130025 219383,219435,219409
 5.8000e+001 219484 -3.4004e+005 -1.6766e+006  7.1486e+005 130025 219331,219435,219383
 5.8000e+001 219461 -3.7949e+005 -1.1253e+006  4.7082e+005 130025 219331,219383,219357
 5.8000e+001 219659 -2.8185e+005 -5.7817e+006  6.5914e+005 129685 219558,219610,219584
 5.8000e+001 219636  8.1219e+005 -9.0489e+006 -4.3624e+006 129685 219532,219610,219558
 5.8000e+001 219860 -1.9696e+005 -1.3136e+006  6.4698e+005 129395 219710,219788,219762
 5.8000e+001 219837 -2.8660e+005 -1.3406e+006  5.9050e+005 129395 219684,219788,219710
 5.8000e+001 219814 -6.3955e+004 -1.7428e+006  3.3498e+005 129395 219710,219762,219736
 5.8000e+001 220061  4.4698e+004 -4.7826e+005  1.1402e+005 128991 219937,219989,219963
 5.8000e+001 220038  1.3337e+004 -6.1837e+005  7.2279e+004 128991 219885,219989,219937
 5.8000e+001 220015 -4.2651e+004 -8.9714e+005  1.1707e+005 128991 219885,219937,219911
 5.8000e+001 220262 -1.3687e+005 -2.3325e+005  3.4500e+004 128701 220086,220164,220112
 5.8000e+001 220239 -1.9663e+004 -5.8284e+005  1.6597e+005 128701 220086,220190,220164
 5.8000e+001 220216 -9.2492e+003 -2.6983e+005 -7.0156e+004 128701 220112,220164,220138
 5.8000e+001 220463 -3.8676e+006 -8.2333e+006  3.8922e+006 128297 220339,220391,220365
 5.8000e+001 220440  1.1956e+006 -1.7382e+007  1.6584e+006 128297 220313,220391,220339
 5.8000e+001 220417 -1.4823e+006 -2.2367e+007 -6.5166e+006 128297 220287,220391,220313
 5.8000e+001 220615 -1.1564e+006 -2.0408e+006 -1.1166e+006 128007 220488,220540,220514
 5.8000e+001 220592  1.0988e+006 -9.9667e+006 -1.7438e+005 128007 220488,220566,220540
 5.8000e+001 220767  6.6309e+004 -5.0854e+006  4.1367e+003 127567 220640,220692,220666
 5.8000e+001 220744 -4.6789e+005 -1.8208e+006 -1.2198e+005 127567 220640,220718,220692
 5.8000e+001 220919 -1.7499e+006 -1.6708e+007 -2.0068e+006 127163 220792,220844,220818
 5.8000e+001 220896  6.9137e+005 -1.9993e+007  2.6699e+006 127163 220792,220870,220844
 5.8000e+001 221071 -2.2683e+006 -5.1754e+006  2.9667e+006 126915 220970,221022,220996
 5.8000e+001 221048 -2.3865e+006 -5.5014e+006  2.8260e+006 126915 220944,221022,220970
 5.8000e+001 221272 -2.1205e+006 -4.3110e+006  3.3646e+006 126461 221122,221174,221148
 5.8000e+001 221249 -3.3123e+006 -5.6506e+006  8.5774e+004 126461 221122,221200,221174
 5.8000e+001 221226  4.3943e+005 -1.1167e+007 -2.2980e+006 126461 221096,221200,221122
 5.8000e+001 221375 -3.6315e+000 -4.9642e+001 -1.7018e+000 126213 221297,221349,221323
 5.8000e+001 221478  1.7292e-129 -1.6573e-130  6.0394e-130 125766 221400,221452,221426
 5.8000e+001 221679 -3.1001e+004 -3.3000e+005  6.3176e+004 125212 221503,221555,221529
 5.8000e+001 221656 -2.4734e+004 -3.7011e+005  3.2468e+004 125212 221503,221581,221555
 5.8000e+001 221633  1.3133e+005 -1.1648e+006  4.1409e+005 125212 221503,221607,221581
 5.8000e+001 221929 -8.0936e+002 -1.2487e+002 -2.3847e+002 124872 221782,221834,221808
 5.8000e+001 221906 -2.1882e+003 -3.9035e+002  1.1742e+003 124872 221756,221834,221782
 5.8000e+001 221883 -4.5018e+003  1.1799e+003 -2.5237e+003 124872 221704,221834,221756
 5.8000e+001 221860 -5.4509e+003  3.1805e+003 -5.4909e+002 124872 221704,221756,221730
 5.8000e+001 222130 -4.4019e+005 -8.6213e+006 -1.2135e+003 124582 221980,222058,222006
 5.8000e+001 222107 -1.8744e+006 -8.2334e+006  3.7521e+005 124582 221954,222058,221980
 5.8000e+001 222084 -1.7092e+006 -8.4645e+006 -4.9638e+005 124582 222006,222058,222032
 5.8000e+001 222282 -1.8298e+006 -8.2599e+006 -2.3678e+006 124192 222181,222233,222207
 5.8000e+001 222259 -9.5775e+005 -6.8473e+006 -1.0346e+006 124192 222155,222233,222181
 5.8000e+001 222483 -3.2949e+005 -5.0806e+006 -2.8504e+006 123702 222333,222385,222359
 5.8000e+001 222460 -1.9531e+005 -2.2919e+006  3.3400e+005 123702 222333,222411,222385
 5.8000e+001 222437 -1.5130e+005 -5.8448e+005 -7.7047e+004 123702 222307,222411,222333
 5.8000e+001 222635 -6.6416e+005 -1.1186e+006 -5.6594e+005 123312 222508,222560,222534
 5.8000e+001 222612  3.5450e+005 -5.5633e+006 -3.8798e+005 123312 222508,222586,222560
 5.8000e+001 222787 -2.8358e+002 -1.6682e+005 -7.7193e+003 122858 222686,222738,222712
 5.8000e+001 222764 -1.4349e+004 -1.9244e+005 -3.6731e+004 122858 222660,222738,222686
 5.8000e+001 222939 -1.3362e+004 -3.3780e+005 -1.7217e+003 122568 222812,222864,222838
 5.8000e+001 222916  2.1343e+004 -2.0017e+005 -8.8289e+003 122568 222812,222890,222864
 5.8000e+001 223091 -1.1696e+006 -3.6592e+006 -4.2686e+005 122392 222964,223016,222990
 5.8000e+001 223068 -2.8710e+005 -3.3735e+006 -6.1403e+005 122392 222964,223042,223016
 5.8000e+001 223292 -7.8302e+005 -3.3864e+006 -5.7342e+005 121852 223142,223220,223194
 5.8000e+001 223269 -3.6289e+006 -1.9048e+006 -5.1639e+004 121852 223116,223220,223142
 5.8000e+001 223246 -4.0704e+006 -3.3744e+006 -3.4631e+006 121852 223142,223194,223168
 5.8000e+001 223493 -9.2334e+005 -1.5908e+006  4.7433e+005 121406 223343,223395,223369
 5.8000e+001 223470 -1.6282e+006 -1.2984e+006  1.1240e+005 121406 223343,223421,223395
 5.8000e+001 223447 -4.7262e+005 -8.8998e+005  4.0244e+005 121406 223317,223421,223343
 5.8000e+001 223645  3.5284e+005 -1.0331e+007  1.5064e+006 121002 223544,223596,223570
 5.8000e+001 223622 -1.1617e+006 -6.2589e+006  1.6379e+006 121002 223518,223596,223544
 5.8000e+001 223846 -2.2966e+005 -1.3351e+006 -2.0548e+005 120662 223670,223748,223696
 5.8000e+001 223823 -2.2745e+005 -6.1354e+005  1.2772e+005 120662 223670,223774,223748
 5.8000e+001 223800 -1.4362e+006 -4.3160e+005 -3.8521e+005 120662 223696,223748,223722
 5.8000e+001 224047 -3.6392e+004 -7.0890e+005  9.6283e+004 120222 223897,223949,223923
 5.8000e+001 224024  2.5231e+005 -8.5139e+005 -3.8481e+004 120222 223871,223949,223897
 5.8000e+001 224001 -1.0659e+005 -5.0387e+005 -1.3598e+005 120222 223871,223975,223949
 5.8000e+001 224248 -7.1705e+004 -5.4541e+005 -4.2332e+005 119875 224124,224176,224150
 5.8000e+001 224225 -4.9835e+005 -1.2898e+006 -7.3810e+005 119875 224098,224176,224124
 5.8000e+001 224202 -7.9915e+004 -2.7927e+005  2.4719e+003 119875 224072,224176,224098
 5.8000e+001 224449  2.8523e+004 -6.8530e+005  4.0219e+004 119677 224325,224377,224351
 5.8000e+001 224426 -9.1832e+003 -8.3712e+005  1.4996e+004 119677 224299,224377,224325
 5.8000e+001 224403 -1.0802e+003 -2.0493e+005  4.2336e+003 119677 224273,224377,224299
 5.8000e+001 224552 -4.9965e+004 -1.4011e+005 -3.7837e+004 119273 224474,224526,224500
 5.8000e+001 224704  7.5222e+004 -2.5252e+006 -3.8783e+005 118983 224603,224655,224629
 5.8000e+001 224681 -6.3918e+004 -1.7387e+006  2.5548e+004 118983 224577,224655,224603
 5.8000e+001 224856 -1.9726e+004 -2.0885e+006 -1.8801e+005 118529 224755,224807,224781
 5.8000e+001 224833 -1.8621e+004 -1.8806e+006 -1.3604e+005 118529 224729,224807,224755
 5.8000e+001 225008 -8.7799e+004 -1.7757e+006  2.7630e+003 118353 224881,224933,224907
 5.8000e+001 224985 -2.3146e+004  7.6993e+004 -1.6225e+003 118353 224881,224959,224933
 5.8000e+001 225209 -3.4283e+005 -5.9467e+006 -1.2349e+006 117949 225059,225137,225111
 5.8000e+001 225186 -3.3858e+005 -5.2811e+006 -6.1668e+004 117949 225033,225137,225059
 5.8000e+001 225163 -3.8692e+005 -6.7634e+006 -8.0511e+005 117949 225059,225111,225085
 5.8000e+001 225410 -3.9565e+004 -6.2837e+006  8.4234e+005 117559 225260,225338,225312
 5.8000e+001 225387 -1.1740e+006 -6.6371e+006  5.7476e+005 117559 225234,225338,225260
 5.8000e+001 225364 -5.0762e+005 -4.2977e+006 -1.4758e+006 117559 225260,225312,225286
 5.8000e+001 225611 -1.2939e+006 -8.3724e+006 -2.9726e+006 117361 225461,225513,225487
 5.8000e+001 225588 -6.5882e+005 -8.9213e+006  1.1566e+006 117361 225461,225539,225513
 5.8000e+001 225565 -9.7309e+005 -8.0117e+006  1.7444e+006 117361 225435,225539,225461
 5.8000e+001 225812  4.0590e+005 -6.9346e+006 -9.4576e+005 116900 225636,225714,225662
 5.8000e+001 225789 -8.8757e+005 -4.1321e+006 -1.2100e+006 116900 225636,225740,225714
 5.8000e+001 225766 -3.9086e+003 -7.0815e+006 -1.6134e+005 116900 225662,225714,225688
 5.8000e+001 225964 -9.7341e+004 -3.1932e+006 -1.9379e+005 116560 225837,225889,225863
 5.8000e+001 225941  1.4604e+005 -4.2718e+006  2.1098e+004 116560 225837,225915,225889
 5.8000e+001 226165 -4.0316e+004 -9.8844e+005 -4.1282e+005 116106 226015,226093,226041
 5.8000e+001 226142 -5.8560e+005 -9.0494e+005 -8.8872e+005 116106 225989,226093,226015
 5.8000e+001 226119 -8.5492e+004 -5.3422e+005  9.4684e+004 116106 226041,226093,226067
 5.8000e+001 226268 -1.1451e+006 -4.7750e+006  7.0516e+005 115716 226190,226242,226216
 5.8000e+001 226420 -8.2982e+004 -8.6474e+006  2.0924e+006 115376 226293,226345,226319
 5.8000e+001 226397 -1.6779e+005 -8.5996e+006  1.9779e+006 115376 226293,226371,226345
 5.8000e+001 226621 -4.9695e+005 -1.4329e+006  3.1050e+005 114972 226497,226549,226523
 5.8000e+001 226598 -4.5523e+005 -7.5701e+006 -3.9867e+005 114972 226445,226549,226497
 5.8000e+001 226575 -8.9346e+004 -3.9088e+006  7.5603e+005 114972 226445,226497,226471
 5.8000e+001 226773 -1.5680e+006 -1.7048e+006 -9.2139e+005 114670 226646,226698,226672
 5.8000e+001 226750  3.5007e+005 -4.9383e+006  4.8292e+005 114670 226646,226724,226698
 5.8000e+001 226974  2.6294e+004 -1.4712e+006 -2.3100e+005 114082 226798,226850,226824
 5.8000e+001 226951  8.5513e+004 -1.9710e+006 -5.5869e+004 114082 226798,226902,226850
 5.8000e+001 226928  1.2315e+004 -2.7467e+006 -2.3897e+005 114082 226850,226902,226876
 5.8000e+001 227175 -5.5904e+005 -4.6100e+006 -2.0952e+006 113678 226999,227051,227025
 5.8000e+001 227152 -1.8914e+006 -8.4923e+006 -3.5275e+006 113678 226999,227077,227051
 5.8000e+001 227129 -2.5989e+006 -5.4618e+006 -3.0805e+006 113678 226999,227103,227077
 5.8000e+001 227425 -3.6457e+006 -8.4962e+006 -9.1700e+006 113274 227226,227278,227252
 5.8000e+001 227402 -5.8828e+005 -8.0532e+006 -1.9032e+006 113274 227226,227330,227278
 5.8000e+001 227379 -4.0964e+006 -4.7928e+006 -2.1407e+006 113274 227200,227330,227226
 5.8000e+001 227356 -1.5744e+006 -1.6758e+006 -1.8618e+006 113274 227278,227330,227304
 5.8000e+001 227626 -1.9397e+005 -2.9766e+006 -1.4543e+006 112934 227502,227554,227528
 5.8000e+001 227603  1.6781e+005 -2.2288e+006 -1.1074e+005 112934 227450,227554,227502
 5.8000e+001 227580 -1.3550e+006 -7.0448e+005  4.8071e+004 112934 227450,227502,227476
 5.8000e+001 227876 -1.2741e+005 -1.4078e+006 -6.0317e+004 112437 227677,227755,227703
 5.8000e+001 227853 -8.7492e+005 -1.7484e+006  1.0987e+006 112437 227677,227781,227755
 5.8000e+001 227830 -1.8824e+005 -8.0324e+005  2.9803e+005 112437 227703,227755,227729
 5.8000e+001 227807 -4.6012e+005 -4.3321e+006  1.7783e+005 112437 227651,227781,227677
 5.8000e+001 228126 -2.4856e+005 -4.6143e+006 -2.5928e+005 112041 227927,228005,227953
 5.8000e+001 228103 -8.6198e+005 -4.4986e+006 -2.4677e+005 112041 227927,228031,228005
 5.8000e+001 228080 -8.7955e+004 -5.8863e+006 -1.6951e+005 112041 227953,228005,227979
 5.8000e+001 228057 -1.1201e+006 -3.0424e+006 -4.0416e+005 112041 227901,228031,227927
 5.8000e+001 228327 -1.2425e+006 -2.6531e+006 -2.4426e+005 111693 228151,228203,228177
 5.8000e+001 228304 -4.0103e+005 -1.7373e+006 -8.2173e+005 111693 228151,228229,228203
 5.8000e+001 228281  2.5968e+005 -3.3697e+006  3.7538e+005 111693 228151,228255,228229
 5.8000e+001 228479 -3.9992e+006 -2.5064e+006 -4.0747e+006 111253 228352,228404,228378
 5.8000e+001 228456 -2.4992e+006 -5.0286e+005 -1.1947e+005 111253 228352,228430,228404
 5.8000e+001 228582 -1.2436e+002  4.0961e+002 -1.4236e+002 110906 228504,228556,228530
 5.8000e+001 228783 -1.1101e+004 -1.5773e+006 -2.2337e+004 110416 228633,228711,228659
 5.8000e+001 228760  7.6168e+004 -1.2398e+006  4.8547e+003 110416 228607,228711,228633
 5.8000e+001 228737  3.4010e+004 -1.6055e+006 -5.8415e+004 110416 228659,228711,228685
 5.8000e+001 228935 -4.7511e+004 -2.6342e+006 -5.6814e+005 110012 228808,228860,228834
 5.8000e+001 228912 -7.2729e+005 -4.9043e+006 -1.1416e+006 110012 228808,228886,228860
 5.8000e+001 229087 -9.8929e+005 -2.2723e+006 -1.0497e+006 109672 228960,229012,228986
 5.8000e+001 229064  2.7038e+005 -4.5541e+006 -4.2947e+005 109672 228960,229038,229012
 5.8000e+001 229190 -2.3620e+003 -2.7873e+005  1.8124e+004 109332 229112,229164,229138
 5.8000e+001 229391 -6.2606e+005 -1.3531e+005  1.8683e+005 109156 229267,229319,229293
 5.8000e+001 229368 -6.2365e+005 -7.9068e+005  2.9873e+005 109156 229215,229319,229267
 5.8000e+001 229345 -3.5714e+005 -1.4981e+005 -5.3185e+004 109156 229215,229267,229241
 5.8000e+001 229543  7.4041e+005 -1.1158e+007  1.5701e+006 108752 229416,229468,229442
 5.8000e+001 229520 -1.0275e+006 -4.4555e+006 -6.7974e+005 108752 229416,229494,229468
 5.8000e+001 229744 -9.7046e+004 -6.5986e+006  2.5288e+004 108198 229594,229646,229620
 5.8000e+001 229721  4.7116e+005 -6.4446e+006 -1.6308e+005 108198 229594,229672,229646
 5.8000e+001 229698 -5.5888e+005 -5.6927e+006  1.7017e+005 108198 229568,229672,229594
 5.8000e+001 229847 -1.2880e+005 -1.5890e+006 -3.4655e+005 107758 229769,229821,229795
 5.8000e+001 230048 -6.6556e+005 -1.7685e+006 -2.8641e+005 107468 229898,229950,229924
 5.8000e+001 230025 -6.4202e+005 -1.5231e+006  2.0194e+005 107468 229872,229950,229898
 5.8000e+001 230002 -8.7120e+005 -1.9915e+006  6.0566e+005 107468 229872,229976,229950
 5.8000e+001 230298  2.1121e+004 -8.4562e+005  1.0073e+005 107121 230099,230203,230177
 5.8000e+001 230275  2.1218e+004 -1.6592e+006  8.3918e+004 107121 230073,230203,230099
 5.8000e+001 230252  1.8660e+005 -8.6439e+005 -1.4521e+004 107121 230099,230177,230151
 5.8000e+001 230229 -9.6712e+004 -6.5788e+005 -2.5241e+005 107121 230099,230151,230125
 5.8000e+001 230450  1.3205e+005 -1.7466e+006 -1.3042e+005 106823 230349,230401,230375
 5.8000e+001 230427 -7.6275e+004 -7.8259e+005  7.2997e+004 106823 230323,230401,230349
 5.8000e+001 230602 -2.5500e+006 -1.2143e+007 -8.1006e+006 106533 230501,230553,230527
 5.8000e+001 230579 -3.2233e+005 -1.2427e+007  1.6701e+006 106533 230475,230553,230501
 5.8000e+001 230803 -7.0425e+004 -1.8671e+006 -3.1771e+004 106029 230679,230731,230705
 5.8000e+001 230780  6.3465e+004 -1.3291e+006 -9.8823e+003 106029 230653,230731,230679
 5.8000e+001 230757  1.2847e+003 -1.5947e+006 -7.8560e+004 106029 230627,230731,230653
 5.8000e+001 231004 -8.0027e+004 -1.1889e+006  8.1814e+004 105689 230854,230906,230880
 5.8000e+001 230981  9.1229e+004 -1.4758e+006 -2.4206e+005 105689 230828,230906,230854
 5.8000e+001 230958 -2.5434e+005 -1.1153e+006 -5.3282e+005 105689 230828,230932,230906
 5.8000e+001 231156  5.3626e+005 -8.7916e+006 -5.7875e+005 105377 231055,231107,231081
 5.8000e+001 231133  8.5045e+004 -5.0949e+006  5.5589e+005 105377 231029,231107,231055
 5.8000e+001 231406 -3.7363e+005 -8.9253e+006 -1.7121e+006 104858 231207,231259,231233
 5.8000e+001 231383 -1.7438e+006 -9.1805e+006 -1.6993e+006 104858 231207,231311,231259
 5.8000e+001 231360 -7.0709e+005 -1.0492e+007 -2.6276e+006 104858 231259,231311,231285
 5.8000e+001 231337 -6.9680e+005 -1.2381e+007 -2.4639e+006 104858 231181,231311,231207
 5.8000e+001 231558 -1.6203e+006 -1.5439e+007  4.2339e+006 104418 231457,231509,231483
 5.8000e+001 231535 -2.6590e+006 -1.5070e+007 -7.6236e+006 104418 231431,231509,231457
 5.8000e+001 231710 -1.4261e+006 -1.3751e+006 -4.7504e+005 103978 231583,231635,231609
 5.8000e+001 231687 -9.1712e+005 -1.3853e+006 -7.6472e+005 103978 231583,231661,231635
 5.8000e+001 231862 -7.3596e+004 -2.7057e+006  5.8018e+004 103588 231761,231813,231787
 5.8000e+001 231839  2.3900e+004 -2.1994e+006 -1.8951e+004 103588 231735,231813,231761
 5.8000e+001 232014 -2.3189e+006 -9.6845e+006 -3.0826e+006 103248 231887,231939,231913
 5.8000e+001 231991 -2.2079e+006 -1.9951e+007 -7.5236e+006 103248 231887,231965,231939
 5.8000e+001 232215 -2.3641e+004 -4.7420e+005  1.7865e+004 102844 232039,232117,232065
 5.8000e+001 232192  2.0653e+004 -2.6265e+005  1.8106e+004 102844 232039,232143,232117
 5.8000e+001 232169 -5.4056e+004 -3.1867e+005 -8.9264e+004 102844 232065,232117,232091
 5.8000e+001 232416 -4.2101e+006 -1.1031e+007 -4.7001e+006 102554 232240,232318,232292
 5.8000e+001 232393  1.6862e+006 -1.8258e+007 -2.6201e+005 102554 232240,232344,232318
 5.8000e+001 232370 -5.6847e+006 -4.0348e+006 -1.0108e+006 102554 232240,232292,232266
 5.8000e+001 232568 -5.1617e+004 -1.1283e+006  4.3769e+004 102100 232441,232493,232467
 5.8000e+001 232545 -3.9542e+005 -1.3148e+006  3.6261e+005 102100 232441,232519,232493
 5.8000e+001 232769 -4.2481e+004 -5.2248e+005  9.0455e+004 101596 232645,232697,232671
 5.8000e+001 232746  1.7346e+004 -2.8709e+005  4.9906e+004 101596 232593,232697,232645
 5.8000e+001 232723 -1.5043e+004 -5.0367e+005  8.7717e+004 101596 232593,232645,232619
 5.8000e+001 232921 -1.7370e+002 -1.7277e+002 -4.3453e-001 101420 232794,232846,232820
 5.8000e+001 232898 -1.7298e+002 -1.0064e+002  1.1559e+001 101420 232794,232872,232846
 5.8000e+001 233073 -1.1294e+006 -8.4947e+005 -2.5609e+005 101023 232946,232998,232972
 5.8000e+001 233050 -3.1587e+005 -1.8904e+006  5.2978e+005 101023 232946,233024,232998
 5.8000e+001 233225  2.1684e+004 -4.7336e+005 -1.9115e+003 100661 233098,233150,233124
 5.8000e+001 233202 -1.3610e+004 -3.1770e+005 -9.9832e+003 100661 233098,233176,233150
 5.8000e+001 233426 -2.4495e+006 -8.0426e+006 -2.8805e+006 100265 233276,233328,233302
 5.8000e+001 233403 -1.0183e+006 -6.7642e+006 -3.0137e+005 100265 233276,233354,233328
 5.8000e+001 233380 -1.9856e+006 -8.2531e+006 -1.0010e+006 100265 233250,233354,233276
 5.8000e+001 233578 -1.0466e+003 -5.1968e+005  2.2105e+004 100032 233451,233503,233477
 5.8000e+001 233555 -2.9093e+004 -5.1693e+005  1.1327e+005 100032 233451,233529,233503
 5.8000e+001 233681 -4.3091e+005  1.1033e+003 -7.7308e+004 99742 233603,233655,233629
 5.8000e+001 233784 -7.4014e+005 -2.7922e+006 -2.3466e+005 99402 233706,233758,233732
 5.8000e+001 233936 -6.3858e+005 -1.8076e+006  3.5712e+005 99062 233835,233887,233861
 5.8000e+001 233913 -5.8937e+005 -1.6177e+006  3.8715e+005 99062 233809,233887,233835
 5.8000e+001 234088 -8.4401e+005 -3.6683e+006  1.2796e+006 98772 233987,234039,234013
 5.8000e+001 234065 -3.6432e+005 -3.6181e+006  1.0634e+006 98772 233961,234039,233987
 5.8000e+001 234240 -1.4754e+004 -5.8659e+004  1.9558e+004 98160 234139,234191,234165
 5.8000e+001 234217 -1.7956e+004 -7.3021e+004 -8.6130e+003 98160 234113,234191,234139
 5.8000e+001 234441  2.2758e+002  3.8742e+001  2.4989e+002 97820 234317,234369,234343
 5.8000e+001 234418  1.8988e+002 -3.1912e+002 -2.6614e+002 97820 234291,234369,234317
 5.8000e+001 234395 -1.5306e+002  2.7320e+002 -3.5235e+002 97820 234265,234369,234291
 5.8000e+001 234593 -3.2229e+005 -1.5800e+006 -2.5989e+005 97366 234466,234518,234492
 5.8000e+001 234570  1.8426e+005 -3.7781e+006 -3.3262e+005 97366 234466,234544,234518
 5.8000e+001 234794 -8.5355e+005 -1.3187e+006 -8.7280e+005 96976 234618,234670,234644
 5.8000e+001 234771 -1.7930e+005 -2.7944e+006 -6.8605e+005 96976 234618,234722,234670
 5.8000e+001 234748 -6.3104e+005 -2.6743e+006 -1.4531e+006 96976 234670,234722,234696
 5.8000e+001 234946 -9.2347e+005 -1.5834e+006  5.9918e+005 96568 234845,234897,234871
 5.8000e+001 234923 -6.3723e+005 -9.3622e+005  1.0633e+006 96568 234819,234897,234845
 5.8000e+001 235196 -1.8313e+005 -8.1262e+005 -2.3268e+005 96216 234997,235075,235049
 5.8000e+001 235173  8.1940e+004 -3.9091e+006  1.1323e+006 96216 234997,235101,235075
 5.8000e+001 235150 -4.2055e+005 -9.9159e+005  9.9561e+004 96216 234997,235049,235023
 5.8000e+001 235127 -1.9024e+005 -4.1005e+006  8.8407e+005 96216 234971,235101,234997
 5.8000e+001 235348 -1.0142e+006 -1.7484e+006 -1.2921e+006 95863 235247,235299,235273
 5.8000e+001 235325 -7.2829e+005 -1.3935e+006 -9.4609e+005 95863 235221,235299,235247
 5.8000e+001 235500 -7.0681e+005 -2.4413e+006 -1.0983e+006 95339 235373,235425,235399
 5.8000e+001 235477 -5.2802e+005 -4.0336e+006  2.9415e+006 95339 235373,235451,235425
 5.8000e+001 235701  8.2800e+004 -3.5610e+006  7.7038e+005 95023 235525,235577,235551
 5.8000e+001 235678 -1.5811e+005 -3.4885e+006  7.0757e+005 95023 235525,235629,235577
 5.8000e+001 235655 -1.8103e+005 -6.0583e+006  1.2495e+006 95023 235577,235629,235603
 5.8000e+001 235853  6.3997e+005 -1.5203e+007  4.2334e+005 94671 235726,235778,235752
 5.8000e+001 235830 -4.1961e+004 -1.4527e+007 -8.3659e+004 94671 235726,235804,235778
 5.8000e+001 236005 -1.4025e+006 -9.3379e+006 -5.6262e+005 94261 235904,235956,235930
 5.8000e+001 235982 -2.0857e+005 -1.2456e+007 -3.6805e+006 94261 235878,235956,235904
 5.8000e+001 236206 -7.3249e+005 -7.8792e+005  1.0676e+006 93853 236056,236134,236082
 5.8000e+001 236183 -1.2496e+006 -9.4440e+005  4.8779e+005 93853 236030,236134,236056
 5.8000e+001 236160 -9.8284e+005 -1.0779e+006  9.0668e+005 93853 236082,236134,236108
 5.8000e+001 236407 -1.6285e+006 -5.8939e+006  1.2435e+005 93557 236257,236309,236283
 5.8000e+001 236384 -2.9875e+006 -6.6737e+006 -2.0190e+006 93557 236231,236309,236257
 5.8000e+001 236361  1.1816e+006 -1.9428e+007  1.9756e+006 93557 236231,236335,236309
 5.8000e+001 236559 -1.3198e+003 -3.8649e+004  1.2613e+004 93149 236432,236484,236458
 5.8000e+001 236536  1.5863e+004 -7.3054e+003  3.5004e+004 93149 236432,236510,236484
 5.8000e+001 236711 -6.8504e+004 -2.5166e+005  7.8563e+004 92853 236584,236636,236610
 5.8000e+001 236688 -2.1500e+004 -6.7110e+005  1.5167e+005 92853 236584,236662,236636
 5.8000e+001 236912 -2.4730e+005 -2.8314e+006  1.1047e+006 92501 236736,236788,236762
 5.8000e+001 236889 -4.9331e+005 -1.4937e+006  3.5846e+005 92501 236736,236840,236788
 5.8000e+001 236866 -6.2772e+005 -2.2426e+006  2.5773e+005 92501 236788,236840,236814
 5.8000e+001 237113 -1.3853e+005 -5.9317e+006  2.5886e+005 92291 236963,237041,237015
 5.8000e+001 237090  1.7595e+005 -3.2752e+006  7.6889e+004 92291 236937,237041,236963
 5.8000e+001 237067 -2.7983e+005 -5.4002e+006  1.2296e+006 92291 236963,237015,236989
 5.8000e+001 237265  1.2658e+005 -1.1565e+006 -5.1204e+005 91871 237138,237190,237164
 5.8000e+001 237242 -9.3184e+005 -3.1686e+006 -1.3914e+006 91871 237138,237216,237190
 5.8000e+001 237368 -4.2740e+002 -1.7389e+006  3.0661e+002 91581 237290,237342,237316
 5.8000e+001 237520 -2.5104e+004 -1.7362e+005  4.5908e+004 91184 237419,237471,237445
 5.8000e+001 237497 -7.0788e+004 -3.0452e+005 -6.7118e+004 91184 237393,237471,237419
 5.8000e+001 237672 -7.1130e+005 -1.4072e+006 -3.3082e+005 90894 237545,237597,237571
 5.8000e+001 237649 -2.6174e+005 -5.1346e+006  1.3278e+006 90894 237545,237623,237597
 5.8000e+001 237873 -8.5233e+005 -4.6716e+006  9.0132e+005 90490 237749,237801,237775
 5.8000e+001 237850 -6.6347e+005 -3.7117e+006  1.0070e+006 90490 237723,237801,237749
 5.8000e+001 237827 -1.1534e+006 -3.8353e+006 -6.3785e+005 90490 237697,237801,237723
 5.8000e+001 238074 -7.2544e+005 -6.4323e+006  5.1947e+005 90100 237898,237976,237950
 5.8000e+001 238051 -1.5762e+006 -6.4644e+006  3.2255e+005 90100 237898,238002,237976
 5.8000e+001 238028 -5.9251e+005 -5.4607e+006  4.2885e+005 90100 237898,237950,237924
 5.8000e+001 238275  7.8557e+004 -1.9785e+006  9.3588e+005 89696 238125,238177,238151
 5.8000e+001 238252 -3.9709e+005 -1.1134e+006 -9.4874e+005 89696 238099,238177,238125
 5.8000e+001 238229 -7.6203e+005 -1.9287e+006 -6.6636e+005 89696 238099,238203,238177
 5.8000e+001 238427  1.6409e+004 -5.7943e+004 -2.1915e+004 89206 238326,238378,238352
 5.8000e+001 238404 -1.9809e+004 -3.3445e+005 -5.8366e+004 89206 238300,238378,238326
 5.8000e+001 238579 -8.0150e+005 -3.5387e+006  1.6621e+006 88908 238452,238504,238478
 5.8000e+001 238556 -1.5966e+005 -2.6592e+006  2.9738e+004 88908 238452,238530,238504
 5.8000e+001 238682 -4.1982e+002  1.3476e+002 -2.3734e+002 88568 238604,238656,238630
 5.8000e+001 238883  2.9111e+005 -5.8920e+006  1.7118e+006 88278 238733,238811,238785
 5.8000e+001 238860 -7.8352e+005 -2.8394e+006  1.4764e+006 88278 238707,238811,238733
 5.8000e+001 238837 -2.1693e+005 -6.2592e+006  1.1645e+006 88278 238733,238785,238759
 5.8000e+001 239035 -1.4507e+006 -4.7082e+006 -4.2499e+005 87988 238908,238960,238934
 5.8000e+001 239012 -1.6976e+006 -2.2933e+006  4.4721e+005 87988 238908,238986,238960
 5.8000e+001 239138 -7.0960e+004 -6.5691e+005  7.9698e+004 87648 239060,239112,239086
 5.8000e+001 239339 -1.2674e+006 -3.4571e+006 -2.2434e+006 87358 239163,239215,239189
 5.8000e+001 239316 -1.2720e+006 -2.1289e+006 -4.8322e+005 87358 239163,239241,239215
 5.8000e+001 239293 -9.1005e+005 -1.1859e+006 -9.2573e+005 87358 239163,239267,239241
 5.8000e+001 239589 -6.3285e+001 -3.5249e+003  7.5297e+002 86961 239390,239468,239416
 5.8000e+001 239566 -7.3876e+003 -1.4196e+003  6.5378e+003 86961 239390,239494,239468
 5.8000e+001 239543 -4.7717e+002 -9.0638e+001  3.1231e+002 86961 239416,239468,239442
 5.8000e+001 239520 -1.0509e+004 -1.1693e+003  5.6545e+003 86961 239364,239494,239390
 5.8000e+001 239741 -1.0249e+006 -2.9938e+006 -2.7516e+005 86621 239640,239692,239666
 5.8000e+001 239718 -5.4656e+004 -4.0235e+006 -9.7724e+005 86621 239614,239692,239640
 5.8000e+001 239893 -5.5216e+005 -5.2434e+006  1.5163e+006 86217 239792,239844,239818
 5.8000e+001 239870 -6.6603e+005 -3.9883e+006  9.4296e+005 86217 239766,239844,239792
 5.8000e+001 240045 -8.8574e+005 -3.8750e+006  9.6730e+005 85827 239918,239970,239944
 5.8000e+001 240022 -2.3407e+005 -3.6872e+006  3.1795e+005 85827 239918,239996,239970
 5.8000e+001 240197 -6.3787e+005 -7.7825e+006  1.1211e+006 85437 240096,240148,240122
 5.8000e+001 240174 -1.6389e+006 -9.1915e+005 -5.3870e+005 85437 240070,240148,240096
 5.8000e+001 240349  2.8176e+004 -1.3807e+006  2.6970e+005 85147 240222,240274,240248
 5.8000e+001 240326 -8.4339e+004 -9.4318e+005 -1.6865e+005 85147 240222,240300,240274
 5.8000e+001 240501 -2.2563e+005 -1.3348e+006  5.7292e+005 84807 240374,240426,240400
 5.8000e+001 240478 -1.6711e+006 -2.3714e+006  1.4749e+006 84807 240374,240452,240426
 5.8000e+001 240653 -4.3401e+002  3.9978e+002 -6.8097e+001 84303 240552,240604,240578
 5.8000e+001 240630 -2.3897e+002  2.6481e+002  3.6508e+002 84303 240526,240604,240552
 5.8000e+001 240854 -1.9117e+005 -1.1356e+007 -5.3776e+006 83929 240704,240756,240730
 5.8000e+001 240831  1.6341e+006 -9.1508e+006  2.4213e+006 83929 240704,240782,240756
 5.8000e+001 240808 -3.3263e+006  1.8193e+006  2.7592e+006 83929 240678,240782,240704
 5.8000e+001 241055  1.2760e+003 -1.9185e+004 -3.2379e+003 83539 240879,240957,240931
 5.8000e+001 241032  2.1725e+002 -1.9702e+004 -2.7327e+003 83539 240879,240983,240957
 5.8000e+001 241009 -4.0081e+003 -3.1249e+003 -3.9460e+003 83539 240879,240931,240905
 5.8000e+001 241207 -3.3415e+004 -1.1822e+006  1.1205e+005 83079 241106,241158,241132
 5.8000e+001 241184  6.8196e+004 -1.4138e+006  1.2696e+005 83079 241080,241158,241106
 5.8000e+001 241408 -7.5310e+004 -1.9895e+006 -1.1656e+006 82665 241232,241284,241258
 5.8000e+001 241385 -4.7036e+005 -2.0315e+006 -3.7364e+006 82665 241232,241336,241284
 5.8000e+001 241362 -3.8225e+006 -1.0884e+007  6.4497e+006 82665 241284,241336,241310
 5.8000e+001 241658 -2.2814e+005 -4.1104e+006  5.6393e+005 82375 241485,241563,241511
 5.8000e+001 241635  7.4726e+003 -2.2831e+006  2.0762e+005 82375 241433,241563,241485
 5.8000e+001 241612 -9.6940e+004 -2.7245e+006  2.0465e+005 82375 241433,241485,241459
 5.8000e+001 241589 -6.6145e+005 -4.4239e+006  7.9451e+005 82375 241511,241563,241537
 5.8000e+001 241810 -9.9160e+005 -3.2165e+006 -4.1562e+005 82035 241683,241735,241709
 5.8000e+001 241787 -1.4760e+006 -4.2681e+006  9.2148e+005 82035 241683,241761,241735
 5.8000e+001 241962 -8.2592e+005 -2.7268e+006  5.5247e+005 81695 241861,241913,241887
 5.8000e+001 241939 -2.1964e+005 -3.3834e+006 -7.5183e+005 81695 241835,241913,241861
 5.8000e+001 242114 -1.3421e+006 -6.5523e+006  2.4120e+006 81355 242013,242065,242039
 5.8000e+001 242091 -2.7861e+005 -3.2483e+006  9.5708e+005 81355 241987,242065,242013
 5.8000e+001 242266 -3.6985e+004 -5.8178e+005 -8.8890e+004 80951 242139,242191,242165
 5.8000e+001 242243 -3.1610e+005 -1.6424e+006 -3.1577e+005 80951 242139,242217,242191
 5.8000e+001 242467 -4.4099e+005 -5.0638e+006  5.6252e+005 80311 242291,242369,242343
 5.8000e+001 242444  1.4767e+005 -2.5557e+006  4.3224e+005 80311 242291,242395,242369
 5.8000e+001 242421 -2.0890e+005 -1.3598e+006  1.8062e+005 80311 242291,242343,242317
 5.8000e+001 242619 -1.4097e+006 -2.8496e+006  3.9670e+005 80021 242492,242544,242518
 5.8000e+001 242596 -1.3171e+006 -2.5583e+006  1.4550e+006 80021 242492,242570,242544
 5.8000e+001 242869 -4.8408e+005 -1.0125e+005 -1.5485e+005 79631 242644,242722,242696
 5.8000e+001 242846 -9.7049e+004 -1.8172e+006  2.0865e+005 79631 242644,242774,242722
 5.8000e+001 242823  2.1573e+005 -7.1919e+005  1.7306e+004 79631 242722,242774,242748
 5.8000e+001 242800 -5.0255e+005 -3.1251e+005 -1.6318e+004 79631 242644,242696,242670
 5.8000e+001 243070 -3.7930e+005 -1.5711e+007  3.6763e+006 79341 242920,242972,242946
 5.8000e+001 243047 -7.8228e+005 -7.9876e+006 -3.0089e+005 79341 242920,242998,242972
 5.8000e+001 243024 -9.6122e+005 -5.1339e+006  2.2234e+006 79341 242894,242998,242920
 5.8000e+001 243222 -5.3624e+005 -4.0341e+006  1.7662e+006 78801 243121,243173,243147
 5.8000e+001 243199 -4.6674e+005 -3.9741e+006  1.4796e+006 78801 243095,243173,243121
 5.8000e+001 243423 -9.8729e+005 -5.0764e+006 -4.5795e+005 78511 243273,243325,243299
 5.8000e+001 243400  7.2073e+005 -1.0001e+007  2.0905e+006 78511 243273,243351,243325
 5.8000e+001 243377 -6.0231e+003 -1.0291e+007  2.4359e+005 78511 243247,243351,243273
 5.8000e+001 243624 -4.6153e+005 -4.4567e+006 -1.5529e+006 78107 243474,243552,243526
 5.8000e+001 243601 -5.5152e+005 -5.1542e+006 -1.5042e+006 78107 243448,243552,243474
 5.8000e+001 243578 -2.0676e+005 -4.4819e+006 -1.5983e+006 78107 243474,243526,243500
 5.8000e+001 243776 -7.6145e+005 -5.1343e+006 -1.1246e+006 77653 243649,243701,243675
 5.8000e+001 243753 -1.7302e+006 -7.7752e+006 -4.0125e+005 77653 243649,243727,243701
 5.8000e+001 243977 -4.0650e+005 -5.9724e+006  2.3185e+004 77093 243801,243853,243827
 5.8000e+001 243954 -6.3807e+004 -4.9426e+006  7.0913e+005 77093 243801,243879,243853
 5.8000e+001 243931 -3.3030e+005 -1.9837e+006 -1.8896e+005 77093 243801,243905,243879
 5.8000e+001 244080 -6.0602e+005 -7.6872e+006  5.8074e+005 76791 244002,244054,244028
 5.8000e+001 244232 -3.6647e+005 -4.7798e+006  7.1344e+004 76311 244131,244183,244157
 5.8000e+001 244209 -2.2895e+005 -1.0007e+007  7.0091e+005 76311 244105,244183,244131
 5.8000e+001 244433 -1.1911e+006 -1.7919e+007  4.7200e+006 75903 244283,244335,244309
 5.8000e+001 244410 -1.4937e+006 -1.1085e+007 -3.9423e+005 75903 244283,244361,244335
 5.8000e+001 244387 -2.2381e+006 -1.0022e+007  3.6326e+005 75903 244257,244361,244283
 5.8000e+001 244585  2.9855e+004 -1.7709e+007  1.4184e+006 75419 244458,244510,244484
 5.8000e+001 244562 -8.8349e+005 -1.0149e+007 -3.4698e+005 75419 244458,244536,244510
 5.8000e+001 244737 -4.1655e+005 -6.7553e+005 -1.8487e+005 75215 244636,244688,244662
 5.8000e+001 244714 -2.3235e+005 -4.4767e+006 -1.7208e+005 75215 244610,244688,244636
 5.8000e+001 244889 -8.6909e+005 -5.4461e+006 -3.8409e+005 74857 244788,244840,244814
 5.8000e+001 244866 -5.4707e+004 -2.2339e+006 -2.3517e+005 74857 244762,244840,244788
 5.8000e+001 245041  1.0559e+004 -1.1203e+006 -6.8567e+005 74653 244940,244992,244966
 5.8000e+001 245018 -1.6017e+005 -2.5431e+005  4.6291e+005 74653 244914,244992,244940
 5.8000e+001 245144 -1.2602e+006 -6.2556e+006 -1.4102e+006 74359 245066,245118,245092
 5.8000e+001 245296 -7.4134e+004 -1.1536e+006 -3.5892e+005 74007 245169,245221,245195
 5.8000e+001 245273 -4.1450e+005 -1.9864e+006 -6.1561e+005 74007 245169,245247,245221
 5.8000e+001 245448 -1.0125e+006 -7.1728e+006  1.2293e+006 73711 245321,245373,245347
 5.8000e+001 245425 -2.8390e+005 -6.9452e+006 -1.9905e+006 73711 245321,245399,245373
 5.8000e+001 245600  5.4996e+005 -1.3319e+007 -9.5535e+005 73301 245499,245551,245525
 5.8000e+001 245577 -1.5511e+006 -9.5974e+006  1.9518e+006 73301 245473,245551,245499
 5.8000e+001 245752 -1.9620e+006 -2.9036e+006 -1.7917e+006 72995 245625,245677,245651
 5.8000e+001 245729  4.6147e+005 -1.1249e+007 -1.3540e+006 72995 245625,245703,245677
 5.8000e+001 245953 -2.1120e+006 -1.0028e+007  9.3350e+005 72585 245777,245829,245803
 5.8000e+001 245930 -9.5812e+005 -1.5592e+007  3.7005e+006 72585 245777,245855,245829
 5.8000e+001 245907 -3.9893e+005 -6.9995e+006  7.2620e+005 72585 245777,245881,245855
 5.8000e+001 246154 -3.6218e+005 -6.9934e+006  1.1913e+006 72127 246030,246082,246056
 5.8000e+001 246131 -1.0117e+006 -8.5751e+006  5.4350e+005 72127 245978,246082,246030
 5.8000e+001 246108 -4.6754e+004 -8.9551e+006  6.8683e+004 72127 245978,246030,246004
 5.8000e+001 246257 -1.5501e+006 -3.3825e+005 -1.7642e+005 71737 246179,246231,246205
 5.8000e+001 246360  1.5156e+005 -3.1919e+006  5.0759e+005 71447 246282,246334,246308
 5.8000e+001 246512 -1.3416e+005 -2.9602e+006  1.1090e+006 71157 246385,246437,246411
 5.8000e+001 246489 -8.4834e+004 -2.3008e+006 -1.2304e+005 71157 246385,246463,246437
 5.8000e+001 246664 -1.6222e+005 -2.5188e+006 -3.7104e+005 70753 246537,246589,246563
 5.8000e+001 246641 -6.2802e+005 -1.3931e+006 -1.6502e+005 70753 246537,246615,246589
 5.8000e+001 246865 -2.1061e+006 -1.0153e+007  6.8756e+006 70249 246715,246767,246741
 5.8000e+001 246842 -1.9941e+006 -9.1746e+006 -7.1658e+005 70249 246715,246793,246767
 5.8000e+001 246819 -2.0852e+005 -1.2042e+007 -2.3293e+006 70249 246689,246793,246715
 5.8000e+001 247066 -3.0855e+004 -2.1921e+006  3.1918e+005 70023 246916,246994,246942
 5.8000e+001 247043 -3.0613e+004 -2.1807e+006  3.2462e+005 70023 246890,246994,246916
 5.8000e+001 247020  1.2096e+004 -2.0583e+006  3.6086e+005 70023 246942,246994,246968
 5.8000e+001 247267 -3.0561e+005 -4.2801e+006 -2.7747e+005 69633 247091,247143,247117
 5.8000e+001 247244 -4.4017e+004 -2.7258e+006 -1.4645e+005 69633 247091,247169,247143
 5.8000e+001 247221  3.8299e+004 -3.1455e+006 -3.2519e+005 69633 247091,247195,247169
 5.8000e+001 247419 -9.8682e+005 -5.9296e+006  5.1596e+005 69457 247318,247370,247344
 5.8000e+001 247396 -1.2642e+006 -2.8661e+006  7.6516e+005 69457 247292,247370,247318
 5.8000e+001 247522 -1.6132e+000 -9.3325e+001  1.5231e-001 69209 247444,247496,247470
 5.8000e+001 247625 -1.8085e+006 -2.3906e+006 -1.5097e+006 68919 247547,247599,247573
 5.8000e+001 247777  1.4215e+005 -7.2715e+006 -2.2931e+005 68579 247650,247702,247676
 5.8000e+001 247754 -2.0480e+005 -2.0412e+006 -1.1320e+005 68579 247650,247728,247702
 5.8000e+001 247929  1.1824e+004 -3.2323e+006  1.1024e+006 68289 247802,247854,247828
 5.8000e+001 247906 -2.4808e+005 -1.5142e+006 -4.3745e+005 68289 247802,247880,247854
 5.8000e+001 248081 -5.9500e+005 -4.9698e+006  1.6925e+006 67949 247980,248032,248006
 5.8000e+001 248058 -7.5456e+005 -6.2559e+005  3.3440e+005 67949 247954,248032,247980
 5.8000e+001 248233 -1.7931e+006 -6.1984e+006 -6.1031e+005 67616 248132,248184,248158
 5.8000e+001 248210 -5.1947e+005 -6.3797e+006 -1.9947e+005 67616 248106,248184,248132
 5.8000e+001 248434 -1.4224e+005 -4.5990e+006 -2.3132e+005 67212 248284,248336,248310
 5.8000e+001 248411 -1.5219e+005 -4.6250e+006 -3.1312e+005 67212 248258,248336,248284
 5.8000e+001 248388 -1.7829e+006 -2.3503e+006 -6.4436e+005 67212 248258,248362,248336
 5.8000e+001 248586  4.6230e+004 -5.7584e+006  1.0436e+006 66872 248485,248537,248511
 5.8000e+001 248563 -5.1976e+005 -7.5649e+005  2.3250e+005 66872 248459,248537,248485
 5.8000e+001 248738 -3.1652e+005 -5.5809e+006  1.3777e+005 66510 248637,248689,248663
 5.8000e+001 248715 -4.3916e+005 -8.6035e+006  1.9908e+005 66510 248611,248689,248637
 5.8000e+001 248890 -2.0918e+004 -5.3247e+005  1.0470e+005 66220 248789,248841,248815
 5.8000e+001 248867 -5.0032e+004 -6.8396e+005 -1.8812e+005 66220 248763,248841,248789
 5.8000e+001 249091 -9.6128e+005 -8.6225e+006  2.8587e+006 65759 248915,248967,248941
 5.8000e+001 249068 -8.3670e+005 -7.9728e+006  2.9480e+006 65759 248915,248993,248967
 5.8000e+001 249045 -6.9797e+005 -5.0177e+006  4.9162e+005 65759 248915,249019,248993
 5.8000e+001 249243 -1.8369e+004 -8.8334e+006  1.6768e+006 65419 249142,249194,249168
 5.8000e+001 249220  2.6853e+005 -3.0437e+006  4.2624e+005 65419 249116,249194,249142
 5.8000e+001 249395 -2.5465e+005 -1.9815e+006 -1.1704e+005 65079 249268,249320,249294
 5.8000e+001 249372 -2.7662e+005 -3.9358e+006 -6.7013e+005 65079 249268,249346,249320
 5.8000e+001 249547 -8.0087e+005 -2.4428e+006  1.0466e+006 64739 249420,249472,249446
 5.8000e+001 249524  2.2899e+005 -1.6851e+006 -2.0386e+005 64739 249420,249498,249472
 5.8000e+001 249650 -1.7285e+006 -4.1458e+006 -2.3177e+006 64342 249572,249624,249598
 5.8000e+001 249851 -1.2351e+005 -2.6350e+006 -1.5918e+005 63938 249701,249779,249753
 5.8000e+001 249828 -5.2269e+004 -2.7054e+006  3.6525e+005 63938 249675,249779,249701
 5.8000e+001 249805 -2.2587e+005 -2.0658e+006 -1.3275e+005 63938 249701,249753,249727
 5.8000e+001 250052 -5.4108e+005 -5.4767e+006 -6.3945e+005 63341 249876,249954,249902
 5.8000e+001 250029 -6.7868e+005 -6.9586e+006 -7.0354e+005 63341 249876,249980,249954
 5.8000e+001 250006  4.9183e+005 -6.1795e+006 -4.8593e+004 63341 249902,249954,249928
 5.8000e+001 250253 -4.2349e+005 -1.0108e+006 -1.3994e+005 63058 250077,250129,250103
 5.8000e+001 250230 -1.3257e+006 -1.3661e+006  6.5225e+005 63058 250077,250155,250129
 5.8000e+001 250207 -2.1678e+005 -8.6959e+005  1.8394e+005 63058 250077,250181,250155
 5.8000e+001 250454 -8.2229e+005 -7.6086e+006  1.2014e+006 62832 250304,250382,250330
 5.8000e+001 250431  1.9120e+005 -9.4750e+006 -2.4965e+006 62832 250278,250382,250304
 5.8000e+001 250408 -2.0066e+006 -4.8887e+006  3.0788e+005 62832 250330,250382,250356
 5.8000e+001 250606  3.8141e+004 -1.5941e+007 -9.1456e+005 62428 250479,250531,250505
 5.8000e+001 250583 -5.9563e+005 -1.4028e+007 -1.1109e+006 62428 250479,250557,250531
 5.8000e+001 250758 -3.6997e+004 -8.0524e+006  6.6500e+005 62202 250631,250683,250657
 5.8000e+001 250735 -3.3919e+005 -8.2953e+006  9.4293e+005 62202 250631,250709,250683
 5.8000e+001 250861 -4.1849e+005 -3.5577e+006 -2.6731e+005 61954 250783,250835,250809
 5.8000e+001 251062 -2.3023e+006 -1.2825e+007 -6.0546e+005 61557 250912,250990,250938
 5.8000e+001 251039 -1.0456e+005 -1.4651e+007 -5.8327e+005 61557 250886,250990,250912
 5.8000e+001 251016 -1.6724e+006 -1.6888e+007 -2.8198e+006 61557 250938,250990,250964
 5.8000e+001 251263 -6.0161e+005 -7.8638e+006 -8.2268e+004 61167 251113,251165,251139
 5.8000e+001 251240 -3.6586e+005 -7.3096e+006 -2.8002e+005 61167 251113,251191,251165
 5.8000e+001 251217 -1.3155e+006 -7.1515e+006  1.9236e+006 61167 251087,251191,251113
 5.8000e+001 251415 -7.7859e+005 -9.5744e+006  2.8634e+006 60827 251288,251340,251314
 5.8000e+001 251392 -7.4889e+005 -3.1791e+006 -7.8674e+005 60827 251288,251366,251340
 5.8000e+001 251567  1.4379e+005 -4.2183e+006 -6.8143e+004 60487 251466,251518,251492
 5.8000e+001 251544 -9.2415e+004 -4.7009e+006 -3.0918e+005 60487 251440,251518,251466
 5.8000e+001 251719 -2.6867e+005 -1.0366e+007 -6.8492e+005 59983 251592,251644,251618
 5.8000e+001 251696 -1.1720e+006 -9.2559e+006 -3.6428e+005 59983 251592,251670,251644
 5.8000e+001 251920  1.0091e+004 -1.7651e+006 -5.0896e+004 59807 251770,251848,251796
 5.8000e+001 251897  2.6467e+004 -1.6832e+006 -4.8615e+004 59807 251744,251848,251770
 5.8000e+001 251874 -4.9591e+004 -2.0239e+006 -4.9876e+004 59807 251796,251848,251822
 5.8000e+001 252023  4.0347e+005 -5.1319e+006 -2.8279e+004 59517 251945,251997,251971
 5.8000e+001 252175  1.9304e+006 -1.6735e+007 -3.6240e+005 59269 252074,252126,252100
 5.8000e+001 252152 -2.5727e+005 -1.0177e+007  2.1729e+005 59269 252048,252126,252074
 5.8000e+001 252278 -6.3202e+005 -1.2336e+007  2.2903e+006 58979 252200,252252,252226
 5.8000e+001 252381 -2.2025e+006 -2.0603e+006  1.4561e+006 58689 252303,252355,252329
 5.8000e+001 252533 -3.9354e+005 -4.0162e+006 -1.0860e+006 58249 252432,252484,252458
 5.8000e+001 252510 -1.1377e+006 -7.1487e+006 -1.0745e+006 58249 252406,252484,252432
 5.8000e+001 252734 -4.1504e+005 -3.5214e+006  2.3883e+005 57902 252584,252662,252610
 5.8000e+001 252711  3.3977e+005 -5.6134e+006 -7.4551e+005 57902 252558,252662,252584
 5.8000e+001 252688 -4.1591e+005 -2.5097e+006 -4.1331e+005 57902 252610,252662,252636
 5.8000e+001 252886  1.7817e+005 -5.4325e+006 -1.7741e+005 57540 252785,252837,252811
 5.8000e+001 252863  1.0215e+005 -4.3472e+006  1.2308e+005 57540 252759,252837,252785
 5.8000e+001 253038 -8.2878e+005 -6.4999e+006  1.5667e+006 57086 252937,252989,252963
 5.8000e+001 253015 -1.7908e+005 -1.7400e+006  4.4684e+005 57086 252911,252989,252937
 5.8000e+001 253239 -2.0209e+006 -9.3044e+006 -1.6644e+006 56796 253063,253141,253115
 5.8000e+001 253216  3.9542e+005 -1.0882e+007  9.5071e+005 56796 253063,253167,253141
 5.8000e+001 253193 -3.2017e+006 -5.5714e+006 -1.2782e+006 56796 253063,253115,253089
 5.8000e+001 253342 -7.7318e+005 -2.1275e+007 -3.4993e+004 56349 253264,253316,253290
 5.8000e+001 253543 -1.8037e+005 -3.2975e+006 -1.1973e+006 56009 253367,253419,253393
 5.8000e+001 253520 -3.3919e+005 -1.6862e+006 -6.8455e+005 56009 253367,253445,253419
 5.8000e+001 253497 -4.8495e+005 -1.4458e+006 -7.8293e+005 56009 253367,253471,253445
 5.8000e+001 253695 -3.5250e+005 -1.2479e+006  6.5980e+005 55733 253594,253646,253620
 5.8000e+001 253672 -7.5652e+005 -4.6243e+005  5.6818e+005 55733 253568,253646,253594
 5.8000e+001 253798 -4.5796e+005 -2.0791e+006 -1.2010e+005 55557 253720,253772,253746
 5.8000e+001 253950 -5.4348e+005 -4.1004e+006  2.4917e+005 55153 253849,253901,253875
 5.8000e+001 253927  8.4082e+004 -4.6989e+006 -4.7254e+005 55153 253823,253901,253849
 5.8000e+001 254151 -1.0051e+006 -4.5708e+006  6.0267e+005 54863 253975,254053,254001
 5.8000e+001 254128 -4.4155e+005 -4.5860e+006 -7.8125e+004 54863 253975,254079,254053
 5.8000e+001 254105 -4.9737e+005 -4.1946e+006  3.4561e+005 54863 254001,254053,254027
 5.8000e+001 254303 -1.8343e+005 -7.0584e+005  3.8453e+005 54373 254176,254228,254202
 5.8000e+001 254280 -2.8248e+005 -8.0499e+005  4.4498e+005 54373 254176,254254,254228
 5.8000e+001 254455  8.6719e+004 -4.9266e+006 -4.2190e+005 53975 254354,254406,254380
 5.8000e+001 254432 -2.7469e+005 -1.1072e+006  1.7056e+005 53975 254328,254406,254354
 5.8000e+001 254607 -3.8090e+005 -5.2188e+006 -3.2109e+005 53585 254480,254532,254506
 5.8000e+001 254584 -1.7050e+005 -5.1592e+006 -4.2089e+005 53585 254480,254558,254532
 5.8000e+001 254808 -1.0104e+006 -3.4868e+006 -3.5529e+004 53245 254658,254736,254684
 5.8000e+001 254785 -1.0138e+006 -1.8051e+006 -2.5626e+005 53245 254632,254736,254658
 5.8000e+001 254762 -5.4453e+005 -2.7994e+006 -5.8998e+005 53245 254684,254736,254710
 5.8000e+001 254911 -2.4944e+005 -1.7689e+006 -5.5431e+005 52955 254833,254885,254859
 5.8000e+001 255063 -5.6264e+005 -7.0843e+006 -1.5644e+005 52551 254962,255014,254988
 5.8000e+001 255040 -6.2371e+005 -7.5174e+006 -3.5417e+005 52551 254936,255014,254962
 5.8000e+001 255264 -7.9715e+005 -4.0710e+005  6.7740e+004 52261 255114,255166,255140
 5.8000e+001 255241 -1.1696e+006 -1.2001e+006  4.1300e+005 52261 255114,255192,255166
 5.8000e+001 255218 -1.8670e+006 -7.6927e+005  8.3452e+005 52261 255088,255192,255114
 5.8000e+001 255416 -7.6849e+005 -5.9229e+006  2.1189e+006 51971 255289,255341,255315
 5.8000e+001 255393 -5.3578e+005 -5.2436e+006 -8.1180e+005 51971 255289,255367,255341
 5.8000e+001 255568 -8.5081e+005 -5.7450e+005 -5.5545e+005 51681 255441,255493,255467
 5.8000e+001 255545 -3.7505e+005 -2.1204e+006 -3.6860e+005 51681 255441,255519,255493
 5.8000e+001 255769 -1.5882e+005 -3.3438e+006 -1.9308e+005 51291 255619,255697,255671
 5.8000e+001 255746 -1.3404e+005 -3.1059e+006 -3.4637e+005 51291 255593,255697,255619
 5.8000e+001 255723 -1.5557e+005 -4.1828e+006 -3.9727e+005 51291 255619,255671,255645
 5.8000e+001 255921 -3.8015e+005 -2.9948e+006  5.9082e+005 50951 255820,255872,255846
 5.8000e+001 255898 -1.5273e+005 -2.2170e+006  2.1154e+005 50951 255794,255872,255820
 5.8000e+001 256171 -1.2261e+006 -4.4830e+006 -4.6292e+004 50547 256024,256076,256050
 5.8000e+001 256148 -8.7291e+005 -4.1465e+006  3.7960e+005 50547 255972,256076,256024
 5.8000e+001 256125 -3.3155e+005 -5.1439e+006 -3.5510e+005 50547 255946,256076,255972
 5.8000e+001 256102 -8.5337e+005 -3.4239e+006  1.4198e+005 50547 255972,256024,255998
 5.8000e+001 256323  3.9696e+005 -4.8759e+006  4.7474e+005 50093 256196,256248,256222
 5.8000e+001 256300 -9.6960e+005 -2.9835e+006 -1.0340e+006 50093 256196,256274,256248
 5.8000e+001 256426 -1.6295e+002 -6.1339e+001 -2.6399e+002 49845 256348,256400,256374
 5.8000e+001 256627 -2.6826e+005 -4.3585e+006  9.5334e+004 49555 256477,256555,256503
 5.8000e+001 256604 -3.9357e+005 -3.7979e+006  6.4470e+004 49555 256451,256555,256477
 5.8000e+001 256581 -4.0763e+005 -3.9248e+006  1.7237e+005 49555 256503,256555,256529
 5.8000e+001 256828 -5.5079e+005 -2.3919e+006 -1.7247e+005 49056 256652,256730,256678
 5.8000e+001 256805 -3.6794e+005 -3.0407e+006 -2.9799e+005 49056 256652,256756,256730
 5.8000e+001 256782 -5.1215e+005 -2.2004e+006 -3.0280e+005 49056 256678,256730,256704
 5.8000e+001 256931 -6.5601e+004 -1.8719e+005  4.6969e+004 48766 256853,256905,256879
 5.8000e+001 257083 -1.1110e+006 -3.6755e+006 -6.7002e+005 48568 256982,257034,257008
 5.8000e+001 257060 -8.5247e+005 -2.7142e+006 -1.0084e+005 48568 256956,257034,256982
 5.8000e+001 257186  7.7975e+003 -2.8736e+006 -4.6694e+003 48228 257108,257160,257134
 5.8000e+001 257338 -6.2991e+005 -5.6557e+005  3.8726e+005 47888 257237,257289,257263
 5.8000e+001 257315 -4.7071e+005 -1.6725e+006  1.0578e+006 47888 257211,257289,257237
 5.8000e+001 257539 -3.5525e+005 -3.7396e+006  1.1853e+005 47548 257363,257441,257415
 5.8000e+001 257516 -9.4020e+005 -3.4775e+006 -4.5690e+005 47548 257363,257467,257441
 5.8000e+001 257493 -8.0627e+005 -2.4301e+006 -1.7181e+005 47548 257363,257415,257389
 5.8000e+001 257740 -3.6687e+005 -3.7944e+006  3.2933e+005 46994 257564,257642,257616
 5.8000e+001 257717 -3.9118e+005 -3.2661e+006  1.1224e+005 46994 257564,257668,257642
 5.8000e+001 257694 -6.7817e+005 -3.9766e+006  8.1988e+004 46994 257564,257616,257590
 5.8000e+001 257843 -4.2022e+005 -1.2700e+006 -6.1326e+005 46654 257765,257817,257791
 5.8000e+001 257995 -6.3474e+005 -2.7907e+006  3.5994e+005 46364 257894,257946,257920
 5.8000e+001 257972 -6.1198e+005 -3.0327e+006  2.2548e+005 46364 257868,257946,257894
 5.8000e+001 258147 -9.0258e+004 -3.2158e+006  5.7111e+004 46024 258046,258098,258072
 5.8000e+001 258124 -3.1300e+005 -2.4969e+006  2.9736e+005 46024 258020,258098,258046
 5.8000e+001 258250 -6.4277e+005 -1.9223e+006  8.4706e+005 45741 258172,258224,258198
 5.8000e+001 258402 -5.2078e+005 -1.9106e+006  2.5501e+005 45401 258301,258353,258327
 5.8000e+001 258379 -4.1651e+005 -1.6350e+006  3.4494e+005 45401 258275,258353,258301
 5.8000e+001 258603 -7.3385e+005 -1.8798e+006 -3.8058e+004 45071 258427,258505,258479
 5.8000e+001 258580 -1.6811e+005 -4.6224e+006  2.0406e+005 45071 258427,258531,258505
 5.8000e+001 258557 -2.6687e+005 -2.7964e+006  1.8042e+005 45071 258427,258479,258453
 5.8000e+001 258755 -2.6845e+005 -3.5245e+006 -5.5256e+005 44681 258654,258706,258680
 5.8000e+001 258732 -1.4251e+005 -3.7017e+006 -4.9514e+005 44681 258628,258706,258654
 5.8000e+001 258907 -7.2001e+005 -1.3319e+006 -7.0256e+004 44157 258806,258858,258832
 5.8000e+001 258884 -2.9398e+005 -1.4565e+006  4.4750e+003 44157 258780,258858,258806
 5.8000e+001 259010 -6.5280e+005 -1.0223e+006 -9.6475e+004 43705 258932,258984,258958
 5.8000e+001 259113 -5.5593e+005 -2.2335e+006  8.2666e+004 43284 259035,259087,259061
 5.8000e+001 259216 -7.1529e+005 -2.1819e+006 -7.1772e+004 42954 259138,259190,259164
 5.8000e+001 259319 -7.1167e+005 -1.2918e+006 -5.0399e+004 42116 259241,259293,259267
 5.8000e+001 259422 -3.2290e+005 -2.6155e+006 -9.9245e+003 41804 259344,259396,259370
 5.8000e+001 259525 -5.7706e+005 -4.6433e+006  6.8835e+005 41219 259447,259499,259473
 5.8000e+001 259628 -9.8434e+005 -2.1345e+006 -4.1976e+005 385 259550,259602,259576
 6.0000e+000 190120 -1.0748e+006 -3.1465e+006  1.1393e+005 189630 189993,190045,190019
 6.0000e+000 190097 -6.1859e+005 -3.2029e+006  1.7772e+005 189630 189993,190071,190045
 6.0000e+000 190319 -6.2062e+005 -4.2426e+006  1.2257e+005 189312 190169,190221,190195
 6.0000e+000 190296 -8.8374e+005 -3.7819e+006 -3.3973e+005 189312 190169,190247,190221
 6.0000e+000 190273 -6.9748e+005 -3.6510e+006 -1.7005e+005 189312 190143,190247,190169
 6.0000e+000 190518 -3.5213e+005 -3.9708e+006 -2.3173e+005 189124 190368,190446,190420
 6.0000e+000 190495 -5.8402e+005 -4.2757e+006 -4.6258e+005 189124 190342,190446,190368
 6.0000e+000 190472 -3.1310e+005 -3.7841e+006 -8.2646e+005 189124 190368,190420,190394
 6.0000e+000 190619 -4.7416e+005 -7.8055e+005 -4.9643e+004 188926 190541,190593,190567
 6.0000e+000 190771 -1.3911e+006 -4.2119e+006 -1.4865e+005 188614 190670,190722,190696
 6.0000e+000 190748 -8.7928e+005 -5.5264e+006 -3.3126e+005 188614 190644,190722,190670
 6.0000e+000 190972 -4.6702e+005 -3.5584e+006  4.7189e+005 188324 190848,190900,190874
 6.0000e+000 190949 -4.5376e+005 -4.4652e+006 -4.6251e+004 188324 190796,190900,190848
 6.0000e+000 190926 -5.6259e+005 -4.7005e+006 -1.3104e+005 188324 190796,190848,190822
 6.0000e+000 191124 -1.9608e+005 -2.8178e+006 -2.7938e+004 188034 191023,191075,191049
 6.0000e+000 191101 -6.1656e+005 -2.3982e+006 -2.5158e+005 188034 190997,191075,191023
 6.0000e+000 191276 -2.2727e+005 -2.8505e+006 -1.0576e+005 187836 191149,191201,191175
 6.0000e+000 191253 -4.5212e+005 -2.4527e+006  9.3697e+004 187836 191149,191227,191201
 6.0000e+000 191379 -3.7530e+005 -1.5430e+006 -9.7953e+004 187546 191301,191353,191327
 6.0000e+000 191531 -9.6283e+004 -5.1439e+006 -1.2873e+006 187256 191430,191482,191456
 6.0000e+000 191508 -5.3664e+005 -4.0805e+006  2.5285e+005 187256 191404,191482,191430
 6.0000e+000 191634 -3.7768e+005 -3.6953e+006 -4.0228e+005 187058 191556,191608,191582
 6.0000e+000 191835 -3.7679e+005 -3.2823e+006  1.0587e+005 186860 191659,191711,191685
 6.0000e+000 191812 -3.2510e+005 -2.9615e+006  2.0655e+005 186860 191659,191737,191711
 6.0000e+000 191789 -1.3367e+005 -2.3755e+006  5.3009e+004 186860 191659,191763,191737
 6.0000e+000 191987 -5.7306e+005 -2.5109e+006 -4.8051e+005 186662 191886,191938,191912
 6.0000e+000 191964 -4.2992e+005 -2.8106e+006 -2.7327e+005 186662 191860,191938,191886
 6.0000e+000 192090 -6.5574e+005 -2.0381e+006 -1.1874e+005 186486 192012,192064,192038
 6.0000e+000 192242 -5.6343e+005 -4.8473e+006  5.7121e+004 186288 192115,192167,192141
 6.0000e+000 192219 -4.4004e+005 -4.3654e+006  2.1887e+005 186288 192115,192193,192167
 6.0000e+000 192394 -1.8393e+005 -4.2626e+006 -2.7535e+005 185935 192293,192345,192319
 6.0000e+000 192371 -3.8377e+005 -3.6624e+006 -4.1009e+005 185935 192267,192345,192293
 6.0000e+000 192546 -2.7412e+005 -2.9860e+006 -3.8903e+004 185675 192419,192471,192445
 6.0000e+000 192523 -1.9874e+005 -2.9023e+006  1.0723e+004 185675 192419,192497,192471
 6.0000e+000 192649 -5.4476e+005 -1.9452e+006 -2.1797e+004 185499 192571,192623,192597
 6.0000e+000 192801 -1.0174e+006 -2.3187e+006 -2.9767e+005 185301 192674,192726,192700
 6.0000e+000 192778 -4.8952e+005 -2.2745e+006 -5.4980e+004 185301 192674,192752,192726
 6.0000e+000 193002 -1.6461e+005 -2.3791e+006 -4.8836e+005 185046 192852,192930,192878
 6.0000e+000 192979 -3.8667e+005 -3.2790e+006 -4.6005e+005 185046 192826,192930,192852
 6.0000e+000 192956  2.2725e+005 -3.8280e+006 -5.0010e+004 185046 192878,192930,192904
 6.0000e+000 193203 -1.3506e+006 -3.2149e+006 -2.5613e+005 184798 193079,193131,193105
 6.0000e+000 193180 -4.1802e+005 -4.2456e+006 -7.3695e+005 184798 193027,193131,193079
 6.0000e+000 193157 -5.1796e+005 -4.3415e+006  1.9338e+005 184798 193027,193079,193053
 6.0000e+000 193404 -3.5624e+005 -3.2534e+006 -3.0714e+005 184600 193254,193306,193280
 6.0000e+000 193381 -5.2633e+005 -3.2864e+006 -9.6332e+004 184600 193254,193332,193306
 6.0000e+000 193358 -7.6645e+005 -3.2210e+006 -4.3587e+004 184600 193228,193332,193254
 6.0000e+000 193556 -8.7616e+004 -3.8128e+006 -8.5021e+004 184402 193429,193481,193455
 6.0000e+000 193533 -6.2516e+004 -4.4676e+006  4.0108e+005 184402 193429,193507,193481
 6.0000e+000 193708 -7.4978e+005 -3.3660e+006 -4.5338e+004 184204 193607,193659,193633
 6.0000e+000 193685 -8.1386e+005 -4.4724e+006 -3.3760e+005 184204 193581,193659,193607
 6.0000e+000 193860 -5.2023e+005 -2.7982e+006  4.5390e+005 183908 193759,193811,193785
 6.0000e+000 193837 -3.3419e+005 -3.2779e+006  4.3192e+005 183908 193733,193811,193759
 6.0000e+000 194061 -1.1389e+005 -1.7543e+006 -3.7010e+005 183710 193911,193989,193937
 6.0000e+000 194038 -5.8859e+005 -2.5151e+006  1.0827e+005 183710 193885,193989,193911
 6.0000e+000 194015 -6.1774e+004 -3.2074e+006 -1.1383e+005 183710 193937,193989,193963
 6.0000e+000 194262 -1.1407e+006 -2.9960e+006 -7.1206e+005 183420 194086,194164,194112
 6.0000e+000 194239 -1.1860e+006 -2.8164e+006 -4.7274e+004 183420 194086,194190,194164
 6.0000e+000 194216 -2.7161e+005 -5.8274e+006  5.8544e+005 183420 194112,194164,194138
 6.0000e+000 194414 -3.1089e+005 -4.2433e+006  5.3598e+005 183222 194287,194339,194313
 6.0000e+000 194391 -5.8529e+005 -2.8881e+006  1.2796e+005 183222 194287,194365,194339
 6.0000e+000 194517 -5.8295e+005 -3.5126e+006  9.0146e+004 183024 194439,194491,194465
 6.0000e+000 194718 -3.4713e+005 -6.9963e+006  3.0560e+005 182734 194568,194620,194594
 6.0000e+000 194695 -8.6514e+005 -3.8782e+006 -1.0951e+006 182734 194542,194620,194568
 6.0000e+000 194672 -1.6716e+006 -2.5989e+006 -4.8645e+005 182734 194542,194646,194620
 6.0000e+000 194870 -5.7558e+005 -3.0982e+006 -3.2367e+004 182444 194769,194821,194795
 6.0000e+000 194847 -4.9877e+005 -2.5658e+006 -2.4877e+005 182444 194743,194821,194769
 6.0000e+000 195071 -1.4568e+006 -4.4852e+006  2.3509e+005 182154 194895,194947,194921
 6.0000e+000 195048 -1.0581e+006 -3.0646e+006  4.2979e+005 182154 194895,194999,194947
 6.0000e+000 195025 -6.8591e+005 -4.5362e+006  5.2311e+005 182154 194947,194999,194973
 6.0000e+000 195223 -9.9454e+005 -3.7197e+006  5.8375e+005 181814 195096,195148,195122
 6.0000e+000 195200 -7.8914e+005 -2.7467e+006  8.9547e+005 181814 195096,195174,195148
 6.0000e+000 195375 -4.5571e+004 -3.3476e+006  4.1454e+004 181524 195248,195300,195274
 6.0000e+000 195352  9.1767e+004 -3.5045e+006  2.3495e+004 181524 195248,195326,195300
 6.0000e+000 195527 -1.7554e+005 -7.1220e+005 -2.1618e+005 181326 195426,195478,195452
 6.0000e+000 195504 -5.3533e+005 -1.2649e+006  4.2544e+004 181326 195400,195478,195426
 6.0000e+000 195679  2.4487e+005 -5.0284e+006  3.4911e+005 180936 195578,195630,195604
 6.0000e+000 195656 -2.3321e+005 -3.5443e+006  2.2712e+005 180936 195552,195630,195578
 6.0000e+000 195831 -6.9056e+005 -6.8857e+005 -3.8803e+005 180646 195704,195756,195730
 6.0000e+000 195808 -5.8082e+005 -2.3558e+005 -1.0168e+005 180646 195704,195782,195756
 6.0000e+000 196032 -5.7813e+005 -2.2601e+006  9.6161e+005 180306 195882,195960,195934
 6.0000e+000 196009 -1.0607e+006 -3.1037e+006  3.6543e+005 180306 195856,195960,195882
 6.0000e+000 195986  1.3722e+005 -3.3011e+006 -2.0777e+005 180306 195882,195934,195908
 6.0000e+000 196233 -4.3682e+005 -9.9148e+005 -5.5957e+004 179944 196057,196109,196083
 6.0000e+000 196210 -1.4448e+006 -5.5202e+006  1.1412e+006 179944 196057,196135,196109
 6.0000e+000 196187 -2.3644e+006  2.3248e+006 -7.8643e+005 179944 196057,196161,196135
 6.0000e+000 196385  1.0665e+004 -2.7379e+005 -5.8531e+004 179604 196258,196310,196284
 6.0000e+000 196362 -4.6884e+003 -3.6032e+005 -4.1855e+004 179604 196258,196336,196310
 6.0000e+000 196586  1.4026e+005 -2.3097e+006 -4.6678e+005 179114 196410,196488,196436
 6.0000e+000 196563 -4.0118e+005 -1.5031e+006 -2.3990e+005 179114 196410,196514,196488
 6.0000e+000 196540 -2.5493e+004 -2.4054e+006 -2.5674e+005 179114 196436,196488,196462
 6.0000e+000 196738 -7.3077e+005 -2.4790e+006 -3.3577e+005 178674 196611,196663,196637
 6.0000e+000 196715 -1.4907e+005 -3.3486e+006 -1.8244e+005 178674 196611,196689,196663
 6.0000e+000 196939  7.3359e+004 -4.8708e+006 -4.7364e+005 178334 196789,196867,196841
 6.0000e+000 196916 -3.1541e+004 -5.0168e+006 -7.2387e+005 178334 196763,196867,196789
 6.0000e+000 196893 -6.1323e+005 -4.4646e+006 -1.1762e+006 178334 196789,196841,196815
 6.0000e+000 197091 -3.1847e+005 -2.5714e+006 -2.4465e+002 177930 196990,197042,197016
 6.0000e+000 197068 -4.8144e+005 -3.2512e+006 -2.7339e+004 177930 196964,197042,196990
 6.0000e+000 197194 -2.7188e+002 -1.0327e+006 -4.1795e+002 177732 197116,197168,197142
 6.0000e+000 197346 -5.4158e+005 -5.7174e+006  1.5155e+005 177534 197219,197271,197245
 6.0000e+000 197323 -2.8201e+005 -6.6616e+006  6.5914e+005 177534 197219,197297,197271
 6.0000e+000 197547 -8.4273e+005 -3.4456e+006 -1.7178e+006 177130 197397,197449,197423
 6.0000e+000 197524 -6.0731e+005 -3.6868e+006 -2.3751e+005 177130 197397,197475,197449
 6.0000e+000 197501 -7.8019e+005 -6.3782e+006 -6.3627e+005 177130 197371,197475,197397
 6.0000e+000 197748 -6.7365e+005 -5.5158e+006  5.0933e+005 176790 197598,197676,197624
 6.0000e+000 197725 -3.1351e+005 -4.7783e+006  7.8113e+005 176790 197572,197676,197598
 6.0000e+000 197702 -6.6991e+005 -4.4676e+006  6.7532e+005 176790 197624,197676,197650
 6.0000e+000 197900 -2.8091e+005 -3.2987e+006 -8.4463e+005 176300 197773,197825,197799
 6.0000e+000 197877 -2.8828e+005 -3.5864e+006 -7.9420e+005 176300 197773,197851,197825
 6.0000e+000 198052 -2.4820e+005 -4.8073e+006 -9.9355e+005 176010 197925,197977,197951
 6.0000e+000 198029 -7.3802e+005 -4.1129e+006 -5.5517e+005 176010 197925,198003,197977
 6.0000e+000 198204 -1.9399e+006 -4.8760e+006  1.1885e+006 175670 198103,198155,198129
 6.0000e+000 198181 -1.5031e+006 -4.9020e+006  2.4324e+005 175670 198077,198155,198103
 6.0000e+000 198405 -6.5971e+005 -4.9210e+006  2.4015e+004 175266 198255,198307,198281
 6.0000e+000 198382 -4.7329e+005 -4.7776e+006  1.3588e+005 175266 198229,198307,198255
 6.0000e+000 198359 -4.8247e+005 -4.7879e+006  1.4364e+005 175266 198229,198333,198307
 6.0000e+000 198606 -5.1489e+005 -3.0184e+006 -3.7425e+005 174876 198430,198508,198482
 6.0000e+000 198583 -8.4827e+005 -3.2258e+006  7.0590e+005 174876 198430,198534,198508
 6.0000e+000 198560 -7.1654e+005 -3.6026e+006 -1.1079e+005 174876 198430,198482,198456
 6.0000e+000 198758 -1.8054e+005 -1.5211e+006  5.4658e+004 174536 198657,198709,198683
 6.0000e+000 198735  7.8717e+004 -4.7110e+005  4.0246e+003 174536 198631,198709,198657
 6.0000e+000 199008 -2.8323e+005 -6.8539e+006 -9.1369e+004 174132 198835,198913,198887
 6.0000e+000 198985 -2.8214e+005 -4.7940e+006 -3.5684e+003 174132 198809,198913,198835
 6.0000e+000 198962 -7.9184e+004 -4.8334e+006 -6.7880e+005 174132 198783,198913,198809
 6.0000e+000 198939 -7.4371e+005 -5.5432e+006  2.3103e+005 174132 198835,198887,198861
 6.0000e+000 199160 -3.0531e+005 -5.0030e+006  5.7718e+005 173842 199059,199111,199085
 6.0000e+000 199137 -4.9628e+005 -3.4388e+006  1.2406e+005 173842 199033,199111,199059
 6.0000e+000 199361 -8.7155e+005 -5.4809e+006  2.2527e+005 173438 199237,199289,199263
 6.0000e+000 199338 -8.1330e+005 -4.0606e+006  5.6448e+005 173438 199211,199289,199237
 6.0000e+000 199315 -7.4893e+005 -4.8446e+006 -1.0037e+005 173438 199185,199289,199211
 6.0000e+000 199513 -2.4172e+005 -4.9543e+006  7.7386e+005 173190 199386,199438,199412
 6.0000e+000 199490 -7.0495e+005 -4.4492e+006  4.4388e+005 173190 199386,199464,199438
 6.0000e+000 199665 -1.1194e+005 -2.1441e+006  6.0902e+004 172750 199564,199616,199590
 6.0000e+000 199642 -2.9936e+005 -1.6483e+006 -5.3709e+004 172750 199538,199616,199564
 6.0000e+000 199817 -5.3609e+005 -5.8924e+006 -1.5624e+006 172524 199690,199742,199716
 6.0000e+000 199794 -1.7016e+006 -3.8962e+006 -1.1436e+006 172524 199690,199768,199742
 6.0000e+000 199969 -1.4025e+006 -4.6104e+006 -1.3631e+006 172348 199842,199894,199868
 6.0000e+000 199946 -7.4001e+004 -4.4164e+006 -8.7342e+004 172348 199842,199920,199894
 6.0000e+000 200121  4.5769e+003 -5.2166e+006 -7.3898e+005 172008 199994,200046,200020
 6.0000e+000 200098 -4.4664e+005 -3.6429e+006 -5.6006e+005 172008 199994,200072,200046
 6.0000e+000 200273 -5.6076e+005 -5.1576e+006  1.1465e+006 171668 200172,200224,200198
 6.0000e+000 200250 -5.0971e+005 -5.8494e+006  1.4760e+006 171668 200146,200224,200172
 6.0000e+000 200474 -3.1876e+005 -6.2271e+006 -3.8901e+005 171264 200350,200402,200376
 6.0000e+000 200451 -6.1584e+005 -5.0918e+006 -8.7653e+004 171264 200324,200402,200350
 6.0000e+000 200428 -4.3014e+005 -4.6759e+006  3.9761e+005 171264 200298,200402,200324
 6.0000e+000 200626  9.2628e+003 -6.0211e+006  3.0031e+005 170832 200525,200577,200551
 6.0000e+000 200603 -1.1464e+005 -5.0776e+006  3.0338e+005 170832 200499,200577,200525
 6.0000e+000 200827 -5.1557e+003 -5.3065e+006  5.8614e+005 170492 200677,200729,200703
 6.0000e+000 200804 -4.7874e+005 -3.8798e+006 -5.4059e+005 170492 200651,200729,200677
 6.0000e+000 200781 -6.5228e+005 -4.3103e+006 -4.1015e+005 170492 200651,200755,200729
 6.0000e+000 201077  3.0339e+005 -2.4945e+006 -1.1863e+004 170088 200878,200956,200904
 6.0000e+000 201054 -5.8827e+005 -3.0906e+006 -9.5963e+005 170088 200852,200956,200878
 6.0000e+000 201031  1.1397e+005 -2.2340e+006  1.2397e+006 170088 200904,200956,200930
 6.0000e+000 201008  1.9077e+006 -6.6183e+006  1.5063e+006 170088 200852,200982,200956
 6.0000e+000 201278 -2.1513e+005 -3.0782e+006  2.5828e+005 169798 201102,201154,201128
 6.0000e+000 201255 -8.6435e+005 -5.7028e+006  4.4968e+005 169798 201102,201206,201154
 6.0000e+000 201232 -9.4565e+005 -3.4111e+006  9.1167e+005 169798 201154,201206,201180
 6.0000e+000 201430 -1.2913e+006 -6.9590e+006 -5.2871e+005 169337 201303,201355,201329
 6.0000e+000 201407 -8.6548e+005 -5.6954e+006 -8.1638e+005 169337 201303,201381,201355
 6.0000e+000 201631 -2.0989e+005 -4.7002e+006 -2.7907e+005 168883 201481,201559,201507
 6.0000e+000 201608  1.8317e+005 -4.8766e+006 -3.6081e+005 168883 201455,201559,201481
 6.0000e+000 201585 -1.0154e+006 -6.3052e+006 -8.8180e+005 168883 201507,201559,201533
 6.0000e+000 201832 -1.8497e+005 -6.0846e+006 -4.1748e+004 168479 201682,201734,201708
 6.0000e+000 201809 -9.0528e+005 -5.7996e+006 -2.9861e+005 168479 201656,201734,201682
 6.0000e+000 201786 -7.4292e+005 -5.1377e+006 -4.8956e+005 168479 201656,201760,201734
 6.0000e+000 202033 -2.0578e+005 -3.7225e+006  6.0220e+005 167825 201883,201935,201909
 6.0000e+000 202010 -2.0748e+005 -4.2039e+006 -5.1804e+005 167825 201857,201935,201883
 6.0000e+000 201987 -4.5211e+005 -5.5113e+006 -1.1926e+005 167825 201857,201961,201935
 6.0000e+000 202234 -1.0446e+006 -5.2320e+006 -1.2458e+006 167435 202058,202136,202084
 6.0000e+000 202211 -2.4089e+006 -7.4084e+006  1.1471e+006 167435 202058,202162,202136
 6.0000e+000 202188 -1.2838e+006 -3.4103e+006  3.0905e+004 167435 202084,202136,202110
 6.0000e+000 202386 -4.0757e+004 -3.9637e+006  3.6791e+005 167002 202285,202337,202311
 6.0000e+000 202363  4.3676e+004 -4.6758e+006  3.0405e+005 167002 202259,202337,202285
 6.0000e+000 202538 -1.0143e+005 -5.0341e+006 -1.8909e+005 166662 202411,202463,202437
 6.0000e+000 202515 -6.5445e+005 -3.1455e+006  2.1943e+005 166662 202411,202489,202463
 6.0000e+000 202690 -6.3220e+005 -5.4674e+006 -7.3713e+005 166322 202589,202641,202615
 6.0000e+000 202667 -1.8072e+004 -5.3212e+006 -6.1384e+005 166322 202563,202641,202589
 6.0000e+000 202891 -1.5615e+006 -4.2635e+006  1.5824e+005 165918 202715,202767,202741
 6.0000e+000 202868 -1.3774e+006 -3.5883e+006 -6.7880e+004 165918 202715,202793,202767
 6.0000e+000 202845 -1.8503e+005 -3.8049e+006 -1.5978e+005 165918 202715,202819,202793
 6.0000e+000 203092 -4.3921e+005 -6.5735e+006 -5.9292e+005 165628 202916,202968,202942
 6.0000e+000 203069 -1.0140e+006 -7.2033e+006 -2.3182e+005 165628 202916,202994,202968
 6.0000e+000 203046 -6.8433e+005 -7.0183e+006 -3.8771e+005 165628 202916,203020,202994
 6.0000e+000 203293 -1.3582e+006 -8.1355e+006  1.4198e+006 165266 203143,203195,203169
 6.0000e+000 203270 -1.9376e+006 -5.3578e+006 -3.8200e+005 165266 203143,203221,203195
 6.0000e+000 203247 -3.2369e+005 -6.8296e+006 -2.0619e+006 165266 203117,203221,203143
 6.0000e+000 203445 -8.2791e+005 -3.9551e+006  4.4587e+005 164826 203318,203370,203344
 6.0000e+000 203422 -1.0950e+006 -3.9815e+006  4.6709e+005 164826 203318,203396,203370
 6.0000e+000 203597 -4.8611e+005 -4.8283e+006  4.4003e+005 164386 203470,203522,203496
 6.0000e+000 203574 -3.9565e+005 -3.8914e+006  1.4385e+005 164386 203470,203548,203522
 6.0000e+000 203798 -3.6000e+003 -4.7993e+006  3.9656e+005 163996 203622,203674,203648
 6.0000e+000 203775 -3.2710e+005 -3.6241e+006  1.8804e+005 163996 203622,203726,203674
 6.0000e+000 203752 -8.5852e+005 -5.3769e+006  1.0509e+006 163996 203674,203726,203700
 6.0000e+000 203901 -3.3433e+005 -2.9920e+006 -3.0639e+005 163770 203823,203875,203849
 6.0000e+000 204053 -8.9146e+005 -4.6121e+006  1.7862e+004 163474 203952,204004,203978
 6.0000e+000 204030 -9.1058e+005 -4.3693e+006  4.9536e+005 163474 203926,204004,203952
 6.0000e+000 204205 -2.4164e+005 -4.7021e+006 -6.8116e+005 163034 204104,204156,204130
 6.0000e+000 204182 -8.3338e+005 -5.4167e+006 -1.3050e+006 163034 204078,204156,204104
 6.0000e+000 204357 -5.5238e+005 -4.4325e+006  4.8551e+005 162624 204256,204308,204282
 6.0000e+000 204334 -4.8461e+005 -3.2113e+006  2.6974e+005 162624 204230,204308,204256
 6.0000e+000 204509 -4.3516e+003 -1.4145e+005  2.5516e+004 162200 204382,204434,204408
 6.0000e+000 204486 -5.1173e+003 -1.4151e+005  2.4450e+004 162200 204382,204460,204434
 6.0000e+000 204710 -7.2999e+004 -1.8061e+006  9.4761e+004 161810 204560,204638,204586
 6.0000e+000 204687 -4.3463e+004 -2.1894e+006 -2.8261e+005 161810 204534,204638,204560
 6.0000e+000 204664 -1.8627e+005 -1.7985e+006 -9.8984e+004 161810 204586,204638,204612
 6.0000e+000 204862 -1.2091e+006 -3.9352e+006 -5.4121e+005 161406 204735,204787,204761
 6.0000e+000 204839 -1.4628e+006 -4.9578e+006  1.8475e+004 161406 204735,204813,204787
 6.0000e+000 205014 -5.4836e+005 -2.5163e+006  4.6291e+005 161180 204887,204939,204913
 6.0000e+000 204991 -4.3820e+005 -2.3159e+006  3.4482e+005 161180 204887,204965,204939
 6.0000e+000 205215 -9.3433e+004 -3.2991e+006 -2.3126e+005 160726 205039,205091,205065
 6.0000e+000 205192 -5.2757e+005 -5.1420e+006 -8.5648e+004 160726 205039,205143,205091
 6.0000e+000 205169 -7.2340e+005 -2.0354e+006 -8.5462e+004 160726 205091,205143,205117
 6.0000e+000 205416 -3.1787e+005 -3.7716e+006  9.6009e+005 160272 205292,205344,205318
 6.0000e+000 205393 -5.2974e+005 -3.1800e+006  8.3119e+005 160272 205240,205344,205292
 6.0000e+000 205370 -6.1305e+005 -3.8872e+006  2.1073e+005 160272 205240,205292,205266
 6.0000e+000 205568  7.5094e+004 -2.7340e+006  4.1983e+005 159932 205441,205493,205467
 6.0000e+000 205545 -1.6757e+005 -3.5750e+006  5.8826e+005 159932 205441,205519,205493
 6.0000e+000 205720 -2.1164e+005 -2.7406e+006 -9.5184e+005 159542 205593,205645,205619
 6.0000e+000 205697 -9.1090e+005 -1.5241e+006 -1.6087e+005 159542 205593,205671,205645
 6.0000e+000 205872  2.2050e+005 -6.5773e+005  5.0404e+004 159252 205745,205797,205771
 6.0000e+000 205849 -2.7163e+005 -3.1296e+006 -3.3308e+005 159252 205745,205823,205797
 6.0000e+000 206024 -2.5733e+006 -2.8528e+006 -8.6926e+005 159004 205923,205975,205949
 6.0000e+000 206001 -8.7818e+005 -2.7076e+006  2.4814e+005 159004 205897,205975,205923
 6.0000e+000 206127 -7.3346e+001  2.8736e+000  7.2971e+001 158364 206049,206101,206075
 6.0000e+000 206328 -4.2909e+005 -3.5987e+006  2.0514e+005 157960 206178,206256,206204
 6.0000e+000 206305  1.8316e+005 -3.7259e+006 -6.0241e+004 157960 206152,206256,206178
 6.0000e+000 206282 -3.7219e+005 -3.0136e+006  3.0519e+005 157960 206204,206256,206230
 6.0000e+000 206529 -3.8888e+005 -4.2320e+006  2.6404e+005 157648 206405,206457,206431
 6.0000e+000 206506 -9.1929e+005 -4.5973e+006 -5.7991e+004 157648 206379,206457,206405
 6.0000e+000 206483 -3.2346e+005 -5.0734e+006 -7.4559e+005 157648 206353,206457,206379
 6.0000e+000 206730  1.1208e+005 -6.8362e+006  5.8046e+005 157208 206554,206606,206580
 6.0000e+000 206707 -1.1245e+005 -8.6626e+006  6.2364e+005 157208 206554,206632,206606
 6.0000e+000 206684 -2.5959e+006 -4.0680e+006  1.0005e+006 157208 206554,206658,206632
 6.0000e+000 206882  6.5073e+004 -2.7417e+006  1.4561e+005 157010 206755,206807,206781
 6.0000e+000 206859  1.4004e+005 -3.2988e+006  3.9191e+005 157010 206755,206833,206807
 6.0000e+000 207034 -2.0715e+004 -5.6828e+006 -1.3422e+004 156620 206907,206959,206933
 6.0000e+000 207011 -2.5888e+004 -5.8943e+006  1.0265e+004 156620 206907,206985,206959
 6.0000e+000 207186 -2.6197e+004 -2.3437e+006  7.8963e+004 156330 207085,207137,207111
 6.0000e+000 207163 -1.7063e+005 -2.3936e+006 -2.8540e+005 156330 207059,207137,207085
 6.0000e+000 207387 -2.9799e+005 -4.6900e+006  4.0169e+005 155890 207211,207289,207237
 6.0000e+000 207364 -4.5751e+005 -4.7307e+006  2.3202e+005 155890 207211,207315,207289
 6.0000e+000 207341 -6.8407e+005 -3.6783e+006  1.0457e+006 155890 207237,207289,207263
 6.0000e+000 207588 -1.8934e+005 -6.6766e+006  9.5304e+005 155436 207438,207490,207464
 6.0000e+000 207565 -5.9092e+005 -6.4103e+006  5.4186e+005 155436 207412,207490,207438
 6.0000e+000 207542 -2.2979e+005 -6.1475e+006  3.1226e+005 155436 207412,207516,207490
 6.0000e+000 207789 -4.5203e+005 -9.2705e+006 -1.1313e+005 155260 207639,207691,207665
 6.0000e+000 207766 -7.0086e+005 -6.1130e+006  1.0970e+006 155260 207613,207691,207639
 6.0000e+000 207743 -2.6934e+005 -5.7264e+006  4.5754e+005 155260 207613,207717,207691
 6.0000e+000 207990 -2.7626e+005 -2.0543e+006  5.0716e+005 154920 207840,207918,207892
 6.0000e+000 207967 -1.0149e+006 -2.4473e+006 -1.3044e+005 154920 207814,207918,207840
 6.0000e+000 207944 -1.8516e+005 -2.0313e+006  4.8675e+005 154920 207840,207892,207866
 6.0000e+000 208191  1.2045e+005 -6.6425e+006 -1.0919e+006 154630 208015,208093,208041
 6.0000e+000 208168 -1.2230e+006 -5.2354e+006 -3.1367e+005 154630 208015,208119,208093
 6.0000e+000 208145 -6.4259e+005 -6.5162e+006 -1.2464e+006 154630 208041,208093,208067
 6.0000e+000 208343 -1.0351e+005 -2.3296e+006 -1.5941e+005 154240 208216,208268,208242
 6.0000e+000 208320  1.2210e+005 -1.3376e+006 -9.0602e+004 154240 208216,208294,208268
 6.0000e+000 208495 -9.7282e+005 -8.6780e+006 -1.3853e+006 153950 208394,208446,208420
 6.0000e+000 208472 -1.1489e+006 -7.0439e+006 -1.7471e+005 153950 208368,208446,208394
 6.0000e+000 208647 -7.6508e+005 -6.0416e+006  1.3020e+006 153603 208520,208572,208546
 6.0000e+000 208624 -1.8951e+006 -4.9721e+006  3.2084e+005 153603 208520,208598,208572
 6.0000e+000 208848 -4.9254e+005 -4.8117e+006  5.0272e+005 153149 208698,208776,208724
 6.0000e+000 208825 -4.3397e+004 -6.4177e+006 -2.9561e+005 153149 208672,208776,208698
 6.0000e+000 208802 -1.0469e+006 -6.1319e+006  5.7967e+004 153149 208724,208776,208750
 6.0000e+000 209000 -3.9793e+005 -6.3855e+006  6.7907e+004 152859 208873,208925,208899
 6.0000e+000 208977 -1.9858e+005 -6.5766e+006  2.9492e+004 152859 208873,208951,208925
 6.0000e+000 209152 -6.4183e+005 -6.3633e+006 -4.7037e+005 152569 209051,209103,209077
 6.0000e+000 209129 -9.8534e+005 -6.2620e+006 -4.3854e+005 152569 209025,209103,209051
 6.0000e+000 209304 -3.1157e+005 -2.3652e+006  1.4269e+005 152065 209177,209229,209203
 6.0000e+000 209281 -4.4201e+005 -2.7977e+006  3.5102e+005 152065 209177,209255,209229
 6.0000e+000 209456 -1.3691e+005 -6.7907e+006 -5.6509e+004 151775 209355,209407,209381
 6.0000e+000 209433 -3.8175e+005 -7.3103e+006 -2.4571e+005 151775 209329,209407,209355
 6.0000e+000 209608 -5.8391e+005 -7.6544e+006 -1.8822e+005 151371 209481,209533,209507
 6.0000e+000 209585  1.7523e+005 -8.7414e+006  2.0038e+003 151371 209481,209559,209533
 6.0000e+000 209760 -1.7181e+006 -6.0775e+006 -1.2508e+006 150981 209659,209711,209685
 6.0000e+000 209737 -2.8911e+005 -5.8779e+006 -1.1988e+006 150981 209633,209711,209659
 6.0000e+000 209912  3.0125e+005 -8.6597e+006 -3.6425e+005 150619 209811,209863,209837
 6.0000e+000 209889  6.7413e+005 -7.6235e+006  1.3086e+005 150619 209785,209863,209811
 6.0000e+000 210064 -4.2385e+005 -7.4328e+006 -5.9341e+005 150279 209937,209989,209963
 6.0000e+000 210041 -3.1182e+005 -6.0955e+006 -8.3893e+005 150279 209937,210015,209989
 6.0000e+000 210265 -6.6137e+005 -7.5412e+006 -1.7627e+006 149989 210115,210167,210141
 6.0000e+000 210242 -1.1766e+006 -5.5193e+006  7.0741e+005 149989 210115,210193,210167
 6.0000e+000 210219 -1.2340e+006 -8.6735e+006  4.8838e+005 149989 210089,210193,210115
 6.0000e+000 210417 -4.7912e+005 -6.6457e+006 -5.8365e+005 149599 210316,210368,210342
 6.0000e+000 210394 -4.4608e+005 -5.1360e+006 -1.9702e+005 149599 210290,210368,210316
 6.0000e+000 210618 -2.0190e+006 -5.2099e+006 -1.1430e+006 149095 210468,210520,210494
 6.0000e+000 210595 -1.5566e+006 -5.4975e+006  1.1962e+006 149095 210442,210520,210468
 6.0000e+000 210572 -4.6040e+005 -7.9754e+006  1.0572e+006 149095 210442,210546,210520
 6.0000e+000 210819 -4.2559e+005 -2.9194e+006  3.6093e+005 148748 210695,210747,210721
 6.0000e+000 210796 -2.3018e+005 -3.3942e+006  6.5131e+005 148748 210669,210747,210695
 6.0000e+000 210773 -4.4148e+005 -3.0005e+006  1.0515e+006 148748 210643,210747,210669
 6.0000e+000 210971 -2.0565e+004 -1.4925e+006 -2.4861e+004 148408 210870,210922,210896
 6.0000e+000 210948 -5.7280e+004 -2.2976e+006  3.9599e+004 148408 210844,210922,210870
 6.0000e+000 211123 -6.8267e+005 -4.7140e+006  1.3036e+006 148118 210996,211048,211022
 6.0000e+000 211100 -1.4004e+006 -4.8684e+006  1.4013e+006 148118 210996,211074,211048
 6.0000e+000 211275 -1.1788e+006 -6.5694e+006  6.3184e+005 147778 211148,211200,211174
 6.0000e+000 211252 -1.5418e+006 -7.2373e+006  1.0710e+006 147778 211148,211226,211200
 6.0000e+000 211427 -7.9634e+005 -6.4583e+006 -4.6152e+005 147324 211326,211378,211352
 6.0000e+000 211404 -1.5505e+005 -6.2341e+006 -2.3827e+005 147324 211300,211378,211326
 6.0000e+000 211628  1.1720e+005 -5.7439e+005  3.5778e+004 147012 211452,211504,211478
 6.0000e+000 211605 -3.4141e+004 -1.8367e+006 -2.6023e+004 147012 211452,211556,211504
 6.0000e+000 211582 -8.4930e+004 -2.0725e+006 -3.5005e+004 147012 211504,211556,211530
 6.0000e+000 211829 -1.0426e+006 -5.4676e+006  3.0386e+005 146636 211679,211757,211731
 6.0000e+000 211806  3.8795e+005 -7.3884e+006 -2.1045e+005 146636 211653,211757,211679
 6.0000e+000 211783  3.8481e+005 -5.3530e+006  3.8578e+005 146636 211679,211731,211705
 6.0000e+000 211981  3.7681e+004 -2.5273e+006  5.5370e+004 146246 211880,211932,211906
 6.0000e+000 211958 -1.6200e+005 -1.3807e+006 -1.0032e+005 146246 211854,211932,211880
 6.0000e+000 212133 -2.8199e+004 -1.1903e+006 -1.1059e+005 145956 212006,212058,212032
 6.0000e+000 212110 -5.2564e+005 -1.8975e+006  3.3754e+005 145956 212006,212084,212058
 6.0000e+000 212285 -6.7854e+004 -2.4510e+006  2.8264e+004 145544 212184,212236,212210
 6.0000e+000 212262 -7.6657e+004 -1.6807e+006 -3.8036e+004 145544 212158,212236,212184
 6.0000e+000 212486 -1.8178e+005 -4.6215e+006  5.2374e+005 144990 212362,212414,212388
 6.0000e+000 212463  5.3954e+004 -4.2153e+006  7.7904e+005 144990 212310,212414,212362
 6.0000e+000 212440 -6.9568e+005 -2.8433e+006  3.2220e+005 144990 212310,212362,212336
 6.0000e+000 212638 -5.4634e+005 -2.9993e+006  9.0136e+005 144600 212537,212589,212563
 6.0000e+000 212615 -3.0091e+005 -2.0277e+006  3.0963e+005 144600 212511,212589,212537
 6.0000e+000 212839 -2.3605e+005 -2.5849e+006 -1.3895e+005 144210 212689,212741,212715
 6.0000e+000 212816 -3.0145e+005 -2.2983e+006 -3.4956e+005 144210 212663,212741,212689
 6.0000e+000 212793 -2.1408e+005 -2.0169e+006 -2.9628e+005 144210 212663,212767,212741
 6.0000e+000 212991 -8.6484e+005 -3.4242e+006  2.9372e+005 143920 212890,212942,212916
 6.0000e+000 212968 -4.4658e+005 -4.7863e+006  2.0485e+005 143920 212864,212942,212890
 6.0000e+000 213143 -1.7997e+005 -2.1983e+006 -2.1150e+005 143480 213016,213068,213042
 6.0000e+000 213120  1.7236e+005 -2.5211e+006  1.2659e+005 143480 213016,213094,213068
 6.0000e+000 213295 -6.0737e+005 -2.4437e+006  2.8417e+005 142990 213194,213246,213220
 6.0000e+000 213272 -1.0615e+006 -1.9071e+006 -5.5150e+005 142990 213168,213246,213194
 6.0000e+000 213447 -6.3780e+005 -3.4680e+006  7.3692e+005 142600 213320,213372,213346
 6.0000e+000 213424 -1.2925e+006 -2.2717e+006 -1.0207e+005 142600 213320,213398,213372
 6.0000e+000 213599 -2.6358e+005 -2.9193e+006  4.9610e+004 142260 213472,213524,213498
 6.0000e+000 213576 -2.3337e+005 -3.2029e+006  7.5400e+005 142260 213472,213550,213524
 6.0000e+000 213751 -9.2411e+005 -4.3241e+006  6.0256e+005 141870 213624,213676,213650
 6.0000e+000 213728 -1.5055e+006 -4.1244e+006  2.0577e+005 141870 213624,213702,213676
 6.0000e+000 213903 -1.3143e+006 -4.3110e+006 -1.8186e+006 141530 213776,213828,213802
 6.0000e+000 213880 -5.3706e+005 -5.2728e+006 -2.5272e+005 141530 213776,213854,213828
 6.0000e+000 214055 -5.3932e+004 -1.2115e+006 -5.4266e+004 141218 213928,213980,213954
 6.0000e+000 214032  6.6133e+004 -2.0035e+006  1.4900e+005 141218 213928,214006,213980
 6.0000e+000 214207 -6.4817e+005 -7.8681e+005 -6.3330e+004 140928 214080,214132,214106
 6.0000e+000 214184 -7.5944e+005 -8.6293e+005  3.7654e+005 140928 214080,214158,214132
 6.0000e+000 214359 -2.7334e+005 -1.9088e+006 -3.6561e+005 140538 214232,214284,214258
 6.0000e+000 214336 -1.5987e+005 -4.2679e+006  1.2268e+006 140538 214232,214310,214284
 6.0000e+000 214560 -2.0677e+005 -2.7425e+006  2.6819e+005 140248 214384,214462,214410
 6.0000e+000 214537 -4.0061e+005 -2.2762e+006 -4.7263e+004 140248 214384,214488,214462
 6.0000e+000 214514 -2.8801e+005 -2.2175e+006  1.0064e+005 140248 214410,214462,214436
 6.0000e+000 214712 -1.0334e+005 -3.6231e+006  3.1113e+005 140000 214611,214663,214637
 6.0000e+000 214689 -3.6871e+005 -2.5123e+006  7.3703e+004 140000 214585,214663,214611
 6.0000e+000 214913 -4.3088e+005 -3.3619e+006 -7.1676e+005 139596 214737,214815,214763
 6.0000e+000 214890 -3.2862e+005 -2.0025e+006 -4.9135e+004 139596 214737,214841,214815
 6.0000e+000 214867  1.7285e+005 -4.7137e+006 -4.4806e+005 139596 214763,214815,214789
 6.0000e+000 215016  2.7717e+002 -5.7437e+004  5.9832e+002 139420 214938,214990,214964
 6.0000e+000 215168 -9.2543e+005 -4.1775e+006  8.5471e+005 139130 215067,215119,215093
 6.0000e+000 215145 -6.5684e+005 -4.1434e+006  2.3112e+005 139130 215041,215119,215067
 6.0000e+000 215320 -2.6578e+005 -3.3590e+006  9.1788e+005 138790 215219,215271,215245
 6.0000e+000 215297 -3.7009e+005 -2.8027e+006  8.2645e+005 138790 215193,215271,215219
 6.0000e+000 215472 -2.5774e+005 -2.6502e+006  1.8742e+005 138514 215345,215397,215371
 6.0000e+000 215449 -1.2172e+005 -2.7327e+006  2.5325e+005 138514 215345,215423,215397
 6.0000e+000 215624 -5.7299e+005 -4.7943e+006 -6.1788e+004 138174 215497,215549,215523
 6.0000e+000 215601 -2.7597e+005 -4.3915e+006 -2.6719e+005 138174 215497,215575,215549
 6.0000e+000 215776 -1.1009e+006 -3.2702e+006  1.1434e+006 137734 215649,215701,215675
 6.0000e+000 215753 -1.3216e+006 -2.8595e+006  2.8402e+005 137734 215649,215727,215701
 6.0000e+000 215977 -2.1562e+006 -5.7603e+006  1.1483e+006 137344 215801,215879,215827
 6.0000e+000 215954 -5.9578e+004 -5.7981e+006  1.2713e+006 137344 215801,215905,215879
 6.0000e+000 215931  2.0209e+006 -1.0067e+007 -1.7331e+006 137344 215827,215879,215853
 6.0000e+000 216129 -6.9676e+005 -4.5959e+006 -5.2180e+005 136940 216028,216080,216054
 6.0000e+000 216106 -6.4839e+005 -4.4604e+006 -4.8658e+005 136940 216002,216080,216028
 6.0000e+000 216330 -6.8910e+005 -4.4398e+006  7.0428e+005 136600 216180,216232,216206
 6.0000e+000 216307 -5.5830e+005 -4.3649e+006  5.4813e+005 136600 216154,216232,216180
 6.0000e+000 216284 -1.0757e+006 -3.6178e+006  2.7062e+005 136600 216154,216258,216232
 6.0000e+000 216482 -9.0438e+005 -3.7820e+006 -2.5879e+005 136260 216381,216433,216407
 6.0000e+000 216459 -1.0533e+006 -4.0501e+006 -3.7433e+005 136260 216355,216433,216381
 6.0000e+000 216634 -3.8666e+005 -2.9324e+006  5.6999e+005 135970 216533,216585,216559
 6.0000e+000 216611 -1.4814e+005 -3.6487e+006  6.9665e+005 135970 216507,216585,216533
 6.0000e+000 216835 -5.1517e+005 -4.0089e+006  3.4388e+005 135608 216685,216763,216711
 6.0000e+000 216812  2.4035e+005 -4.7543e+006 -9.2287e+005 135608 216659,216763,216685
 6.0000e+000 216789 -6.7044e+005 -4.3575e+006  2.2008e+005 135608 216711,216763,216737
 6.0000e+000 217036 -8.1377e+004 -2.2955e+006  4.0775e+005 135312 216912,216964,216938
 6.0000e+000 217013 -1.0775e+005 -2.8258e+006  5.2481e+005 135312 216886,216964,216912
 6.0000e+000 216990 -4.1092e+004 -3.5237e+006  2.7728e+005 135312 216860,216964,216886
 6.0000e+000 217237 -1.2546e+005 -2.0505e+006 -1.4106e+005 134908 217061,217139,217113
 6.0000e+000 217214 -5.4374e+005 -2.2880e+006  4.0520e+005 134908 217061,217165,217139
 6.0000e+000 217191 -7.0496e+005 -1.4594e+006 -2.6528e+005 134908 217061,217113,217087
 6.0000e+000 217438 -6.6066e+005 -7.7010e+006  7.1002e+005 134568 217288,217366,217314
 6.0000e+000 217415 -3.6284e+005 -7.3520e+006  9.0354e+005 134568 217262,217366,217288
 6.0000e+000 217392  3.0178e+004 -5.7077e+006  2.3290e+005 134568 217314,217366,217340
 6.0000e+000 217590 -5.6488e+005 -2.3347e+006  6.8145e+004 134106 217463,217515,217489
 6.0000e+000 217567 -4.7352e+005 -2.3181e+006  6.8779e+004 134106 217463,217541,217515
 6.0000e+000 217791 -2.2777e+006 -1.2526e+007 -5.9770e+006 133816 217641,217693,217667
 6.0000e+000 217768  3.3271e+005 -1.5037e+007  2.7061e+006 133816 217641,217719,217693
 6.0000e+000 217745 -3.1023e+006 -4.1646e+006  2.0352e+006 133816 217615,217719,217641
 6.0000e+000 217992 -9.5291e+005 -3.8418e+006 -7.0194e+004 133355 217842,217920,217894
 6.0000e+000 217969 -5.2911e+005 -5.2245e+006 -8.1298e+005 133355 217816,217920,217842
 6.0000e+000 217946 -7.3755e+005 -4.0344e+006  3.3350e+005 133355 217842,217894,217868
 6.0000e+000 218193 -1.1682e+006 -4.4160e+006  3.6059e+005 132851 218017,218095,218069
 6.0000e+000 218170 -1.0273e+006 -4.1627e+006 -1.9166e+005 132851 218017,218121,218095
 6.0000e+000 218147  1.7587e+005 -5.8464e+006  2.1374e+004 132851 218017,218069,218043
 6.0000e+000 218345 -5.4124e+005 -2.7774e+006  2.0590e+005 132511 218244,218296,218270
 6.0000e+000 218322 -8.6477e+005 -2.6364e+006 -1.4806e+005 132511 218218,218296,218244
 6.0000e+000 218497 -1.8617e+006 -1.0109e+007 -4.1962e+004 132235 218396,218448,218422
 6.0000e+000 218474 -1.6501e+006 -6.0670e+006  8.7118e+005 132235 218370,218448,218396
 6.0000e+000 218698 -1.3041e+005 -3.8632e+006  3.0298e+005 131945 218574,218626,218600
 6.0000e+000 218675 -5.9506e+005 -5.6954e+006  1.8895e+005 131945 218522,218626,218574
 6.0000e+000 218652 -2.0533e+005 -5.1408e+006 -9.1285e+004 131945 218522,218574,218548
 6.0000e+000 218850 -1.7083e+005 -7.1160e+006 -8.2796e+005 131655 218723,218775,218749
 6.0000e+000 218827 -1.0160e+006 -6.7681e+006  1.6610e+005 131655 218723,218801,218775
 6.0000e+000 218953 -6.0247e+005 -3.9191e+006 -3.0687e+005 131215 218875,218927,218901
 6.0000e+000 219105 -6.1443e+005 -5.1638e+006 -6.1122e+005 130875 218978,219030,219004
 6.0000e+000 219082 -5.9086e+005 -4.1532e+006 -4.4351e+005 130875 218978,219056,219030
 6.0000e+000 219306 -3.7356e+005 -4.5147e+006 -1.6409e+005 130429 219156,219234,219208
 6.0000e+000 219283 -4.4628e+005 -3.9732e+006 -5.0985e+004 130429 219130,219234,219156
 6.0000e+000 219260 -1.0828e+006 -4.7765e+006  7.8650e+005 130429 219156,219208,219182
 6.0000e+000 219507 -3.0188e+005 -2.4345e+006  2.0422e+005 130025 219383,219435,219409
 6.0000e+000 219484 -4.0022e+005 -3.2142e+006  2.7399e+005 130025 219331,219435,219383
 6.0000e+000 219461 -3.7284e+005 -3.0039e+006  1.7595e+005 130025 219331,219383,219357
 6.0000e+000 219659 -1.2843e+006 -6.2364e+006 -1.5504e+006 129685 219558,219610,219584
 6.0000e+000 219636 -8.2048e+005 -6.4881e+006 -1.9266e+006 129685 219532,219610,219558
 6.0000e+000 219860 -5.6104e+005 -3.8775e+006  2.8576e+005 129395 219710,219788,219762
 6.0000e+000 219837 -9.5359e+005 -4.2409e+006  2.3521e+004 129395 219684,219788,219710
 6.0000e+000 219814 -2.3525e+005 -5.1272e+006 -6.5054e+005 129395 219710,219762,219736
 6.0000e+000 220061  7.0999e+002 -2.2988e+006  1.6087e+004 128991 219937,219989,219963
 6.0000e+000 220038 -1.1556e+005 -3.3668e+006 -2.6057e+005 128991 219885,219989,219937
 6.0000e+000 220015  6.4081e+004 -2.8575e+006 -4.8058e+004 128991 219885,219937,219911
 6.0000e+000 220262 -1.6056e+005 -2.3661e+006 -3.2080e+005 128701 220086,220164,220112
 6.0000e+000 220239 -7.8461e+003 -2.8402e+006 -1.4785e+005 128701 220086,220190,220164
 6.0000e+000 220216 -9.6296e+004 -1.9281e+006  4.3061e+005 128701 220112,220164,220138
 6.0000e+000 220463 -6.5073e+005 -6.0816e+006  1.0644e+006 128297 220339,220391,220365
 6.0000e+000 220440 -6.6737e+004 -7.2679e+006  7.3351e+005 128297 220313,220391,220339
 6.0000e+000 220417 -1.9200e+005 -7.7259e+006 -1.1682e+005 128297 220287,220391,220313
 6.0000e+000 220615  8.8535e+004 -7.8372e+006 -5.0794e+005 128007 220488,220540,220514
 6.0000e+000 220592 -7.3392e+005 -5.5618e+006 -7.9851e+005 128007 220488,220566,220540
 6.0000e+000 220767  7.7396e+004 -2.6562e+006 -4.2098e+005 127567 220640,220692,220666
 6.0000e+000 220744 -1.8894e+005 -1.8275e+006 -3.0982e+005 127567 220640,220718,220692
 6.0000e+000 220919 -8.9587e+004 -6.7950e+006  2.3876e+005 127163 220792,220844,220818
 6.0000e+000 220896  6.8290e+005 -7.7703e+006  1.1835e+006 127163 220792,220870,220844
 6.0000e+000 221071 -5.3879e+005 -3.2233e+006  3.6345e+005 126915 220970,221022,220996
 6.0000e+000 221048 -5.9560e+005 -3.0782e+006  4.1006e+005 126915 220944,221022,220970
 6.0000e+000 221272 -1.1814e+006 -7.2428e+006  2.1783e+005 126461 221122,221174,221148
 6.0000e+000 221249 -9.5986e+005 -7.2074e+006  1.6354e+005 126461 221122,221200,221174
 6.0000e+000 221226 -2.5626e+005 -7.3305e+006  1.8415e+005 126461 221096,221200,221122
 6.0000e+000 221375 -3.6494e+000 -2.3052e+005 -7.3420e+001 126213 221297,221349,221323
 6.0000e+000 221478 -1.6668e+002 -3.3897e+005 -3.1559e+002 125766 221400,221452,221426
 6.0000e+000 221679 -2.1183e+005 -2.8337e+006 -4.9103e+005 125212 221503,221555,221529
 6.0000e+000 221656 -2.3962e+005 -3.2986e+006 -6.5101e+005 125212 221503,221581,221555
 6.0000e+000 221633 -6.1908e+005 -3.4081e+006 -5.4299e+005 125212 221503,221607,221581
 6.0000e+000 221929 -2.7815e+005 -2.1655e+006  8.1338e+004 124872 221782,221834,221808
 6.0000e+000 221906 -4.0020e+005 -1.9157e+006  2.9239e+005 124872 221756,221834,221782
 6.0000e+000 221883 -4.2033e+005 -2.7898e+006  4.0584e+005 124872 221704,221834,221756
 6.0000e+000 221860 -4.3433e+005 -2.5465e+006  5.3779e+005 124872 221704,221756,221730
 6.0000e+000 222130 -7.4307e+005 -5.1702e+006 -3.2203e+005 124582 221980,222058,222006
 6.0000e+000 222107 -1.2456e+006 -5.8784e+006 -9.8516e+005 124582 221954,222058,221980
 6.0000e+000 222084 -1.4082e+006 -6.0435e+006 -7.7648e+005 124582 222006,222058,222032
 6.0000e+000 222282 -1.3024e+006 -7.4376e+006 -1.2986e+006 124192 222181,222233,222207
 6.0000e+000 222259 -7.0503e+005 -7.5066e+006 -1.5022e+006 124192 222155,222233,222181
 6.0000e+000 222483 -4.8008e+005 -4.4224e+006  1.2275e+005 123702 222333,222385,222359
 6.0000e+000 222460 -2.5653e+005 -4.4408e+006  2.4342e+004 123702 222333,222411,222385
 6.0000e+000 222437 -1.1841e+005 -2.8393e+006 -5.0917e+004 123702 222307,222411,222333
 6.0000e+000 222635 -2.4864e+005 -3.6720e+006 -2.7584e+005 123312 222508,222560,222534
 6.0000e+000 222612  5.9582e+005 -6.4768e+006 -3.4899e+005 123312 222508,222586,222560
 6.0000e+000 222787 -7.5776e+005 -5.4682e+006 -1.5534e+005 122858 222686,222738,222712
 6.0000e+000 222764 -4.4675e+005 -3.5755e+006 -6.5781e+005 122858 222660,222738,222686
 6.0000e+000 222939 -5.3822e+005 -5.7650e+006 -6.0392e+004 122568 222812,222864,222838
 6.0000e+000 222916 -1.1866e+005 -3.4671e+006  3.9457e+005 122568 222812,222890,222864
 6.0000e+000 223091 -7.5969e+005 -4.0863e+006 -2.6823e+005 122392 222964,223016,222990
 6.0000e+000 223068  2.9476e+005 -4.9049e+006  4.5881e+005 122392 222964,223042,223016
 6.0000e+000 223292 -4.7951e+005 -6.6940e+006 -3.0338e+005 121852 223142,223220,223194
 6.0000e+000 223269 -5.9085e+005 -7.2248e+006 -6.5586e+005 121852 223116,223220,223142
 6.0000e+000 223246 -2.1618e+005 -6.4114e+006 -8.1822e+005 121852 223142,223194,223168
 6.0000e+000 223493 -1.2450e+006 -5.7882e+006  4.0353e+004 121406 223343,223395,223369
 6.0000e+000 223470 -2.9589e+005 -5.5908e+006 -9.0058e+004 121406 223343,223421,223395
 6.0000e+000 223447 -9.2127e+005 -5.2202e+006  8.5182e+005 121406 223317,223421,223343
 6.0000e+000 223645 -6.2288e+004 -7.6301e+006  3.5631e+005 121002 223544,223596,223570
 6.0000e+000 223622 -7.7193e+005 -4.9607e+006  5.7917e+005 121002 223518,223596,223544
 6.0000e+000 223846 -3.3357e+005 -5.6357e+006 -1.3711e+005 120662 223670,223748,223696
 6.0000e+000 223823 -1.6703e+005 -5.3838e+006 -7.0624e+005 120662 223670,223774,223748
 6.0000e+000 223800  1.0156e+005 -5.3376e+006 -3.5477e+005 120662 223696,223748,223722
 6.0000e+000 224047 -7.7002e+005 -4.4350e+006  1.5921e+004 120222 223897,223949,223923
 6.0000e+000 224024 -5.4648e+005 -4.8296e+006 -5.0388e+005 120222 223871,223949,223897
 6.0000e+000 224001  1.4352e+005 -6.9860e+006  2.4229e+004 120222 223871,223975,223949
 6.0000e+000 224248 -1.1254e+005 -3.8836e+006 -3.1141e+005 119875 224124,224176,224150
 6.0000e+000 224225 -7.3847e+005 -6.8488e+006 -6.6748e+005 119875 224098,224176,224124
 6.0000e+000 224202 -7.4331e+005 -3.6640e+006 -5.8984e+005 119875 224072,224176,224098
 6.0000e+000 224449 -4.6716e+005 -4.1218e+006  1.3469e+005 119677 224325,224377,224351
 6.0000e+000 224426 -7.1443e+005 -5.0977e+006 -1.2955e+005 119677 224299,224377,224325
 6.0000e+000 224403 -4.1562e+005 -5.1012e+006  1.0639e+005 119677 224273,224377,224299
 6.0000e+000 224552 -1.0003e+006 -4.5222e+006 -3.9521e+003 119273 224474,224526,224500
 6.0000e+000 224704 -1.8048e+006 -7.2747e+006 -1.0221e+006 118983 224603,224655,224629
 6.0000e+000 224681 -1.0982e+006 -7.7242e+006 -1.2733e+006 118983 224577,224655,224603
 6.0000e+000 224856 -1.9545e+005 -7.3281e+006 -4.7517e+005 118529 224755,224807,224781
 6.0000e+000 224833  6.0357e+004 -8.4747e+006 -7.5292e+005 118529 224729,224807,224755
 6.0000e+000 225008 -2.3999e+005 -5.0737e+006  6.3438e+004 118353 224881,224933,224907
 6.0000e+000 224985 -2.9775e+005 -4.0445e+006  1.3654e+005 118353 224881,224959,224933
 6.0000e+000 225209 -8.0687e+005 -4.6578e+006 -2.0831e+005 117949 225059,225137,225111
 6.0000e+000 225186 -6.2491e+005 -4.6621e+006 -3.3784e+005 117949 225033,225137,225059
 6.0000e+000 225163 -1.9832e+005 -6.1588e+006  2.9944e+005 117949 225059,225111,225085
 6.0000e+000 225410 -2.4108e+005 -5.2501e+006 -3.3942e+005 117559 225260,225338,225312
 6.0000e+000 225387 -8.4278e+005 -5.3052e+006 -6.6766e+004 117559 225234,225338,225260
 6.0000e+000 225364 -5.1846e+005 -4.2553e+006 -1.4856e+006 117559 225260,225312,225286
 6.0000e+000 225611 -1.5362e+006 -8.7167e+006 -4.3047e+006 117361 225461,225513,225487
 6.0000e+000 225588  1.7055e+006 -8.7180e+006  3.5749e+005 117361 225461,225539,225513
 6.0000e+000 225565 -2.2138e+006 -2.9985e+006  3.9693e+006 117361 225435,225539,225461
 6.0000e+000 225812 -2.5249e+005 -4.5169e+006  1.7631e+005 116900 225636,225714,225662
 6.0000e+000 225789  1.5931e+005 -4.5631e+006  5.0240e+003 116900 225636,225740,225714
 6.0000e+000 225766 -5.3760e+005 -4.4438e+006 -3.8267e+005 116900 225662,225714,225688
 6.0000e+000 225964 -3.5120e+005 -4.6108e+006  3.7036e+005 116560 225837,225889,225863
 6.0000e+000 225941 -1.2255e+005 -4.4135e+006  2.3631e+005 116560 225837,225915,225889
 6.0000e+000 226165 -2.3226e+005 -4.8172e+006 -2.0757e+005 116106 226015,226093,226041
 6.0000e+000 226142  2.6584e+005 -6.1807e+006 -1.3215e+006 116106 225989,226093,226015
 6.0000e+000 226119 -1.3401e+006 -4.4303e+006 -6.8268e+005 116106 226041,226093,226067
 6.0000e+000 226268 -1.1949e+006 -5.3239e+006  3.7771e+005 115716 226190,226242,226216
 6.0000e+000 226420 -7.7875e+005 -5.7710e+006  1.2850e+006 115376 226293,226345,226319
 6.0000e+000 226397 -6.7118e+005 -5.5839e+006  1.0013e+006 115376 226293,226371,226345
 6.0000e+000 226621 -9.9221e+004 -4.3974e+006 -1.6936e+005 114972 226497,226549,226523
 6.0000e+000 226598 -6.6413e+005 -5.9837e+006 -6.7272e+005 114972 226445,226549,226497
 6.0000e+000 226575 -5.3283e+005 -4.4054e+006  2.5586e+004 114972 226445,226497,226471
 6.0000e+000 226773 -4.6439e+005 -4.7056e+006 -3.5837e+005 114670 226646,226698,226672
 6.0000e+000 226750 -2.1311e+005 -5.1081e+006 -2.4266e+005 114670 226646,226724,226698
 6.0000e+000 226974  1.4590e+005 -3.0228e+006 -6.4233e+004 114082 226798,226850,226824
 6.0000e+000 226951 -8.6108e+004 -2.1731e+006 -3.3031e+005 114082 226798,226902,226850
 6.0000e+000 226928 -2.1173e+005 -2.5745e+006 -2.4988e+005 114082 226850,226902,226876
 6.0000e+000 227175 -5.8392e+005 -5.3433e+006  1.9293e+005 113678 226999,227051,227025
 6.0000e+000 227152 -8.4345e+005 -5.7529e+006 -1.5988e+005 113678 226999,227077,227051
 6.0000e+000 227129 -4.6810e+005 -7.2274e+006 -5.8361e+005 113678 226999,227103,227077
 6.0000e+000 227425  7.4312e+003 -5.1665e+006 -3.8242e+005 113274 227226,227278,227252
 6.0000e+000 227402 -4.0513e+005 -5.2686e+006 -3.9896e+005 113274 227226,227330,227278
 6.0000e+000 227379  2.3931e+005 -7.5025e+006 -8.1513e+005 113274 227200,227330,227226
 6.0000e+000 227356 -1.5733e+006 -7.1640e+006  4.4729e+005 113274 227278,227330,227304
 6.0000e+000 227626  7.8032e+004 -3.3936e+006 -6.2968e+005 112934 227502,227554,227528
 6.0000e+000 227603  7.2402e+004 -2.3670e+006 -1.5681e+005 112934 227450,227554,227502
 6.0000e+000 227580 -8.1099e+005 -4.4615e+006 -8.1480e+005 112934 227450,227502,227476
 6.0000e+000 227876 -1.8163e+005 -3.3531e+006 -1.2105e+005 112437 227677,227755,227703
 6.0000e+000 227853 -6.5837e+005 -3.5420e+006  3.5229e+005 112437 227677,227781,227755
 6.0000e+000 227830 -3.5905e+005 -2.5692e+006  3.4542e+005 112437 227703,227755,227729
 6.0000e+000 227807 -4.1368e+005 -4.1100e+006  1.7760e+005 112437 227651,227781,227677
 6.0000e+000 228126 -5.8821e+005 -4.8569e+006  3.9810e+005 112041 227927,228005,227953
 6.0000e+000 228103 -1.2559e+005 -5.9113e+006 -1.9450e+005 112041 227927,228031,228005
 6.0000e+000 228080 -4.1370e+005 -5.9216e+006  4.8678e+005 112041 227953,228005,227979
 6.0000e+000 228057 -3.0345e+005 -3.9889e+006 -2.6216e+005 112041 227901,228031,227927
 6.0000e+000 228327 -7.4984e+005 -5.6152e+006 -8.9515e+005 111693 228151,228203,228177
 6.0000e+000 228304 -8.4623e+005 -3.5550e+006 -9.8719e+005 111693 228151,228229,228203
 6.0000e+000 228281  9.9583e+004 -4.7135e+006 -1.4278e+005 111693 228151,228255,228229
 6.0000e+000 228479 -7.1207e+005 -5.1226e+006 -2.0475e+006 111253 228352,228404,228378
 6.0000e+000 228456 -1.1592e+006 -5.3055e+006 -1.2049e+006 111253 228352,228430,228404
 6.0000e+000 228582  1.2696e+001 -3.8513e+004 -2.7627e+002 110906 228504,228556,228530
 6.0000e+000 228783 -7.6592e+005 -4.9111e+006  5.1010e+005 110416 228633,228711,228659
 6.0000e+000 228760 -4.6074e+005 -2.4555e+006  1.8457e+005 110416 228607,228711,228633
 6.0000e+000 228737 -5.2882e+005 -3.5368e+006  4.0909e+005 110416 228659,228711,228685
 6.0000e+000 228935 -6.4131e+004 -3.4376e+006 -4.2990e+005 110012 228808,228860,228834
 6.0000e+000 228912 -6.0937e+004 -3.8636e+006 -4.8453e+005 110012 228808,228886,228860
 6.0000e+000 229087 -4.7856e+005 -4.9846e+006 -8.1697e+004 109672 228960,229012,228986
 6.0000e+000 229064 -1.0639e+006 -4.1954e+006 -2.4861e+005 109672 228960,229038,229012
 6.0000e+000 229190 -2.1724e+005 -2.6621e+006  3.6405e+005 109332 229112,229164,229138
 6.0000e+000 229391 -1.5322e+005 -1.4920e+006 -1.1052e+005 109156 229267,229319,229293
 6.0000e+000 229368 -2.9466e+005 -2.5144e+006 -1.4886e+005 109156 229215,229319,229267
 6.0000e+000 229345 -2.6480e+005 -2.0564e+006  2.6051e+005 109156 229215,229267,229241
 6.0000e+000 229543 -6.3075e+005 -6.6068e+006  5.3292e+005 108752 229416,229468,229442
 6.0000e+000 229520 -5.5438e+005 -6.9504e+006  6.4981e+005 108752 229416,229494,229468
 6.0000e+000 229744 -8.8539e+005 -6.1627e+006  1.8247e+005 108198 229594,229646,229620
 6.0000e+000 229721 -1.0722e+006 -6.2120e+006  2.1524e+005 108198 229594,229672,229646
 6.0000e+000 229698 -6.1282e+005 -7.5164e+006 -5.0686e+005 108198 229568,229672,229594
 6.0000e+000 229847 -2.6616e+005 -2.2544e+006 -1.9543e+005 107758 229769,229821,229795
 6.0000e+000 230048 -9.2755e+005 -4.0962e+006 -8.6891e+005 107468 229898,229950,229924
 6.0000e+000 230025 -4.4588e+005 -3.6075e+006 -8.0963e+004 107468 229872,229950,229898
 6.0000e+000 230002 -5.8276e+005 -3.7826e+006  6.6383e+004 107468 229872,229976,229950
 6.0000e+000 230298 -1.3526e+005 -3.6557e+006  2.4200e+005 107121 230099,230203,230177
 6.0000e+000 230275 -7.9850e+005 -3.1191e+006 -1.0155e+005 107121 230073,230203,230099
 6.0000e+000 230252 -9.5201e+005 -3.8823e+006  1.3025e+005 107121 230099,230177,230151
 6.0000e+000 230229 -5.8410e+005 -4.1256e+006  3.3984e+005 107121 230099,230151,230125
 6.0000e+000 230450  3.6879e+005 -4.4712e+006 -4.0282e+005 106823 230349,230401,230375
 6.0000e+000 230427 -2.3809e+005 -1.5240e+006  2.2875e+005 106823 230323,230401,230349
 6.0000e+000 230602 -1.1225e+006 -3.8373e+006 -3.0015e+005 106533 230501,230553,230527
 6.0000e+000 230579 -9.8186e+005 -4.9615e+006 -1.6980e+006 106533 230475,230553,230501
 6.0000e+000 230803 -6.7889e+005 -2.0768e+006  2.0097e+005 106029 230679,230731,230705
 6.0000e+000 230780 -1.3462e+006 -4.7954e+006  2.2108e+005 106029 230653,230731,230679
 6.0000e+000 230757 -6.0259e+005 -4.6166e+006  5.5873e+005 106029 230627,230731,230653
 6.0000e+000 231004  8.3784e+004 -3.9056e+006 -4.5276e+005 105689 230854,230906,230880
 6.0000e+000 230981 -8.8276e+004 -3.7177e+006 -2.3155e+005 105689 230828,230906,230854
 6.0000e+000 230958 -6.8848e+005 -3.3341e+006 -5.4244e+005 105689 230828,230932,230906
 6.0000e+000 231156 -6.6335e+005 -3.0647e+006  7.1580e+005 105377 231055,231107,231081
 6.0000e+000 231133  8.1726e+005 -9.2424e+006 -9.9013e+005 105377 231029,231107,231055
 6.0000e+000 231406  1.9514e+005 -5.0500e+006  1.9602e+005 104858 231207,231259,231233
 6.0000e+000 231383 -1.0244e+006 -5.0827e+006 -8.2300e+004 104858 231207,231311,231259
 6.0000e+000 231360 -6.6236e+005 -7.3461e+006 -4.6917e+005 104858 231259,231311,231285
 6.0000e+000 231337 -3.2751e+005 -6.6176e+006 -3.8723e+005 104858 231181,231311,231207
 6.0000e+000 231558 -3.5572e+005 -1.9774e+006  1.0502e+006 104418 231457,231509,231483
 6.0000e+000 231535 -8.5939e+004 -1.9214e+006  2.4345e+005 104418 231431,231509,231457
 6.0000e+000 231710 -5.6876e+005 -3.2797e+006 -3.3672e+005 103978 231583,231635,231609
 6.0000e+000 231687 -7.3305e+005 -2.6315e+006 -3.0327e+005 103978 231583,231661,231635
 6.0000e+000 231862 -2.6722e+004 -4.4936e+005 -1.5745e+005 103588 231761,231813,231787
 6.0000e+000 231839 -4.1229e+004 -5.4232e+005 -1.4721e+005 103588 231735,231813,231761
 6.0000e+000 232014 -6.9715e+005 -5.2919e+006 -1.4529e+006 103248 231887,231939,231913
 6.0000e+000 231991 -1.8202e+005 -7.0977e+006 -1.6257e+006 103248 231887,231965,231939
 6.0000e+000 232215 -5.9074e+005 -3.7928e+006  7.6033e+004 102844 232039,232117,232065
 6.0000e+000 232192 -4.5287e+005 -4.3734e+006 -4.2429e+005 102844 232039,232143,232117
 6.0000e+000 232169 -3.7272e+005 -3.9215e+006  1.5948e+005 102844 232065,232117,232091
 6.0000e+000 232416 -1.6590e+006 -6.6336e+006 -1.6268e+004 102554 232240,232318,232292
 6.0000e+000 232393  1.1584e+005 -7.8456e+006  7.0410e+005 102554 232240,232344,232318
 6.0000e+000 232370 -1.6354e+006 -6.8776e+006 -1.0461e+005 102554 232240,232292,232266
 6.0000e+000 232568 -7.7486e+005 -3.9847e+006  8.6382e+005 102100 232441,232493,232467
 6.0000e+000 232545 -5.3049e+005 -3.6386e+006  2.8550e+005 102100 232441,232519,232493
 6.0000e+000 232769 -2.2089e+005 -7.4506e+005  5.4645e+004 101596 232645,232697,232671
 6.0000e+000 232746 -5.7856e+005 -2.1523e+006 -3.9749e+004 101596 232593,232697,232645
 6.0000e+000 232723  3.7121e+004 -3.4896e+006 -3.7032e+005 101596 232593,232645,232619
 6.0000e+000 232921 -3.8138e+004 -1.2924e+006 -1.2512e+004 101420 232794,232846,232820
 6.0000e+000 232898 -1.7289e+004 -9.7897e+005  1.8288e+004 101420 232794,232872,232846
 6.0000e+000 233073 -8.6942e+005 -3.9449e+006 -3.2110e+005 101023 232946,232998,232972
 6.0000e+000 233050 -2.8035e+005 -4.8466e+006  3.4260e+005 101023 232946,233024,232998
 6.0000e+000 233225 -2.5394e+005 -5.6147e+006 -1.7845e+005 100661 233098,233150,233124
 6.0000e+000 233202 -2.0058e+005 -5.9666e+006 -1.4778e+005 100661 233098,233176,233150
 6.0000e+000 233426 -1.1179e+006 -4.8719e+006 -6.4015e+005 100265 233276,233328,233302
 6.0000e+000 233403 -5.0536e+005 -4.5422e+006 -1.5408e+005 100265 233276,233354,233328
 6.0000e+000 233380 -6.8470e+005 -5.5618e+006 -4.3144e+005 100265 233250,233354,233276
 6.0000e+000 233578 -6.0327e+005 -1.6500e+006 -1.2259e+006 100032 233451,233503,233477
 6.0000e+000 233555 -2.2671e+005 -1.6340e+006 -4.7442e+005 100032 233451,233529,233503
 6.0000e+000 233681 -1.8508e+005 -1.6281e+006  1.9405e+005 99742 233603,233655,233629
 6.0000e+000 233784 -6.4113e+005 -3.8888e+006 -1.1433e+005 99402 233706,233758,233732
 6.0000e+000 233936 -5.7511e+005 -3.0702e+006  3.5529e+005 99062 233835,233887,233861
 6.0000e+000 233913 -4.2528e+005 -2.3117e+006 -2.7221e+005 99062 233809,233887,233835
 6.0000e+000 234088 -2.3872e+005 -2.7504e+006  2.1859e+005 98772 233987,234039,234013
 6.0000e+000 234065 -5.6499e+005 -2.8332e+006  6.3819e+005 98772 233961,234039,233987
 6.0000e+000 234240 -1.0874e+005 -2.0947e+006  2.7543e+005 98160 234139,234191,234165
 6.0000e+000 234217  3.3444e+004 -1.3328e+006  1.4554e+005 98160 234113,234191,234139
 6.0000e+000 234441 -2.7654e+005 -2.9303e+006  2.7295e+005 97820 234317,234369,234343
 6.0000e+000 234418 -3.5576e+005 -3.1925e+006  3.6171e+004 97820 234291,234369,234317
 6.0000e+000 234395 -4.9669e+005 -3.3311e+006 -5.0081e+004 97820 234265,234369,234291
 6.0000e+000 234593 -6.2104e+005 -2.7762e+006 -1.9161e+005 97366 234466,234518,234492
 6.0000e+000 234570 -3.0531e+005 -4.5163e+006 -2.0427e+005 97366 234466,234544,234518
 6.0000e+000 234794 -7.3154e+005 -2.6049e+006 -4.0033e+005 96976 234618,234670,234644
 6.0000e+000 234771 -5.9823e+005 -4.4241e+006  4.3130e+004 96976 234618,234722,234670
 6.0000e+000 234748 -7.4853e+005 -3.2684e+006 -5.3458e+005 96976 234670,234722,234696
 6.0000e+000 234946 -1.0843e+006 -2.9313e+006  6.0878e+005 96568 234845,234897,234871
 6.0000e+000 234923 -1.0533e+006 -3.0177e+006  7.9383e+005 96568 234819,234897,234845
 6.0000e+000 235196 -1.8017e+005 -2.4804e+006 -4.0738e+005 96216 234997,235075,235049
 6.0000e+000 235173  1.3592e+005 -3.8406e+006  5.1102e+004 96216 234997,235101,235075
 6.0000e+000 235150 -4.8186e+005 -3.3946e+006 -1.8536e+005 96216 234997,235049,235023
 6.0000e+000 235127 -6.8188e+004 -3.8064e+006  2.5448e+005 96216 234971,235101,234997
 6.0000e+000 235348 -3.6031e+005 -1.9197e+006 -6.5308e+005 95863 235247,235299,235273
 6.0000e+000 235325 -3.5818e+005 -1.9541e+006 -6.3895e+005 95863 235221,235299,235247
 6.0000e+000 235500 -9.0920e+005 -3.9991e+006 -6.8051e+005 95339 235373,235425,235399
 6.0000e+000 235477 -1.0511e+006 -4.6554e+006  1.9276e+005 95339 235373,235451,235425
 6.0000e+000 235701  3.2451e+004 -3.7123e+006  6.9201e+005 95023 235525,235577,235551
 6.0000e+000 235678 -2.5370e+005 -2.4139e+006 -3.0706e+005 95023 235525,235629,235577
 6.0000e+000 235655 -8.3073e+005 -3.0327e+006  5.5885e+004 95023 235577,235629,235603
 6.0000e+000 235853  4.7168e+004 -4.8436e+006  8.5126e+005 94671 235726,235778,235752
 6.0000e+000 235830 -5.3737e+005 -3.2808e+006 -3.2173e+005 94671 235726,235804,235778
 6.0000e+000 236005 -1.0892e+006 -3.7854e+006 -1.9965e+005 94261 235904,235956,235930
 6.0000e+000 235982 -1.0586e+006 -4.2289e+006 -6.1705e+005 94261 235878,235956,235904
 6.0000e+000 236206 -9.0091e+005 -1.9501e+006  9.1131e+005 93853 236056,236134,236082
 6.0000e+000 236183 -3.5893e+005 -1.8659e+006 -1.8048e+005 93853 236030,236134,236056
 6.0000e+000 236160 -6.7402e+005 -3.3298e+006  6.4784e+005 93853 236082,236134,236108
 6.0000e+000 236407 -1.1683e+006 -3.6110e+006 -8.4831e+004 93557 236257,236309,236283
 6.0000e+000 236384 -9.9407e+005 -3.5676e+006 -7.9854e+004 93557 236231,236309,236257
 6.0000e+000 236361 -3.5673e+005 -4.4034e+006  1.0862e+005 93557 236231,236335,236309
 6.0000e+000 236559 -1.8584e+005 -1.9004e+006 -1.6236e+005 93149 236432,236484,236458
 6.0000e+000 236536 -2.9316e+005 -1.9863e+006 -2.7924e+005 93149 236432,236510,236484
 6.0000e+000 236711 -2.7419e+005 -2.6709e+006  4.5562e+005 92853 236584,236636,236610
 6.0000e+000 236688 -1.0119e+005 -2.4521e+006  3.4029e+005 92853 236584,236662,236636
 6.0000e+000 236912 -1.6326e+005 -4.2785e+006  7.1834e+005 92501 236736,236788,236762
 6.0000e+000 236889 -4.5973e+005 -4.0699e+006  6.2423e+005 92501 236736,236840,236788
 6.0000e+000 236866 -2.7221e+005 -3.2523e+006  6.2296e+005 92501 236788,236840,236814
 6.0000e+000 237113  2.0196e+004 -2.5566e+006  7.4986e+005 92291 236963,237041,237015
 6.0000e+000 237090 -1.2114e+005 -2.1883e+006  4.6984e+005 92291 236937,237041,236963
 6.0000e+000 237067 -1.4373e+005 -2.6665e+006  6.1833e+005 92291 236963,237015,236989
 6.0000e+000 237265 -1.1157e+006 -2.8041e+006 -3.5945e+005 91871 237138,237190,237164
 6.0000e+000 237242 -1.0714e+006 -2.8980e+006 -2.9929e+005 91871 237138,237216,237190
 6.0000e+000 237368  1.7588e+003 -2.6503e+006 -1.1746e+003 91581 237290,237342,237316
 6.0000e+000 237520 -3.3748e+005 -1.9175e+006  6.6534e+005 91184 237419,237471,237445
 6.0000e+000 237497 -9.6629e+004 -2.6885e+006 -3.2892e+004 91184 237393,237471,237419
 6.0000e+000 237672 -9.5643e+005 -2.6386e+006 -7.9098e+004 90894 237545,237597,237571
 6.0000e+000 237649 -7.0905e+005 -3.0728e+006  7.2949e+004 90894 237545,237623,237597
 6.0000e+000 237873 -4.4665e+005 -3.4719e+006 -1.6973e+004 90490 237749,237801,237775
 6.0000e+000 237850 -1.1753e+005 -3.7425e+006  3.0235e+005 90490 237723,237801,237749
 6.0000e+000 237827 -6.0764e+005 -3.8726e+006 -7.8606e+005 90490 237697,237801,237723
 6.0000e+000 238074 -7.3806e+005 -4.9956e+006 -2.5622e+005 90100 237898,237976,237950
 6.0000e+000 238051 -1.0258e+006 -5.3342e+006  1.8684e+005 90100 237898,238002,237976
 6.0000e+000 238028 -4.3959e+005 -4.8684e+006 -4.8552e+005 90100 237898,237950,237924
 6.0000e+000 238275 -7.4058e+005 -4.8571e+006  3.1800e+005 89696 238125,238177,238151
 6.0000e+000 238252 -8.8331e+005 -4.1899e+006 -9.9599e+005 89696 238099,238177,238125
 6.0000e+000 238229 -1.6345e+006 -5.2107e+006 -4.6570e+005 89696 238099,238203,238177
 6.0000e+000 238427 -1.5006e+005 -2.9789e+006 -3.6772e+004 89206 238326,238378,238352
 6.0000e+000 238404  3.9539e+004 -3.1479e+006  7.7039e+004 89206 238300,238378,238326
 6.0000e+000 238579 -1.2425e+006 -5.3913e+006  1.0039e+006 88908 238452,238504,238478
 6.0000e+000 238556 -8.1310e+005 -5.5399e+006  1.5307e+006 88908 238452,238530,238504
 6.0000e+000 238682 -3.1218e+001 -1.9513e+005 -7.7696e+001 88568 238604,238656,238630
 6.0000e+000 238883 -4.2835e+005 -2.9644e+006  3.5436e+005 88278 238733,238811,238785
 6.0000e+000 238860 -2.4088e+004 -3.7658e+006  4.8264e+005 88278 238707,238811,238733
 6.0000e+000 238837 -1.2432e+005 -2.8536e+006  4.4955e+005 88278 238733,238785,238759
 6.0000e+000 239035 -3.7636e+005 -4.6197e+006 -1.1011e+005 87988 238908,238960,238934
 6.0000e+000 239012 -8.3359e+005 -4.0411e+006  6.2992e+005 87988 238908,238986,238960
 6.0000e+000 239138 -5.6972e+005 -3.6439e+006 -4.1763e+005 87648 239060,239112,239086
 6.0000e+000 239339 -8.8988e+005 -3.8408e+006 -8.9710e+005 87358 239163,239215,239189
 6.0000e+000 239316 -1.2415e+006 -4.2581e+006  3.5873e+005 87358 239163,239241,239215
 6.0000e+000 239293 -3.7064e+005 -2.5892e+006 -4.8095e+005 87358 239163,239267,239241
 6.0000e+000 239589 -1.6601e+004 -3.3546e+006  4.1680e+004 86961 239390,239468,239416
 6.0000e+000 239566  1.9521e+005 -3.3117e+006  4.3896e+004 86961 239390,239494,239468
 6.0000e+000 239543 -2.4941e+004 -1.5392e+006 -1.6365e+004 86961 239416,239468,239442
 6.0000e+000 239520 -1.1076e+006 -1.6208e+006  1.4665e+005 86961 239364,239494,239390
 6.0000e+000 239741 -9.1675e+005 -3.9306e+006 -9.8086e+005 86621 239640,239692,239666
 6.0000e+000 239718 -4.7071e+005 -4.2214e+006 -1.1728e+006 86621 239614,239692,239640
 6.0000e+000 239893 -3.2528e+005 -3.2284e+006  1.8233e+005 86217 239792,239844,239818
 6.0000e+000 239870 -3.4559e+005 -4.4130e+006  5.2326e+005 86217 239766,239844,239792
 6.0000e+000 240045 -6.4703e+005 -3.0304e+006 -2.4166e+004 85827 239918,239970,239944
 6.0000e+000 240022 -1.5394e+005 -2.9172e+006  2.8137e+005 85827 239918,239996,239970
 6.0000e+000 240197 -1.4795e+005 -4.3372e+006  6.3612e+005 85437 240096,240148,240122
 6.0000e+000 240174 -8.7497e+005 -3.9149e+006 -1.1615e+005 85437 240070,240148,240096
 6.0000e+000 240349 -4.0516e+005 -2.7698e+006  6.0962e+005 85147 240222,240274,240248
 6.0000e+000 240326 -5.6975e+005 -2.2452e+006  1.1783e+005 85147 240222,240300,240274
 6.0000e+000 240501 -9.7833e+005 -3.1307e+006 -2.1939e+005 84807 240374,240426,240400
 6.0000e+000 240478 -8.0929e+005 -3.2091e+006 -1.2314e+005 84807 240374,240452,240426
 6.0000e+000 240653 -9.6802e+003 -3.5912e+005 -5.9081e+004 84303 240552,240604,240578
 6.0000e+000 240630 -9.7848e+003 -3.5921e+005 -5.9239e+004 84303 240526,240604,240552
 6.0000e+000 240854 -4.6006e+005 -5.9199e+006 -1.5629e+006 83929 240704,240756,240730
 6.0000e+000 240831  1.9281e+005 -5.2532e+006  6.8130e+005 83929 240704,240782,240756
 6.0000e+000 240808 -9.4398e+005 -2.6238e+006  7.8278e+005 83929 240678,240782,240704
 6.0000e+000 241055 -6.0593e+004 -2.1558e+006 -1.5821e+005 83539 240879,240957,240931
 6.0000e+000 241032 -4.9797e+005 -2.3700e+006  4.7693e+004 83539 240879,240983,240957
 6.0000e+000 241009 -1.9244e+005 -1.7328e+006 -1.7642e+005 83539 240879,240931,240905
 6.0000e+000 241207 -3.9076e+004 -3.1489e+006  4.9932e+005 83079 241106,241158,241132
 6.0000e+000 241184 -5.3192e+005 -1.8903e+006  4.8395e+005 83079 241080,241158,241106
 6.0000e+000 241408  4.0677e+005 -3.4701e+006 -2.5196e+005 82665 241232,241284,241258
 6.0000e+000 241385 -5.7023e+005 -6.7188e+006 -1.5132e+006 82665 241232,241336,241284
 6.0000e+000 241362 -1.5984e+006  2.8256e+005  2.6684e+006 82665 241284,241336,241310
 6.0000e+000 241658 -3.9698e+004 -2.7097e+006  7.2747e+004 82375 241485,241563,241511
 6.0000e+000 241635  1.3394e+005 -2.1200e+006  1.7025e+005 82375 241433,241563,241485
 6.0000e+000 241612  1.9655e+004 -2.4940e+006  2.5964e+005 82375 241433,241485,241459
 6.0000e+000 241589 -4.2750e+005 -3.2986e+006  3.5789e+005 82375 241511,241563,241537
 6.0000e+000 241810 -5.6863e+005 -2.9669e+006  1.2069e+005 82035 241683,241735,241709
 6.0000e+000 241787 -6.5837e+005 -2.9443e+006  7.0889e+004 82035 241683,241761,241735
 6.0000e+000 241962 -8.1018e+005 -4.1295e+006 -3.5196e+005 81695 241861,241913,241887
 6.0000e+000 241939 -7.9891e+005 -3.6779e+006  3.9514e+005 81695 241835,241913,241861
 6.0000e+000 242114 -1.5681e+006 -4.1927e+006  9.2793e+004 81355 242013,242065,242039
 6.0000e+000 242091 -1.4811e+006 -3.6668e+006  3.7731e+005 81355 241987,242065,242013
 6.0000e+000 242266 -2.9452e+005 -2.5296e+006 -6.7785e+005 80951 242139,242191,242165
 6.0000e+000 242243 -4.1647e+005 -3.0220e+006 -6.7485e+005 80951 242139,242217,242191
 6.0000e+000 242467 -5.1091e+003 -2.4723e+006  2.7441e+005 80311 242291,242369,242343
 6.0000e+000 242444  7.1805e+004 -2.7760e+006  1.7536e+004 80311 242291,242395,242369
 6.0000e+000 242421 -2.0938e+004 -3.0068e+006  3.5134e+005 80311 242291,242343,242317
 6.0000e+000 242619 -1.5827e+006 -3.3696e+006 -5.6280e+005 80021 242492,242544,242518
 6.0000e+000 242596 -1.5010e+006 -3.1393e+006  5.9863e+003 80021 242492,242570,242544
 6.0000e+000 242869 -6.3931e+005 -3.1963e+006 -9.5483e+004 79631 242644,242722,242696
 6.0000e+000 242846 -3.4874e+005 -3.5778e+006 -9.1896e+004 79631 242644,242774,242722
 6.0000e+000 242823 -4.0643e+005 -3.3427e+006  4.5674e+005 79631 242722,242774,242748
 6.0000e+000 242800 -5.4766e+005 -2.9529e+006  2.3916e+004 79631 242644,242696,242670
 6.0000e+000 243070 -7.4319e+005 -8.0357e+006  8.6966e+005 79341 242920,242972,242946
 6.0000e+000 243047 -8.7395e+005 -5.4063e+006 -4.4192e+005 79341 242920,242998,242972
 6.0000e+000 243024 -7.2479e+005 -3.8935e+006  9.2720e+005 79341 242894,242998,242920
 6.0000e+000 243222 -1.9165e+005 -2.3602e+006  5.2467e+005 78801 243121,243173,243147
 6.0000e+000 243199 -5.3210e+005 -3.3939e+006  1.0442e+006 78801 243095,243173,243121
 6.0000e+000 243423 -2.9962e+005 -4.4566e+006 -1.5829e+004 78511 243273,243325,243299
 6.0000e+000 243400 -3.7460e+005 -4.6427e+006  9.4983e+004 78511 243273,243351,243325
 6.0000e+000 243377 -3.5200e+003 -4.5494e+006  1.0674e+005 78511 243247,243351,243273
 6.0000e+000 243624 -4.9333e+005 -3.0099e+006 -5.8883e+005 78107 243474,243552,243526
 6.0000e+000 243601 -3.9145e+005 -2.4133e+006 -5.8688e+005 78107 243448,243552,243474
 6.0000e+000 243578 -4.4981e+005 -3.1441e+006 -7.2708e+005 78107 243474,243526,243500
 6.0000e+000 243776 -3.8165e+005 -2.9720e+006 -7.6685e+005 77653 243649,243701,243675
 6.0000e+000 243753 -7.3411e+005 -3.7146e+006 -4.4664e+005 77653 243649,243727,243701
 6.0000e+000 243977 -2.9295e+005 -3.8149e+006 -7.3358e+005 77093 243801,243853,243827
 6.0000e+000 243954 -1.2586e+005 -3.4915e+006 -1.4739e+005 77093 243801,243879,243853
 6.0000e+000 243931 -4.9021e+005 -3.5998e+006 -1.0421e+004 77093 243801,243905,243879
 6.0000e+000 244080 -9.8378e+005 -3.6690e+006  9.5795e+004 76791 244002,244054,244028
 6.0000e+000 244232 -2.6020e+005 -3.8220e+006  2.1542e+005 76311 244131,244183,244157
 6.0000e+000 244209 -1.2640e+005 -4.2644e+006  3.7795e+005 76311 244105,244183,244131
 6.0000e+000 244433 -7.8248e+005 -7.4152e+006  8.8092e+005 75903 244283,244335,244309
 6.0000e+000 244410 -4.5992e+005 -6.8488e+006  4.7198e+005 75903 244283,244361,244335
 6.0000e+000 244387 -1.6357e+006 -6.1015e+006  1.0446e+006 75903 244257,244361,244283
 6.0000e+000 244585 -2.4124e+005 -7.7321e+006  2.5626e+005 75419 244458,244510,244484
 6.0000e+000 244562 -2.3843e+005 -6.4463e+006 -7.6436e+004 75419 244458,244536,244510
 6.0000e+000 244737 -3.0781e+005 -2.2681e+006 -1.1669e+005 75215 244636,244688,244662
 6.0000e+000 244714 -2.5823e+005 -4.1558e+006 -1.3917e+005 75215 244610,244688,244636
 6.0000e+000 244889 -1.0799e+006 -3.0737e+006  1.6858e+005 74857 244788,244840,244814
 6.0000e+000 244866 -1.0864e+006 -2.9170e+006 -9.6436e+004 74857 244762,244840,244788
 6.0000e+000 245041  2.4820e+004 -9.4246e+005 -3.7073e+005 74653 244940,244992,244966
 6.0000e+000 245018 -8.1885e+004 -4.8872e+005  2.3460e+005 74653 244914,244992,244940
 6.0000e+000 245144  1.5098e+004 -4.3339e+006  3.1850e+004 74359 245066,245118,245092
 6.0000e+000 245296 -4.2177e+005 -2.2981e+006 -6.0564e+005 74007 245169,245221,245195
 6.0000e+000 245273 -3.2234e+005 -2.5730e+006 -4.5975e+005 74007 245169,245247,245221
 6.0000e+000 245448 -9.9131e+005 -3.9687e+006  7.9461e+005 73711 245321,245373,245347
 6.0000e+000 245425 -6.2898e+005 -3.8760e+006 -1.0845e+006 73711 245321,245399,245373
 6.0000e+000 245600  5.8977e+004 -7.3360e+006 -9.2675e+005 73301 245499,245551,245525
 6.0000e+000 245577 -1.2087e+006 -5.2047e+006  8.0092e+005 73301 245473,245551,245499
 6.0000e+000 245752 -3.9095e+004 -4.3459e+006 -5.5708e+005 72995 245625,245677,245651
 6.0000e+000 245729 -1.7891e+005 -4.0200e+006 -5.3628e+005 72995 245625,245703,245677
 6.0000e+000 245953 -1.4007e+006 -6.6617e+006  7.3924e+005 72585 245777,245829,245803
 6.0000e+000 245930 -9.1205e+005 -7.3195e+006  1.4092e+006 72585 245777,245855,245829
 6.0000e+000 245907 -8.6944e+005 -6.4747e+006  1.1515e+006 72585 245777,245881,245855
 6.0000e+000 246154 -3.9249e+005 -3.4701e+006  8.1044e+005 72127 246030,246082,246056
 6.0000e+000 246131 -8.4913e+005 -4.8838e+006  5.0035e+005 72127 245978,246082,246030
 6.0000e+000 246108 -1.6635e+005 -5.1291e+006  1.4654e+005 72127 245978,246030,246004
 6.0000e+000 246257 -7.4926e+005 -3.1465e+006 -2.5046e+005 71737 246179,246231,246205
 6.0000e+000 246360 -2.9412e+005 -1.6707e+006  8.7912e+004 71447 246282,246334,246308
 6.0000e+000 246512 -2.9581e+005 -3.0735e+006  5.6154e+005 71157 246385,246437,246411
 6.0000e+000 246489 -1.3651e+005 -3.1086e+006  6.9104e+005 71157 246385,246463,246437
 6.0000e+000 246664 -5.4411e+005 -3.1134e+006 -5.1042e+005 70753 246537,246589,246563
 6.0000e+000 246641 -8.5110e+005 -3.4124e+006 -3.0080e+005 70753 246537,246615,246589
 6.0000e+000 246865 -7.7264e+005 -6.2899e+006  1.5013e+006 70249 246715,246767,246741
 6.0000e+000 246842 -8.8351e+005 -6.0032e+006  1.4401e+005 70249 246715,246793,246767
 6.0000e+000 246819 -3.7584e+005 -6.2537e+006 -9.6568e+003 70249 246689,246793,246715
 6.0000e+000 247066 -2.7174e+005 -2.9985e+006  4.4886e+005 70023 246916,246994,246942
 6.0000e+000 247043  2.4843e+005 -4.2526e+006 -6.8412e+004 70023 246890,246994,246916
 6.0000e+000 247020 -3.5970e+005 -2.8137e+006 -5.0396e+004 70023 246942,246994,246968
 6.0000e+000 247267 -3.9701e+005 -3.7894e+006 -2.9100e+005 69633 247091,247143,247117
 6.0000e+000 247244 -1.9870e+005 -3.8494e+006 -1.0864e+005 69633 247091,247169,247143
 6.0000e+000 247221 -8.3910e+004 -2.9368e+006 -7.7286e+004 69633 247091,247195,247169
 6.0000e+000 247419 -3.5149e+005 -4.5496e+006  3.0547e+005 69457 247318,247370,247344
 6.0000e+000 247396 -7.4563e+005 -4.0702e+006  1.6396e+005 69457 247292,247370,247318
 6.0000e+000 247522 -3.7471e+001 -2.9080e+004  8.4493e+002 69209 247444,247496,247470
 6.0000e+000 247625 -1.5718e+006 -3.9716e+006 -2.8078e+005 68919 247547,247599,247573
 6.0000e+000 247777 -6.3701e+004 -4.3668e+006 -7.8643e+005 68579 247650,247702,247676
 6.0000e+000 247754 -4.6400e+005 -3.7152e+006 -5.1922e+005 68579 247650,247728,247702
 6.0000e+000 247929 -5.9143e+005 -2.5892e+006  9.7590e+005 68289 247802,247854,247828
 6.0000e+000 247906 -3.5280e+005 -2.1077e+006  5.6210e+005 68289 247802,247880,247854
 6.0000e+000 248081 -3.3645e+005 -3.1999e+006  9.5100e+005 67949 247980,248032,248006
 6.0000e+000 248058 -6.5940e+005 -2.8860e+006  4.2997e+005 67949 247954,248032,247980
 6.0000e+000 248233 -1.2146e+006 -4.9553e+006 -5.5069e+005 67616 248132,248184,248158
 6.0000e+000 248210 -8.1981e+005 -4.9258e+006 -4.0223e+005 67616 248106,248184,248132
 6.0000e+000 248434 -5.7623e+005 -3.3243e+006 -6.0737e+005 67212 248284,248336,248310
 6.0000e+000 248411 -5.9926e+005 -3.4635e+006 -1.0709e+006 67212 248258,248336,248284
 6.0000e+000 248388 -1.4290e+006 -3.7373e+006 -7.5844e+005 67212 248258,248362,248336
 6.0000e+000 248586 -3.4221e+004 -3.7473e+006  5.2055e+005 66872 248485,248537,248511
 6.0000e+000 248563 -4.2017e+005 -2.7908e+006  1.9219e+005 66872 248459,248537,248485
 6.0000e+000 248738 -2.1148e+005 -4.3738e+006  9.1856e+004 66510 248637,248689,248663
 6.0000e+000 248715 -3.0613e+005 -6.7164e+006  1.3972e+005 66510 248611,248689,248637
 6.0000e+000 248890 -1.0456e+005 -1.9593e+006  3.7174e+005 66220 248789,248841,248815
 6.0000e+000 248867 -1.2777e+005 -2.3976e+006 -4.6313e+005 66220 248763,248841,248789
 6.0000e+000 249091 -4.7470e+005 -3.0447e+006  1.4891e+006 65759 248915,248967,248941
 6.0000e+000 249068 -4.8113e+005 -3.1382e+006  1.1915e+006 65759 248915,248993,248967
 6.0000e+000 249045 -4.2424e+005 -3.1251e+006  1.1797e+006 65759 248915,249019,248993
 6.0000e+000 249243 -2.0134e+005 -5.8500e+006  1.1741e+006 65419 249142,249194,249168
 6.0000e+000 249220 -4.6756e+005 -4.5666e+006  3.9165e+005 65419 249116,249194,249142
 6.0000e+000 249395 -3.1255e+005 -2.9444e+006 -2.7583e+005 65079 249268,249320,249294
 6.0000e+000 249372 -3.5315e+005 -3.7388e+006 -4.5491e+005 65079 249268,249346,249320
 6.0000e+000 249547 -1.5576e+005 -2.0320e+006  1.4195e+005 64739 249420,249472,249446
 6.0000e+000 249524 -7.7679e+005 -2.1550e+006  1.0009e+005 64739 249420,249498,249472
 6.0000e+000 249650 -7.8217e+005 -3.4632e+006 -4.3491e+005 64342 249572,249624,249598
 6.0000e+000 249851 -8.5432e+005 -5.8720e+006 -6.6142e+005 63938 249701,249779,249753
 6.0000e+000 249828 -6.4630e+005 -6.1570e+006  1.3429e+006 63938 249675,249779,249701
 6.0000e+000 249805 -7.6973e+005 -9.8778e+006 -4.5256e+005 63938 249701,249753,249727
 6.0000e+000 250052 -1.1711e+006 -4.4331e+006 -4.0058e+004 63341 249876,249954,249902
 6.0000e+000 250029 -6.9072e+005 -4.0219e+006 -5.1616e+005 63341 249876,249980,249954
 6.0000e+000 250006 -8.7857e+004 -4.2818e+006 -1.3689e+005 63341 249902,249954,249928
 6.0000e+000 250253 -4.7604e+005 -6.4249e+006 -9.3815e+005 63058 250077,250129,250103
 6.0000e+000 250230 -1.1988e+006 -5.1061e+006 -1.9761e+005 63058 250077,250155,250129
 6.0000e+000 250207 -6.1113e+005 -5.0210e+006 -1.4350e+005 63058 250077,250181,250155
 6.0000e+000 250454 -8.4866e+005 -5.6306e+006  1.0281e+006 62832 250304,250382,250330
 6.0000e+000 250431  1.3187e+005 -7.0523e+006 -1.8950e+006 62832 250278,250382,250304
 6.0000e+000 250408 -2.0239e+006 -3.5324e+006  1.5147e+005 62832 250330,250382,250356
 6.0000e+000 250606  2.0413e+005 -7.0412e+006 -2.0440e+005 62428 250479,250531,250505
 6.0000e+000 250583 -1.8352e+005 -5.5153e+006 -4.5993e+005 62428 250479,250557,250531
 6.0000e+000 250758 -3.2160e+005 -5.3282e+006  4.7477e+005 62202 250631,250683,250657
 6.0000e+000 250735 -4.3832e+005 -6.1085e+006  1.5845e+006 62202 250631,250709,250683
 6.0000e+000 250861 -9.3444e+005 -2.1618e+006  1.0821e+005 61954 250783,250835,250809
 6.0000e+000 251062 -1.2868e+006 -5.9072e+006 -5.6785e+005 61557 250912,250990,250938
 6.0000e+000 251039 -4.3377e+005 -5.1934e+006 -9.6656e+004 61557 250886,250990,250912
 6.0000e+000 251016 -1.2916e+006 -6.1501e+006 -6.1999e+005 61557 250938,250990,250964
 6.0000e+000 251263 -8.3812e+005 -5.7672e+006  8.6315e+004 61167 251113,251165,251139
 6.0000e+000 251240 -6.8433e+005 -5.4505e+006 -3.5498e+004 61167 251113,251191,251165
 6.0000e+000 251217 -1.3230e+006 -5.3677e+006  1.3793e+006 61167 251087,251191,251113
 6.0000e+000 251415 -1.0418e+006 -4.2247e+006  1.0486e+006 60827 251288,251340,251314
 6.0000e+000 251392 -1.4504e+006 -1.6103e+006 -1.9109e+005 60827 251288,251366,251340
 6.0000e+000 251567  1.0648e+003 -3.5973e+006  4.3998e+005 60487 251466,251518,251492
 6.0000e+000 251544 -1.7943e+005 -2.5994e+006 -2.1143e+005 60487 251440,251518,251466
 6.0000e+000 251719 -3.0834e+005 -6.9387e+006 -5.2127e+004 59983 251592,251644,251618
 6.0000e+000 251696 -6.6628e+005 -5.6298e+006 -3.2713e+004 59983 251592,251670,251644
 6.0000e+000 251920  9.1024e+004 -1.8779e+006 -7.1344e+004 59807 251770,251848,251796
 6.0000e+000 251897  8.2680e+004 -1.9121e+006 -7.4525e+004 59807 251744,251848,251770
 6.0000e+000 251874  7.5738e+004 -2.1899e+006 -2.2529e+005 59807 251796,251848,251822
 6.0000e+000 252023 -8.3456e+004 -3.9758e+006  3.5155e+004 59517 251945,251997,251971
 6.0000e+000 252175  6.2361e+005 -7.2419e+006 -4.7951e+005 59269 252074,252126,252100
 6.0000e+000 252152 -8.4077e+005  8.0530e+005  7.0798e+005 59269 252048,252126,252074
 6.0000e+000 252278 -4.5401e+005 -3.2428e+006  8.6081e+005 58979 252200,252252,252226
 6.0000e+000 252381 -1.8216e+006 -2.4587e+006  4.7247e+005 58689 252303,252355,252329
 6.0000e+000 252533 -4.3170e+005 -3.0847e+006  2.1412e+005 58249 252432,252484,252458
 6.0000e+000 252510 -3.4267e+005 -3.0953e+006 -9.2240e+004 58249 252406,252484,252432
 6.0000e+000 252734 -6.1016e+005 -2.8135e+006  3.4540e+005 57902 252584,252662,252610
 6.0000e+000 252711  5.6282e+005 -3.8696e+006 -5.5189e+004 57902 252558,252662,252584
 6.0000e+000 252688 -5.4267e+005 -1.9911e+006  1.0556e+004 57902 252610,252662,252636
 6.0000e+000 252886 -3.0695e+005 -3.4148e+006 -1.8116e+005 57540 252785,252837,252811
 6.0000e+000 252863 -1.1266e+005 -3.5978e+006 -1.7702e+005 57540 252759,252837,252785
 6.0000e+000 253038 -3.5912e+005 -4.2220e+006  7.9335e+005 57086 252937,252989,252963
 6.0000e+000 253015 -1.8927e+005 -2.4106e+006  1.7764e+005 57086 252911,252989,252937
 6.0000e+000 253239 -3.7381e+005 -4.1732e+006 -2.4442e+004 56796 253063,253141,253115
 6.0000e+000 253216  3.6994e+005 -4.4306e+006  3.6139e+005 56796 253063,253167,253141
 6.0000e+000 253193 -7.7961e+005 -4.3153e+006  2.5666e+005 56796 253063,253115,253089
 6.0000e+000 253342 -5.4307e+005 -4.9339e+006  3.2206e+005 56349 253264,253316,253290
 6.0000e+000 253543 -7.5658e+005 -4.4924e+006 -4.4963e+005 56009 253367,253419,253393
 6.0000e+000 253520 -9.6109e+005 -3.8243e+006 -5.9757e+004 56009 253367,253445,253419
 6.0000e+000 253497 -7.6484e+005 -3.6549e+006 -1.7126e+005 56009 253367,253471,253445
 6.0000e+000 253695 -1.3488e+005 -3.4603e+006  7.3776e+004 55733 253594,253646,253620
 6.0000e+000 253672 -5.5121e+004 -3.4534e+006  1.1737e+005 55733 253568,253646,253594
 6.0000e+000 253798 -5.1004e+005 -2.0045e+006 -1.6057e+005 55557 253720,253772,253746
 6.0000e+000 253950 -5.0592e+005 -3.1846e+006  1.3480e+005 55153 253849,253901,253875
 6.0000e+000 253927  1.3370e+005 -3.7590e+006 -5.7135e+005 55153 253823,253901,253849
 6.0000e+000 254151 -1.1032e+006 -3.6846e+006  4.5213e+005 54863 253975,254053,254001
 6.0000e+000 254128 -6.8170e+005 -3.8004e+006 -8.1931e+004 54863 253975,254079,254053
 6.0000e+000 254105 -4.2284e+005 -2.8762e+006 -3.0025e+004 54863 254001,254053,254027
 6.0000e+000 254303 -4.1596e+004 -4.7384e+006 -5.7661e+004 54373 254176,254228,254202
 6.0000e+000 254280 -7.6127e+005 -4.6564e+006  1.8612e+005 54373 254176,254254,254228
 6.0000e+000 254455 -5.8807e+005 -4.1823e+006 -2.8737e+005 53975 254354,254406,254380
 6.0000e+000 254432 -8.8347e+005 -2.2021e+006 -2.5560e+004 53975 254328,254406,254354
 6.0000e+000 254607 -5.5900e+005 -3.4626e+006 -4.1497e+005 53585 254480,254532,254506
 6.0000e+000 254584 -2.8991e+005 -3.6588e+006 -4.9066e+005 53585 254480,254558,254532
 6.0000e+000 254808 -7.5925e+005 -2.8524e+006 -4.9869e+004 53245 254658,254736,254684
 6.0000e+000 254785 -9.0237e+005 -2.2916e+006 -2.7054e+005 53245 254632,254736,254658
 6.0000e+000 254762 -4.8075e+005 -2.2378e+006 -3.1599e+005 53245 254684,254736,254710
 6.0000e+000 254911 -2.9484e+005 -3.9550e+006 -2.8766e+005 52955 254833,254885,254859
 6.0000e+000 255063 -6.8032e+005 -4.0174e+006 -1.6822e+005 52551 254962,255014,254988
 6.0000e+000 255040 -5.9031e+005 -4.4715e+006 -3.4889e+005 52551 254936,255014,254962
 6.0000e+000 255264 -1.3225e+006 -2.0412e+006 -2.1292e+005 52261 255114,255166,255140
 6.0000e+000 255241 -1.1354e+006 -3.8194e+006  2.3970e+005 52261 255114,255192,255166
 6.0000e+000 255218 -1.2380e+006 -5.3579e+006 -1.1211e+006 52261 255088,255192,255114
 6.0000e+000 255416 -2.0378e+005 -3.5768e+006  8.9029e+005 51971 255289,255341,255315
 6.0000e+000 255393 -3.9958e+005 -3.4025e+006 -1.1924e+005 51971 255289,255367,255341
 6.0000e+000 255568 -4.0777e+005 -2.7333e+006 -2.7988e+005 51681 255441,255493,255467
 6.0000e+000 255545  2.6589e+004 -5.3388e+006  1.6670e+005 51681 255441,255519,255493
 6.0000e+000 255769 -3.8298e+005 -3.1264e+006  2.2766e+005 51291 255619,255697,255671
 6.0000e+000 255746 -3.4648e+005 -2.5594e+006 -2.2062e+005 51291 255593,255697,255619
 6.0000e+000 255723 -3.5549e+005 -4.0848e+006 -6.2525e+002 51291 255619,255671,255645
 6.0000e+000 255921 -5.2296e+005 -2.4262e+006  5.7072e+005 50951 255820,255872,255846
 6.0000e+000 255898 -5.3093e+005 -2.5147e+006  3.9569e+005 50951 255794,255872,255820
 6.0000e+000 256171 -9.4304e+005 -3.1686e+006 -7.1992e+003 50547 256024,256076,256050
 6.0000e+000 256148 -7.6899e+005 -3.4232e+006  3.0801e+005 50547 255972,256076,256024
 6.0000e+000 256125 -3.0735e+005 -3.9094e+006 -5.4130e+004 50547 255946,256076,255972
 6.0000e+000 256102 -8.0915e+005 -2.9701e+006  1.7535e+005 50547 255972,256024,255998
 6.0000e+000 256323  7.3763e+004 -4.2587e+006  8.2618e+005 50093 256196,256248,256222
 6.0000e+000 256300 -7.1729e+005 -2.5156e+006 -5.3941e+005 50093 256196,256274,256248
 6.0000e+000 256426 -6.1420e+002 -1.3193e+005 -7.5205e+002 49845 256348,256400,256374
 6.0000e+000 256627 -4.1196e+005 -3.7890e+006  2.2443e+005 49555 256477,256555,256503
 6.0000e+000 256604 -4.1567e+005 -3.6268e+006  2.3553e+005 49555 256451,256555,256477
 6.0000e+000 256581 -4.8156e+005 -3.2228e+006  2.5203e+005 49555 256503,256555,256529
 6.0000e+000 256828 -2.4771e+005 -3.1690e+006 -3.4082e+005 49056 256652,256730,256678
 6.0000e+000 256805 -5.1549e+005 -3.0659e+006 -1.4573e+005 49056 256652,256756,256730
 6.0000e+000 256782 -5.2048e+005 -3.3670e+006 -1.9755e+005 49056 256678,256730,256704
 6.0000e+000 256931 -9.7536e+005 -2.2735e+006 -4.5463e+005 48766 256853,256905,256879
 6.0000e+000 257083 -3.3209e+005 -4.0093e+006 -2.8672e+004 48568 256982,257034,257008
 6.0000e+000 257060 -1.7025e+005 -3.3156e+006 -3.0390e+005 48568 256956,257034,256982
 6.0000e+000 257186 -3.3194e+003 -2.0435e+006  1.6462e+003 48228 257108,257160,257134
 6.0000e+000 257338 -4.1440e+005 -1.9639e+006  5.6795e+005 47888 257237,257289,257263
 6.0000e+000 257315 -4.5052e+005 -2.0816e+006  5.4631e+005 47888 257211,257289,257237
 6.0000e+000 257539 -3.6390e+005 -3.5964e+006  1.2867e+005 47548 257363,257441,257415
 6.0000e+000 257516 -5.7581e+005 -3.5134e+006 -5.8325e+004 47548 257363,257467,257441
 6.0000e+000 257493 -4.7682e+005 -2.8772e+006 -6.6191e+004 47548 257363,257415,257389
 6.0000e+000 257740 -2.4424e+005 -3.3844e+006  2.7013e+005 46994 257564,257642,257616
 6.0000e+000 257717 -3.9854e+005 -2.9193e+006  1.0732e+005 46994 257564,257668,257642
 6.0000e+000 257694 -6.6564e+005 -3.3878e+006 -6.8068e+004 46994 257564,257616,257590
 6.0000e+000 257843 -7.4593e+005 -3.4218e+006  1.4270e+005 46654 257765,257817,257791
 6.0000e+000 257995 -7.0148e+005 -3.1584e+006  2.2961e+005 46364 257894,257946,257920
 6.0000e+000 257972 -6.2098e+005 -3.8862e+006 -1.7776e+005 46364 257868,257946,257894
 6.0000e+000 258147 -2.5186e+005 -3.0367e+006  1.4009e+005 46024 258046,258098,258072
 6.0000e+000 258124 -4.6985e+005 -3.2638e+006  3.1147e+003 46024 258020,258098,258046
 6.0000e+000 258250 -6.9024e+005 -2.9202e+006  5.2714e+005 45741 258172,258224,258198
 6.0000e+000 258402 -1.9283e+005 -3.0414e+006  2.5176e+005 45401 258301,258353,258327
 6.0000e+000 258379 -4.7104e+005 -2.4796e+006  1.8918e+005 45401 258275,258353,258301
 6.0000e+000 258603 -5.2890e+005 -1.9210e+006  1.0094e+005 45071 258427,258505,258479
 6.0000e+000 258580 -4.0360e+005 -4.0271e+006  4.0918e+005 45071 258427,258531,258505
 6.0000e+000 258557 -2.3176e+005 -2.2895e+006  2.4980e+005 45071 258427,258479,258453
 6.0000e+000 258755 -2.9210e+005 -2.9524e+006 -5.3055e+004 44681 258654,258706,258680
 6.0000e+000 258732 -2.2643e+005 -3.3093e+006 -4.8661e+004 44681 258628,258706,258654
 6.0000e+000 258907 -3.8766e+005 -2.6857e+006 -2.8288e+005 44157 258806,258858,258832
 6.0000e+000 258884 -6.8332e+005 -2.3335e+006 -2.4586e+005 44157 258780,258858,258806
 6.0000e+000 259010 -5.0157e+005 -1.9221e+006 -4.0007e+003 43705 258932,258984,258958
 6.0000e+000 259113 -3.2799e+005 -4.1158e+006  3.1501e+005 43284 259035,259087,259061
 6.0000e+000 259216 -5.1405e+005 -3.8428e+006 -2.3343e+005 42954 259138,259190,259164
 6.0000e+000 259319 -9.2363e+005 -2.0820e+006 -1.2018e+004 42116 259241,259293,259267
 6.0000e+000 259422 -4.0643e+005 -3.4132e+006 -2.0696e+005 41804 259344,259396,259370
 6.0000e+000 259525 -5.6111e+005 -4.1884e+006  3.7948e+005 41219 259447,259499,259473
 6.0000e+000 259628 -7.0876e+005 -2.6161e+006 -1.6941e+005 385 259550,259602,259576
 6.0000e+001 190120 -2.6140e+005 -2.3863e+006 -3.3418e+005 189630 189993,190045,190019
 6.0000e+001 190097 -6.2477e+005 -1.8941e+006 -2.0130e+005 189630 189993,190071,190045
 6.0000e+001 190319 -5.6461e+005 -6.6758e+006 -1.5897e+006 189312 190169,190221,190195
 6.0000e+001 190296 -3.9053e+005 -7.2158e+006 -1.0311e+006 189312 190169,190247,190221
 6.0000e+001 190273 -8.6935e+005 -6.6824e+006  4.0122e+004 189312 190143,190247,190169
 6.0000e+001 190518 -4.7882e+005  4.8829e+004  1.5969e+004 189124 190368,190446,190420
 6.0000e+001 190495 -5.6277e+005  2.1535e+004 -4.3732e+003 189124 190342,190446,190368
 6.0000e+001 190472 -9.9008e+005 -5.2927e+004 -4.8810e+004 189124 190368,190420,190394
 6.0000e+001 190619 -4.5083e+005 -4.5612e+004 -6.1631e+003 188926 190541,190593,190567
 6.0000e+001 190771 -4.8928e+005 -7.5657e+004  1.3869e+004 188614 190670,190722,190696
 6.0000e+001 190748 -5.6027e+005  1.6477e+005  5.4800e+004 188614 190644,190722,190670
 6.0000e+001 190972 -3.4152e+005 -6.6111e+005 -3.9039e+005 188324 190848,190900,190874
 6.0000e+001 190949 -4.0310e+005 -8.8587e+005 -5.2286e+005 188324 190796,190900,190848
 6.0000e+001 190926 -1.3753e+005 -5.1398e+005 -3.3667e+005 188324 190796,190848,190822
 6.0000e+001 191124 -7.3300e+005 -1.0586e+006 -1.8539e+005 188034 191023,191075,191049
 6.0000e+001 191101 -1.2156e+005 -1.2246e+006 -1.2409e+005 188034 190997,191075,191023
 6.0000e+001 191276  2.1586e+004 -3.4915e+006 -1.5202e+005 187836 191149,191201,191175
 6.0000e+001 191253 -5.8355e+005 -1.9025e+006  6.4749e+005 187836 191149,191227,191201
 6.0000e+001 191379 -4.2312e+005 -1.9089e+006 -1.8958e+005 187546 191301,191353,191327
 6.0000e+001 191531 -4.4673e+005 -6.7730e+006  5.7567e+005 187256 191430,191482,191456
 6.0000e+001 191508 -1.3335e+006 -9.9237e+006 -3.3455e+006 187256 191404,191482,191430
 6.0000e+001 191634 -7.6641e+005 -2.2426e+005  9.6146e+004 187058 191556,191608,191582
 6.0000e+001 191835 -4.8151e+005 -1.3184e+005  1.6506e+004 186860 191659,191711,191685
 6.0000e+001 191812 -4.5795e+005 -4.4768e+005 -5.7014e+004 186860 191659,191737,191711
 6.0000e+001 191789 -5.2644e+005 -3.0078e+005  2.1814e+005 186860 191659,191763,191737
 6.0000e+001 191987 -2.4508e+004 -1.4265e+006 -1.2760e+005 186662 191886,191938,191912
 6.0000e+001 191964 -1.0582e+005 -2.3283e+006  4.8814e+005 186662 191860,191938,191886
 6.0000e+001 192090 -4.3689e+005 -2.5867e+006 -3.6474e+005 186486 192012,192064,192038
 6.0000e+001 192242  3.7279e+004 -1.5161e+007 -4.7777e+005 186288 192115,192167,192141
 6.0000e+001 192219 -1.1613e+006 -9.5157e+006  4.6258e+005 186288 192115,192193,192167
 6.0000e+001 192394  7.0244e+005 -1.2734e+007 -7.3750e+004 185935 192293,192345,192319
 6.0000e+001 192371 -8.3812e+005 -8.3046e+006 -1.0826e+006 185935 192267,192345,192293
 6.0000e+001 192546 -3.7197e+005 -3.4594e+006 -6.6045e+005 185675 192419,192471,192445
 6.0000e+001 192523 -9.2416e+005 -2.1091e+006 -7.8464e+005 185675 192419,192497,192471
 6.0000e+001 192649 -4.3312e+005 -3.2618e+006 -6.3759e+005 185499 192571,192623,192597
 6.0000e+001 192801 -6.3291e+005 -9.9881e+005 -4.5653e+005 185301 192674,192726,192700
 6.0000e+001 192778 -3.3291e+005 -1.4380e+006  9.9022e+005 185301 192674,192752,192726
 6.0000e+001 193002 -1.0285e+005 -1.3303e+006 -5.5069e+005 185046 192852,192930,192878
 6.0000e+001 192979 -5.3442e+005 -2.8987e+006 -3.4603e+005 185046 192826,192930,192852
 6.0000e+001 192956  6.8449e+005 -3.8557e+006  1.9047e+005 185046 192878,192930,192904
 6.0000e+001 193203  4.5174e+005 -1.1063e+007 -1.2959e+006 184798 193079,193131,193105
 6.0000e+001 193180 -1.0476e+006 -6.4130e+006 -8.0945e+005 184798 193027,193131,193079
 6.0000e+001 193157 -2.5302e+005 -6.2569e+006 -4.4324e+004 184798 193027,193079,193053
 6.0000e+001 193404 -2.8626e+005 -7.2337e+006 -2.0112e+006 184600 193254,193306,193280
 6.0000e+001 193381 -1.0524e+006 -2.6274e+006 -2.2256e+005 184600 193254,193332,193306
 6.0000e+001 193358 -1.2243e+006 -8.3315e+005 -7.3225e+005 184600 193228,193332,193254
 6.0000e+001 193556 -8.0494e+005 -5.9096e+005 -6.4422e+005 184402 193429,193481,193455
 6.0000e+001 193533 -6.3613e+005 -6.3409e+005 -6.1127e+005 184402 193429,193507,193481
 6.0000e+001 193708 -6.5333e+005 -2.5529e+006 -2.3699e+005 184204 193607,193659,193633
 6.0000e+001 193685 -3.7908e+005 -1.1266e+007 -2.1458e+006 184204 193581,193659,193607
 6.0000e+001 193860 -7.3585e+005 -1.3951e+006  2.6906e+005 183908 193759,193811,193785
 6.0000e+001 193837 -1.4707e+005 -1.6984e+006  4.5123e+005 183908 193733,193811,193759
 6.0000e+001 194061 -2.6088e+005 -7.5642e+005  2.2843e+005 183710 193911,193989,193937
 6.0000e+001 194038 -6.1871e+005 -1.3456e+006  5.9720e+005 183710 193885,193989,193911
 6.0000e+001 194015 -5.8982e+005 -1.6725e+006  5.3832e+005 183710 193937,193989,193963
 6.0000e+001 194262 -1.6306e+005 -3.4394e+006 -8.1170e+005 183420 194086,194164,194112
 6.0000e+001 194239 -2.3725e+005 -4.2378e+006 -1.5025e+006 183420 194086,194190,194164
 6.0000e+001 194216  5.7986e+005 -6.4870e+006  6.9094e+005 183420 194112,194164,194138
 6.0000e+001 194414 -8.4643e+005 -7.3186e+006 -1.1552e+006 183222 194287,194339,194313
 6.0000e+001 194391 -9.7494e+004 -4.0816e+006 -7.6725e+005 183222 194287,194365,194339
 6.0000e+001 194517 -8.7905e+005 -2.0323e+006 -3.4886e+005 183024 194439,194491,194465
 6.0000e+001 194718  2.7309e+006 -1.9460e+007  1.0143e+006 182734 194568,194620,194594
 6.0000e+001 194695 -1.3737e+006 -5.8424e+006 -4.9067e+006 182734 194542,194620,194568
 6.0000e+001 194672 -4.9297e+006 -2.7811e+006 -2.2686e+006 182734 194542,194646,194620
 6.0000e+001 194870 -6.3762e+004 -3.9262e+005  3.7473e+005 182444 194769,194821,194795
 6.0000e+001 194847 -1.5541e+005 -9.5962e+005  5.4100e+005 182444 194743,194821,194769
 6.0000e+001 195071 -3.2738e+005 -1.8819e+006  8.7131e+005 182154 194895,194947,194921
 6.0000e+001 195048 -3.4385e+005 -8.3238e+005  1.8808e+005 182154 194895,194999,194947
 6.0000e+001 195025 -2.8636e+005 -3.5365e+005  2.6148e+005 182154 194947,194999,194973
 6.0000e+001 195223 -3.0223e+005 -7.6143e+005 -2.5278e+005 181814 195096,195148,195122
 6.0000e+001 195200 -5.6259e+005 -2.3485e+006 -1.2782e+006 181814 195096,195174,195148
 6.0000e+001 195375 -4.9906e+004 -1.3297e+005  2.6740e+004 181524 195248,195300,195274
 6.0000e+001 195352 -1.7073e+004 -3.1211e+005  5.4556e+004 181524 195248,195326,195300
 6.0000e+001 195527 -2.5413e+005 -2.5011e+006  5.1776e+004 181326 195426,195478,195452
 6.0000e+001 195504 -1.2188e+006 -3.1499e+006  6.9364e+005 181326 195400,195478,195426
 6.0000e+001 195679 -3.3732e+005 -1.0912e+007 -1.3449e+006 180936 195578,195630,195604
 6.0000e+001 195656 -3.8109e+005 -5.6557e+006 -9.3486e+005 180936 195552,195630,195578
 6.0000e+001 195831 -4.6120e+005 -3.7842e+005 -1.7945e+005 180646 195704,195756,195730
 6.0000e+001 195808 -7.3484e+005 -2.4744e+004  1.4852e+004 180646 195704,195782,195756
 6.0000e+001 196032 -1.5656e+005 -2.2027e+006  2.0211e+005 180306 195882,195960,195934
 6.0000e+001 196009 -4.8443e+004 -9.6051e+005 -1.0314e+005 180306 195856,195960,195882
 6.0000e+001 195986 -3.8241e+003 -2.2378e+006  1.4751e+005 180306 195882,195934,195908
 6.0000e+001 196233 -2.6652e+005 -1.8329e+005 -9.4079e+005 179944 196057,196109,196083
 6.0000e+001 196210 -9.1667e+005 -3.3218e+006  3.8230e+005 179944 196057,196135,196109
 6.0000e+001 196187 -2.0216e+006  4.5490e+006 -1.4939e+006 179944 196057,196161,196135
 6.0000e+001 196385 -6.8212e+005 -8.7365e+005 -6.2295e+005 179604 196258,196310,196284
 6.0000e+001 196362 -9.0236e+005 -1.1795e+006 -1.1347e+006 179604 196258,196336,196310
 6.0000e+001 196586 -9.6909e+005 -6.6465e+005 -7.6567e+005 179114 196410,196488,196436
 6.0000e+001 196563 -2.9121e+005 -2.8840e+006 -9.1000e+005 179114 196410,196514,196488
 6.0000e+001 196540 -6.2165e+003 -6.0818e+005 -6.0324e+004 179114 196436,196488,196462
 6.0000e+001 196738 -9.4216e+005 -1.9866e+006 -9.9670e+005 178674 196611,196663,196637
 6.0000e+001 196715  9.8804e+004 -4.6559e+006 -2.8497e+005 178674 196611,196689,196663
 6.0000e+001 196939  3.7554e+006 -1.1039e+007 -2.3745e+006 178334 196789,196867,196841
 6.0000e+001 196916 -1.9141e+006 -1.2153e+007  1.8251e+006 178334 196763,196867,196789
 6.0000e+001 196893 -7.1437e+006 -3.1767e+006 -8.7091e+006 178334 196789,196841,196815
 6.0000e+001 197091 -3.9873e+005 -3.8091e+006 -9.3166e+005 177930 196990,197042,197016
 6.0000e+001 197068 -5.7809e+005 -4.2861e+006 -4.7605e+005 177930 196964,197042,196990
 6.0000e+001 197194 -3.5771e+002 -3.0334e+005 -5.4074e+002 177732 197116,197168,197142
 6.0000e+001 197346 -3.4119e+005 -4.4619e+006 -3.4981e+005 177534 197219,197271,197245
 6.0000e+001 197323  2.7519e+005 -6.5403e+006  7.6316e+005 177534 197219,197297,197271
 6.0000e+001 197547 -8.7692e+005 -5.8893e+006 -1.8930e+006 177130 197397,197449,197423
 6.0000e+001 197524 -2.3004e+006 -5.8579e+006 -3.1336e+006 177130 197397,197475,197449
 6.0000e+001 197501 -2.2261e+006 -1.0654e+007 -3.8041e+006 177130 197371,197475,197397
 6.0000e+001 197748 -1.1536e+005 -5.0197e+006  7.1846e+004 176790 197598,197676,197624
 6.0000e+001 197725 -7.7005e+003 -4.3047e+006  1.8403e+005 176790 197572,197676,197598
 6.0000e+001 197702 -1.2986e+005 -4.6602e+006  1.4590e+005 176790 197624,197676,197650
 6.0000e+001 197900 -2.6901e+005 -2.7757e+006 -3.5116e+005 176300 197773,197825,197799
 6.0000e+001 197877  1.2282e+005 -4.4338e+006 -2.5589e+005 176300 197773,197851,197825
 6.0000e+001 198052 -5.3637e+005 -6.8349e+006 -1.2614e+006 176010 197925,197977,197951
 6.0000e+001 198029 -4.1913e+005 -5.2120e+006 -1.2893e+006 176010 197925,198003,197977
 6.0000e+001 198204 -1.3669e+006 -3.7848e+006 -1.3348e+006 175670 198103,198155,198129
 6.0000e+001 198181 -1.4669e+006 -2.8847e+006 -6.9038e+005 175670 198077,198155,198103
 6.0000e+001 198405  8.4587e+003 -4.7251e+006 -7.9370e+005 175266 198255,198307,198281
 6.0000e+001 198382  5.6417e+004 -5.2674e+006 -1.2469e+006 175266 198229,198307,198255
 6.0000e+001 198359 -1.0481e+006 -4.1408e+006 -2.0832e+006 175266 198229,198333,198307
 6.0000e+001 198606  1.1428e+003 -1.7660e+004 -1.4530e+002 174876 198430,198508,198482
 6.0000e+001 198583  1.1754e+002 -1.8662e+004  7.3460e+003 174876 198430,198534,198508
 6.0000e+001 198560 -3.5129e+003 -3.8172e+003 -4.2902e+003 174876 198430,198482,198456
 6.0000e+001 198758 -1.8702e+003 -1.9666e+003 -3.1523e+003 174536 198657,198709,198683
 6.0000e+001 198735 -2.2281e+003 -8.8987e+002 -1.1291e+003 174536 198631,198709,198657
 6.0000e+001 199008 -1.1494e+006 -6.2366e+006 -2.2436e+005 174132 198835,198913,198887
 6.0000e+001 198985 -5.3297e+005 -2.4767e+006  3.2218e+005 174132 198809,198913,198835
 6.0000e+001 198962 -7.6087e+005 -2.8862e+006 -1.9520e+006 174132 198783,198913,198809
 6.0000e+001 198939 -4.6975e+005 -6.3845e+006 -8.8248e+004 174132 198835,198887,198861
 6.0000e+001 199160 -1.1588e+006 -2.8665e+006 -7.9740e+005 173842 199059,199111,199085
 6.0000e+001 199137 -6.4718e+005 -1.6633e+006 -4.0243e+005 173842 199033,199111,199059
 6.0000e+001 199361 -7.3165e+005 -1.7405e+006  5.9220e+005 173438 199237,199289,199263
 6.0000e+001 199338  9.9531e+004 -2.8781e+006  6.6756e+005 173438 199211,199289,199237
 6.0000e+001 199315  2.9638e+005 -5.2553e+006 -1.3201e+006 173438 199185,199289,199211
 6.0000e+001 199513 -3.6787e+005 -3.9017e+006 -7.5504e+005 173190 199386,199438,199412
 6.0000e+001 199490 -7.5977e+005 -4.7637e+006 -1.3288e+005 173190 199386,199464,199438
 6.0000e+001 199665 -5.2960e+005 -1.7347e+006  2.8533e+005 172750 199564,199616,199590
 6.0000e+001 199642 -9.9215e+005 -9.5961e+005 -1.0752e+004 172750 199538,199616,199564
 6.0000e+001 199817 -7.8858e+004 -1.5639e+006 -4.3996e+005 172524 199690,199742,199716
 6.0000e+001 199794 -9.3736e+004 -1.0505e+006 -4.8792e+005 172524 199690,199768,199742
 6.0000e+001 199969 -3.3647e+003 -6.0722e+006 -1.5088e+005 172348 199842,199894,199868
 6.0000e+001 199946 -8.1419e+005 -6.2728e+006 -1.8356e+005 172348 199842,199920,199894
 6.0000e+001 200121  7.1815e+004 -8.7253e+005 -1.2650e+005 172008 199994,200046,200020
 6.0000e+001 200098 -1.0024e+005 -1.8259e+005 -5.8759e+004 172008 199994,200072,200046
 6.0000e+001 200273 -1.4313e+006 -7.6432e+006 -2.2204e+006 171668 200172,200224,200198
 6.0000e+001 200250 -1.1039e+006 -7.7093e+006 -1.6323e+006 171668 200146,200224,200172
 6.0000e+001 200474  3.4182e+005 -5.0828e+006 -7.7491e+005 171264 200350,200402,200376
 6.0000e+001 200451 -2.0898e+005 -5.3629e+006 -1.0179e+006 171264 200324,200402,200350
 6.0000e+001 200428 -3.7251e+005 -3.5905e+006  1.1564e+006 171264 200298,200402,200324
 6.0000e+001 200626 -6.9237e+005 -5.5948e+006 -7.3245e+005 170832 200525,200577,200551
 6.0000e+001 200603 -2.8491e+005 -3.1355e+006 -3.0709e+005 170832 200499,200577,200525
 6.0000e+001 200827 -1.3811e+005 -6.4263e+005  1.9512e+005 170492 200677,200729,200703
 6.0000e+001 200804 -6.0641e+005 -2.9882e+005 -1.0707e+005 170492 200651,200729,200677
 6.0000e+001 200781 -3.5944e+005 -4.3699e+005 -2.7713e+005 170492 200651,200755,200729
 6.0000e+001 201077  1.6628e+005 -3.4132e+005  1.4375e+004 170088 200878,200956,200904
 6.0000e+001 201054 -1.6952e+005 -6.3366e+005 -3.3100e+005 170088 200852,200956,200878
 6.0000e+001 201031  8.2792e+004 -3.3631e+005  4.3344e+005 170088 200904,200956,200930
 6.0000e+001 201008  7.8454e+005 -1.9251e+006  5.7091e+005 170088 200852,200982,200956
 6.0000e+001 201278 -6.5433e+005 -4.5389e+006 -1.9041e+006 169798 201102,201154,201128
 6.0000e+001 201255 -1.1052e+006 -5.8381e+006 -2.2358e+006 169798 201102,201206,201154
 6.0000e+001 201232 -1.9736e+006 -1.7494e+006 -6.4542e+005 169798 201154,201206,201180
 6.0000e+001 201430 -5.2570e+004 -1.1765e+006 -3.0871e+005 169337 201303,201355,201329
 6.0000e+001 201407 -1.3973e+005 -3.4378e+005 -8.2453e+004 169337 201303,201381,201355
 6.0000e+001 201631 -3.2719e+005 -1.3888e+006  2.1624e+004 168883 201481,201559,201507
 6.0000e+001 201608 -4.6610e+005 -1.3588e+006  3.0426e+004 168883 201455,201559,201481
 6.0000e+001 201585 -1.9128e+005 -4.9928e+005  1.4525e+005 168883 201507,201559,201533
 6.0000e+001 201832  2.4954e+005 -8.7825e+006  2.4982e+005 168479 201682,201734,201708
 6.0000e+001 201809 -2.3444e+006 -6.5344e+006 -1.7320e+006 168479 201656,201734,201682
 6.0000e+001 201786 -1.8977e+006 -4.7461e+006 -1.8385e+005 168479 201656,201760,201734
 6.0000e+001 202033 -2.3414e+005 -3.0077e+006  2.4155e+005 167825 201883,201935,201909
 6.0000e+001 202010 -1.3504e+006 -4.0407e+006 -1.6093e+006 167825 201857,201935,201883
 6.0000e+001 201987  3.0708e+005 -1.0529e+007 -7.0861e+005 167825 201857,201961,201935
 6.0000e+001 202234 -2.0620e+006 -2.9229e+006 -1.6950e+006 167435 202058,202136,202084
 6.0000e+001 202211 -9.9744e+005 -5.3285e+006  9.9544e+005 167435 202058,202162,202136
 6.0000e+001 202188 -1.2831e+006 -1.4975e+006 -5.8812e+005 167435 202084,202136,202110
 6.0000e+001 202386 -8.2823e+003 -6.1386e+005  1.4056e+005 167002 202285,202337,202311
 6.0000e+001 202363 -1.4382e+005 -1.7899e+005  1.2730e+005 167002 202259,202337,202285
 6.0000e+001 202538 -1.0436e+006 -4.1461e+006 -2.5060e+006 166662 202411,202463,202437
 6.0000e+001 202515 -1.2256e+006 -3.1118e+006 -2.4018e+006 166662 202411,202489,202463
 6.0000e+001 202690  7.8038e+004 -1.1164e+006 -4.5384e+005 166322 202589,202641,202615
 6.0000e+001 202667 -1.8514e+004 -3.8945e+005  3.1678e+004 166322 202563,202641,202589
 6.0000e+001 202891 -1.9336e+005 -3.8979e+005 -1.4429e+005 165918 202715,202767,202741
 6.0000e+001 202868 -4.0535e+005 -1.5611e+006 -8.1637e+005 165918 202715,202793,202767
 6.0000e+001 202845 -1.0231e+006 -1.9018e+006 -5.5998e+005 165918 202715,202819,202793
 6.0000e+001 203092  1.4698e+005 -1.5287e+006 -1.0647e+005 165628 202916,202968,202942
 6.0000e+001 203069 -2.6064e+005 -3.2490e+005 -2.2009e+005 165628 202916,202994,202968
 6.0000e+001 203046 -5.6478e+004 -3.7544e+005 -1.4004e+005 165628 202916,203020,202994
 6.0000e+001 203293 -4.8026e+006 -3.2872e+006 -2.8520e+006 165266 203143,203195,203169
 6.0000e+001 203270 -1.9758e+006 -6.7076e+006 -7.2987e+005 165266 203143,203221,203195
 6.0000e+001 203247 -1.1629e+006 -7.3645e+006 -1.4901e+006 165266 203117,203221,203143
 6.0000e+001 203445 -1.5125e+005 -4.4561e+005  1.6217e+005 164826 203318,203370,203344
 6.0000e+001 203422 -2.9857e+004 -2.7156e+005 -1.7218e+004 164826 203318,203396,203370
 6.0000e+001 203597 -2.0253e+005 -3.0795e+006  9.1397e+004 164386 203470,203522,203496
 6.0000e+001 203574 -4.8937e+005 -3.2466e+006 -6.1439e+005 164386 203470,203548,203522
 6.0000e+001 203798 -7.7158e+004 -1.9330e+006  1.0253e+005 163996 203622,203674,203648
 6.0000e+001 203775 -9.2001e+005 -3.1650e+005 -1.0469e+005 163996 203622,203726,203674
 6.0000e+001 203752 -1.1182e+006 -8.2088e+005  3.4260e+005 163996 203674,203726,203700
 6.0000e+001 203901 -1.5037e+005 -2.6551e+006 -5.1620e+005 163770 203823,203875,203849
 6.0000e+001 204053 -1.3831e+006 -3.8857e+006 -1.3271e+006 163474 203952,204004,203978
 6.0000e+001 204030 -1.3982e+006 -3.6569e+006 -9.2043e+005 163474 203926,204004,203952
 6.0000e+001 204205 -6.8219e+004 -9.0586e+005 -3.4381e+005 163034 204104,204156,204130
 6.0000e+001 204182 -2.5435e+005 -7.1237e+005 -1.0804e+005 163034 204078,204156,204104
 6.0000e+001 204357 -1.1077e+005 -1.6591e+006  1.1606e+005 162624 204256,204308,204282
 6.0000e+001 204334  1.2973e+005 -6.0456e+005  1.7865e+005 162624 204230,204308,204256
 6.0000e+001 204509 -3.4379e+004 -2.0248e+005  8.9874e+004 162200 204382,204434,204408
 6.0000e+001 204486 -3.7907e+004 -1.2428e+005  5.8419e+004 162200 204382,204460,204434
 6.0000e+001 204710  2.4507e+000  3.0682e+000 -1.4917e+000 161810 204560,204638,204586
 6.0000e+001 204687 -2.9658e-001 -4.5478e+000  1.1192e+000 161810 204534,204638,204560
 6.0000e+001 204664 -9.0306e+000 -1.2686e+000  3.2669e+000 161810 204586,204638,204612
 6.0000e+001 204862 -1.6052e+006 -1.4592e+006 -1.1320e+006 161406 204735,204787,204761
 6.0000e+001 204839 -2.9715e+006 -3.6953e+005 -1.4002e+006 161406 204735,204813,204787
 6.0000e+001 205014  9.6459e-002  2.5486e-001  1.5679e-001 161180 204887,204939,204913
 6.0000e+001 204991 -2.0051e-001 -5.2979e-001 -3.2593e-001 161180 204887,204965,204939
 6.0000e+001 205215 -6.2971e+005 -1.9588e+006 -1.4013e+006 160726 205039,205091,205065
 6.0000e+001 205192 -1.1951e+006 -4.3243e+006 -1.1548e+006 160726 205039,205143,205091
 6.0000e+001 205169 -1.5748e+006 -1.9014e+006 -1.3667e+006 160726 205091,205143,205117
 6.0000e+001 205416 -4.6632e+005 -2.6543e+005  3.4862e+005 160272 205292,205344,205318
 6.0000e+001 205393 -3.4864e+005 -3.4941e+005  4.3038e+005 160272 205240,205344,205292
 6.0000e+001 205370 -2.2334e+005 -7.7243e+004  8.9505e+004 160272 205240,205292,205266
 6.0000e+001 205568 -2.7785e+000 -3.8017e-001 -1.0278e+000 159932 205441,205493,205467
 6.0000e+001 205545  7.5229e-001  1.0293e-001  2.7827e-001 159932 205441,205519,205493
 6.0000e+001 205720 -9.4568e+004 -1.3500e+005  1.0429e+005 159542 205593,205645,205619
 6.0000e+001 205697 -1.3375e+005 -1.8864e+005  1.3615e+005 159542 205593,205671,205645
 6.0000e+001 205872 -1.5471e+000 -2.2230e-003 -5.8644e-002 159252 205745,205797,205771
 6.0000e+001 205849  1.2940e+000  1.8593e-003  4.9051e-002 159252 205745,205823,205797
 6.0000e+001 206024 -3.9861e+005 -6.3046e+004 -1.0544e+005 159004 205923,205975,205949
 6.0000e+001 206001 -2.0812e+005 -3.1604e+004  8.0644e+004 159004 205897,205975,205923
 6.0000e+001 206127 -5.1207e+006 -4.3270e+006  2.2543e+003 158364 206049,206101,206075
 6.0000e+001 206328  2.9872e+003 -1.7632e+004  6.8986e+003 157960 206178,206256,206204
 6.0000e+001 206305 -2.2087e+003 -1.5487e+004  1.0033e+004 157960 206152,206256,206178
 6.0000e+001 206282 -6.2850e+003 -1.1988e+003  3.2375e+003 157960 206204,206256,206230
 6.0000e+001 206529 -1.8180e+006 -8.2470e+006  1.2335e+006 157648 206405,206457,206431
 6.0000e+001 206506 -4.0489e+006 -4.2086e+006  5.7009e+005 157648 206379,206457,206405
 6.0000e+001 206483 -3.2908e+006 -3.2884e+006  1.5486e+006 157648 206353,206457,206379
 6.0000e+001 206730 -7.4180e+005 -5.3948e+005  5.9457e+005 157208 206554,206606,206580
 6.0000e+001 206707 -4.1486e+005 -3.2878e+005  3.6994e+005 157208 206554,206632,206606
 6.0000e+001 206684 -6.0728e+005 -3.4484e+005  2.4338e+005 157208 206554,206658,206632
 6.0000e+001 206882 -5.2097e-001 -1.1421e+000 -7.7135e-001 157010 206755,206807,206781
 6.0000e+001 206859  2.9999e-001  6.5764e-001  4.4417e-001 157010 206755,206833,206807
 6.0000e+001 207034 -2.0050e+002  3.0713e+001  1.3934e+002 156620 206907,206959,206933
 6.0000e+001 207011  8.1604e+000 -9.9992e+000  2.4776e+001 156620 206907,206985,206959
 6.0000e+001 207186 -1.8819e+003 -1.3965e+006  5.1376e+004 156330 207085,207137,207111
 6.0000e+001 207163 -1.8708e+005 -1.4908e+006 -4.7358e+005 156330 207059,207137,207085
 6.0000e+001 207387 -7.5026e+005 -2.8431e+006  3.5127e+005 155890 207211,207289,207237
 6.0000e+001 207364 -1.7332e+006 -3.1892e+006 -1.3339e+006 155890 207211,207315,207289
 6.0000e+001 207341 -7.1280e+005 -2.3891e+006  6.3388e+005 155890 207237,207289,207263
 6.0000e+001 207588 -5.2798e+005 -2.4587e+007  8.8678e+006 155436 207438,207490,207464
 6.0000e+001 207565 -1.4019e+006 -1.7748e+007 -1.0458e+006 155436 207412,207490,207438
 6.0000e+001 207542 -2.8689e+006 -9.8884e+006 -1.2843e+006 155436 207412,207516,207490
 6.0000e+001 207789  1.8845e+006 -3.6294e+007 -2.1662e+006 155260 207639,207691,207665
 6.0000e+001 207766 -4.4197e+006 -1.2114e+007  5.3974e+006 155260 207613,207691,207639
 6.0000e+001 207743 -1.2690e+006 -9.2944e+006  6.6682e+004 155260 207613,207717,207691
 6.0000e+001 207990 -6.2407e-003  6.3695e-001 -1.4867e-001 154920 207840,207918,207892
 6.0000e+001 207967 -1.4094e-002 -5.9734e-001  9.1753e-002 154920 207814,207918,207840
 6.0000e+001 207944  4.7398e-002  1.4485e-001  8.2858e-002 154920 207840,207892,207866
 6.0000e+001 208191 -1.8022e+005 -3.5869e+005  1.6024e+005 154630 208015,208093,208041
 6.0000e+001 208168 -8.4292e+003 -8.9036e+004 -5.6041e+003 154630 208015,208119,208093
 6.0000e+001 208145 -1.4868e+004 -2.8160e+004 -2.0178e+004 154630 208041,208093,208067
 6.0000e+001 208343  7.3552e-002  2.2787e-004  4.0939e-003 154240 208216,208268,208242
 6.0000e+001 208320 -1.4063e-001 -4.3568e-004 -7.8275e-003 154240 208216,208294,208268
 6.0000e+001 208495  1.6153e+006 -1.2041e+007 -2.2384e+006 153950 208394,208446,208420
 6.0000e+001 208472 -1.1383e+006 -5.7054e+006  2.1415e+006 153950 208368,208446,208394
 6.0000e+001 208647 -2.1268e+006 -3.4398e+006  4.9481e+006 153603 208520,208572,208546
 6.0000e+001 208624 -3.0831e+006 -3.2651e+006 -1.8224e+006 153603 208520,208598,208572
 6.0000e+001 208848 -6.7798e+005  1.9955e+004  4.1308e+005 153149 208698,208776,208724
 6.0000e+001 208825 -1.1413e+005 -3.5314e+005  2.0073e+005 153149 208672,208776,208698
 6.0000e+001 208802 -5.9564e+005 -2.6678e+005  4.0128e+005 153149 208724,208776,208750
 6.0000e+001 209000 -7.8520e+005 -3.6442e+006 -2.9512e+004 152859 208873,208925,208899
 6.0000e+001 208977 -2.5804e+005 -7.8117e+006  7.2335e+005 152859 208873,208951,208925
 6.0000e+001 209152  4.2372e+005 -5.6650e+006  2.6722e+005 152569 209051,209103,209077
 6.0000e+001 209129  2.9668e+005 -6.8270e+006 -4.0314e+005 152569 209025,209103,209051
 6.0000e+001 209304 -3.1909e-001 -4.4371e-001 -3.7627e-001 152065 209177,209229,209203
 6.0000e+001 209281  7.2938e-001  1.0142e+000  8.6009e-001 152065 209177,209255,209229
 6.0000e+001 209456 -1.5205e+006 -4.1141e+006 -3.8688e+005 151775 209355,209407,209381
 6.0000e+001 209433 -4.9474e+005 -9.7578e+006 -2.4556e+005 151775 209329,209407,209355
 6.0000e+001 209608 -8.7951e+005 -7.4278e+006 -1.5619e+006 151371 209481,209533,209507
 6.0000e+001 209585  1.0364e+006 -1.2734e+007 -2.9540e+004 151371 209481,209559,209533
 6.0000e+001 209760 -9.4940e+004 -1.3949e+005  8.7153e+004 150981 209659,209711,209685
 6.0000e+001 209737 -1.3415e+004 -1.6999e+005 -4.9307e+004 150981 209633,209711,209659
 6.0000e+001 209912  2.6249e+006 -3.6782e+007 -3.1814e+006 150619 209811,209863,209837
 6.0000e+001 209889 -3.3285e+006 -1.5775e+007  4.0345e+006 150619 209785,209863,209811
 6.0000e+001 210064 -2.9166e+003 -3.3659e+005  9.9141e+004 150279 209937,209989,209963
 6.0000e+001 210041 -7.4537e+004 -5.9038e+005  1.4576e+005 150279 209937,210015,209989
 6.0000e+001 210265 -2.4446e+006 -8.9633e+006 -1.1154e+005 149989 210115,210167,210141
 6.0000e+001 210242 -2.2082e+005 -9.5958e+006 -1.0651e+006 149989 210115,210193,210167
 6.0000e+001 210219 -1.1686e+005 -1.1021e+007 -1.0336e+006 149989 210089,210193,210115
 6.0000e+001 210417 -3.2127e+005 -2.4090e+005  1.8612e+005 149599 210316,210368,210342
 6.0000e+001 210394 -1.2841e+004 -8.4043e+005  1.9512e+005 149599 210290,210368,210316
 6.0000e+001 210618 -2.5111e+006 -1.5508e+007  4.5149e+006 149095 210468,210520,210494
 6.0000e+001 210595 -3.0965e+006 -1.5547e+007  3.2718e+006 149095 210442,210520,210468
 6.0000e+001 210572 -1.4921e+006 -1.9930e+007  3.3892e+006 149095 210442,210546,210520
 6.0000e+001 210819 -4.7663e-001 -2.2179e-001  8.0348e-002 148748 210695,210747,210721
 6.0000e+001 210796  7.2271e-001  1.3868e+000 -6.9378e-001 148748 210669,210747,210695
 6.0000e+001 210773 -1.6711e+000 -4.2360e+000  2.5326e+000 148748 210643,210747,210669
 6.0000e+001 210971 -9.9716e+001  3.9627e+001 -1.5460e+002 148408 210870,210922,210896
 6.0000e+001 210948 -3.5724e+002 -1.4378e+002 -4.1694e+002 148408 210844,210922,210870
 6.0000e+001 211123 -5.3853e+005 -4.9713e+006  9.2561e+005 148118 210996,211048,211022
 6.0000e+001 211100 -2.2235e+006 -5.5375e+006  3.1864e+006 148118 210996,211074,211048
 6.0000e+001 211275 -1.1724e+006 -4.3542e+006  1.7932e+006 147778 211148,211200,211174
 6.0000e+001 211252 -2.3955e+006 -8.4097e+006  4.7470e+006 147778 211148,211226,211200
 6.0000e+001 211427 -5.9755e+005 -3.5676e+006  1.1167e+006 147324 211326,211378,211352
 6.0000e+001 211404 -7.7472e+005 -2.6829e+006  1.3771e+006 147324 211300,211378,211326
 6.0000e+001 211628 -5.3836e+005 -6.0086e+005  2.2713e+005 147012 211452,211504,211478
 6.0000e+001 211605 -5.3688e+005 -1.1880e+005  3.2201e+005 147012 211452,211556,211504
 6.0000e+001 211582 -3.8602e+005 -7.6377e+005  7.5766e+005 147012 211504,211556,211530
 6.0000e+001 211829 -2.4276e+006 -3.5963e+006  1.1424e+006 146636 211679,211757,211731
 6.0000e+001 211806  1.0691e+006 -5.8058e+006  1.2321e+006 146636 211653,211757,211679
 6.0000e+001 211783 -1.8981e+005 -5.1231e+006  3.7273e+006 146636 211679,211731,211705
 6.0000e+001 211981 -6.3452e+002 -2.3667e+002  1.8346e+001 146246 211880,211932,211906
 6.0000e+001 211958 -6.6943e+002 -3.6549e+002 -8.2165e+000 146246 211854,211932,211880
 6.0000e+001 212133 -1.5589e+004 -1.5628e+003  8.6629e+003 145956 212006,212058,212032
 6.0000e+001 212110 -3.4744e+004 -2.2469e+004  2.1990e+004 145956 212006,212084,212058
 6.0000e+001 212285 -9.7273e+002  6.5977e+002 -1.1935e+002 145544 212184,212236,212210
 6.0000e+001 212262 -7.0284e+002 -1.1417e+001  1.7819e+002 145544 212158,212236,212184
 6.0000e+001 212486 -1.0495e+006 -1.6741e+007  4.5100e+006 144990 212362,212414,212388
 6.0000e+001 212463  2.1372e+005 -1.4143e+007  6.0544e+006 144990 212310,212414,212362
 6.0000e+001 212440 -4.4095e+006 -2.8408e+006  2.8579e+006 144990 212310,212362,212336
 6.0000e+001 212638 -1.4394e+004 -1.9844e+005  8.6800e+004 144600 212537,212589,212563
 6.0000e+001 212615 -4.8926e+004 -2.8145e+005  1.5158e+005 144600 212511,212589,212537
 6.0000e+001 212839 -4.8472e+005 -2.3220e+006  8.1468e+005 144210 212689,212741,212715
 6.0000e+001 212816 -4.5985e+005 -2.2435e+006  7.1958e+005 144210 212663,212741,212689
 6.0000e+001 212793 -5.2914e+005 -2.6659e+006  9.4178e+005 144210 212663,212767,212741
 6.0000e+001 212991 -3.4240e+002  4.9521e+001  6.8963e+001 143920 212890,212942,212916
 6.0000e+001 212968 -2.2713e+002  6.0925e+002  1.8781e+002 143920 212864,212942,212890
 6.0000e+001 213143 -4.6967e+002 -1.7504e+000  4.8913e+002 143480 213016,213068,213042
 6.0000e+001 213120 -3.6078e+002  1.7833e+002  3.2970e+002 143480 213016,213094,213068
 6.0000e+001 213295 -5.4237e+005 -4.8700e+006  2.0142e+006 142990 213194,213246,213220
 6.0000e+001 213272 -9.0550e+004 -2.1098e+006  1.5919e+006 142990 213168,213246,213194
 6.0000e+001 213447  1.5360e+005 -2.8658e+006  1.1987e+006 142600 213320,213372,213346
 6.0000e+001 213424 -3.9989e+005 -2.1316e+006  5.6193e+005 142600 213320,213398,213372
 6.0000e+001 213599 -7.5390e+003 -2.1713e+005 -4.3928e+004 142260 213472,213524,213498
 6.0000e+001 213576 -1.1287e+005 -2.9386e+005  2.2339e+005 142260 213472,213550,213524
 6.0000e+001 213751 -2.2460e+005 -8.2526e+005 -3.9544e+005 141870 213624,213676,213650
 6.0000e+001 213728 -3.9582e+005 -7.0099e+005 -6.6137e+005 141870 213624,213702,213676
 6.0000e+001 213903 -9.7685e+005 -1.0728e+006 -1.0273e+006 141530 213776,213828,213802
 6.0000e+001 213880 -2.7453e+005 -1.2799e+006 -5.2748e+005 141530 213776,213854,213828
 6.0000e+001 214055 -1.2776e+006 -7.4750e+004  1.9073e+005 141218 213928,213980,213954
 6.0000e+001 214032 -7.5092e+005 -1.5110e+005  5.6745e+004 141218 213928,214006,213980
 6.0000e+001 214207 -4.1975e+004 -2.2075e+004  3.0773e+004 140928 214080,214132,214106
 6.0000e+001 214184 -3.2614e+004 -1.9554e+004  2.9542e+004 140928 214080,214158,214132
 6.0000e+001 214359 -2.6523e+004 -1.2954e+005  3.6073e+003 140538 214232,214284,214258
 6.0000e+001 214336 -6.4524e+004 -4.9194e+005  2.5357e+005 140538 214232,214310,214284
 6.0000e+001 214560 -3.5130e+005 -4.5665e+006  1.0738e+006 140248 214384,214462,214410
 6.0000e+001 214537 -3.8488e+004 -2.6364e+006  6.9043e+005 140248 214384,214488,214462
 6.0000e+001 214514 -3.7122e+005 -2.5753e+006 -8.6324e+004 140248 214410,214462,214436
 6.0000e+001 214712 -9.6678e+005 -2.9867e+006  8.3372e+005 140000 214611,214663,214637
 6.0000e+001 214689 -5.6246e+005 -2.8873e+006  1.2540e+006 140000 214585,214663,214611
 6.0000e+001 214913 -1.2903e+005 -1.1788e+006 -3.8706e+005 139596 214737,214815,214763
 6.0000e+001 214890 -3.5983e+004 -4.8151e+005 -1.7031e+005 139596 214737,214841,214815
 6.0000e+001 214867  5.9171e+005 -4.1503e+006  3.7276e+005 139596 214763,214815,214789
 6.0000e+001 215016 -1.1705e+003 -6.2230e+002 -2.6619e+002 139420 214938,214990,214964
 6.0000e+001 215168 -4.3546e+006 -1.0862e+007  6.9813e+006 139130 215067,215119,215093
 6.0000e+001 215145 -1.5544e+006 -1.2567e+007  2.5529e+006 139130 215041,215119,215067
 6.0000e+001 215320 -2.0654e+006 -6.5760e+006  3.9684e+006 138790 215219,215271,215245
 6.0000e+001 215297 -1.9269e+006 -1.0852e+007  5.2389e+006 138790 215193,215271,215219
 6.0000e+001 215472 -6.8928e+003 -1.8004e+005  7.0366e+004 138514 215345,215397,215371
 6.0000e+001 215449 -5.5542e+003 -8.3886e+004 -6.2444e+003 138514 215345,215423,215397
 6.0000e+001 215624 -1.9429e+005 -8.6817e+006  2.0505e+006 138174 215497,215549,215523
 6.0000e+001 215601 -2.0002e+005 -6.3817e+006  1.6435e+006 138174 215497,215575,215549
 6.0000e+001 215776 -7.1162e+003 -2.1929e+005  2.3670e+005 137734 215649,215701,215675
 6.0000e+001 215753 -1.5856e+003 -9.3325e+004 -8.9420e+004 137734 215649,215727,215701
 6.0000e+001 215977  1.5688e+006 -1.5707e+007  3.0125e+006 137344 215801,215879,215827
 6.0000e+001 215954 -1.8750e+006 -6.4870e+006 -3.0843e+006 137344 215801,215905,215879
 6.0000e+001 215931 -7.3085e+005 -1.8302e+007  8.7216e+005 137344 215827,215879,215853
 6.0000e+001 216129 -5.6300e+005 -2.7270e+006  5.3895e+005 136940 216028,216080,216054
 6.0000e+001 216106 -6.3410e+005 -3.9993e+006  9.3893e+005 136940 216002,216080,216028
 6.0000e+001 216330 -2.5964e+006 -8.3952e+006  2.0719e+006 136600 216180,216232,216206
 6.0000e+001 216307 -3.8609e+005 -7.8776e+006  2.3808e+006 136600 216154,216232,216180
 6.0000e+001 216284 -2.4872e+006 -3.8534e+006  2.4254e+005 136600 216154,216258,216232
 6.0000e+001 216482 -3.2429e+005 -5.5060e+006  1.3864e+006 136260 216381,216433,216407
 6.0000e+001 216459 -5.0190e+005 -4.7931e+006  1.4002e+006 136260 216355,216433,216381
 6.0000e+001 216634 -1.0617e+006 -2.9025e+006  1.4581e+006 135970 216533,216585,216559
 6.0000e+001 216611 -4.7460e+005 -5.2275e+006  2.0852e+006 135970 216507,216585,216533
 6.0000e+001 216835 -1.5937e+005 -2.1366e+006 -6.9235e+004 135608 216685,216763,216711
 6.0000e+001 216812 -1.9730e+005 -2.0711e+006  3.4736e+004 135608 216659,216763,216685
 6.0000e+001 216789 -6.4556e+004 -2.0120e+006  2.1784e+004 135608 216711,216763,216737
 6.0000e+001 217036 -6.4449e+005 -1.5648e+006  9.1535e+005 135312 216912,216964,216938
 6.0000e+001 217013 -6.5895e+005 -3.7081e+006  1.8212e+006 135312 216886,216964,216912
 6.0000e+001 216990  7.2702e+005 -7.2888e+006  1.0653e+006 135312 216860,216964,216886
 6.0000e+001 217237 -1.0401e+005 -7.6161e+005  2.6936e+005 134908 217061,217139,217113
 6.0000e+001 217214 -1.6785e+005 -8.0424e+005  3.8818e+005 134908 217061,217165,217139
 6.0000e+001 217191 -1.4887e+005 -1.0286e+006  3.9028e+005 134908 217061,217113,217087
 6.0000e+001 217438 -1.5876e+006 -1.7736e+007  1.6678e+005 134568 217288,217366,217314
 6.0000e+001 217415  1.5768e+006 -2.8341e+007 -9.0793e+005 134568 217262,217366,217288
 6.0000e+001 217392 -6.4785e+005 -2.3118e+007 -1.8787e+006 134568 217314,217366,217340
 6.0000e+001 217590  2.6968e+003 -1.9406e+005  8.9463e+004 134106 217463,217515,217489
 6.0000e+001 217567 -9.3986e+003 -1.5873e+005  3.0202e+004 134106 217463,217541,217515
 6.0000e+001 217791 -2.5032e+006 -2.2804e+007 -7.5123e+006 133816 217641,217693,217667
 6.0000e+001 217768  3.8338e+006 -2.6417e+007  1.2398e+006 133816 217641,217719,217693
 6.0000e+001 217745 -1.2143e+007 -5.7090e+006  8.3263e+006 133816 217615,217719,217641
 6.0000e+001 217992 -4.4522e+006 -5.1098e+006  4.9157e+006 133355 217842,217920,217894
 6.0000e+001 217969  3.1544e+003 -1.1767e+007  2.4905e+006 133355 217816,217920,217842
 6.0000e+001 217946 -1.2885e+006 -2.9121e+006  1.2126e+006 133355 217842,217894,217868
 6.0000e+001 218193 -3.9897e+005 -8.0568e+006  3.9575e+005 132851 218017,218095,218069
 6.0000e+001 218170 -4.5520e+006 -8.7813e+006  7.0729e+006 132851 218017,218121,218095
 6.0000e+001 218147 -1.8486e+006 -3.4128e+006 -8.5813e+005 132851 218017,218069,218043
 6.0000e+001 218345 -3.2717e+004 -1.9092e+005  5.5419e+004 132511 218244,218296,218270
 6.0000e+001 218322 -1.7955e+004 -4.7905e+005  1.1178e+005 132511 218218,218296,218244
 6.0000e+001 218497  1.9922e+006 -3.0010e+007 -5.3727e+005 132235 218396,218448,218422
 6.0000e+001 218474 -6.2248e+005 -9.6492e+006  6.3126e+005 132235 218370,218448,218396
 6.0000e+001 218698  5.6093e+005 -1.1159e+007 -2.6563e+006 131945 218574,218626,218600
 6.0000e+001 218675 -9.0868e+005 -2.0595e+007 -5.4983e+005 131945 218522,218626,218574
 6.0000e+001 218652 -2.5852e+006 -9.9488e+006 -3.0153e+006 131945 218522,218574,218548
 6.0000e+001 218850 -3.2675e+005 -1.8933e+007  4.1471e+005 131655 218723,218775,218749
 6.0000e+001 218827  2.3417e+005 -1.2238e+007  3.3793e+005 131655 218723,218801,218775
 6.0000e+001 218953 -4.7408e+004 -4.0477e+005  4.6296e+004 131215 218875,218927,218901
 6.0000e+001 219105 -7.7091e+004 -2.2563e+006 -6.2747e+005 130875 218978,219030,219004
 6.0000e+001 219082 -2.1109e+005 -6.2512e+005 -1.7162e+005 130875 218978,219056,219030
 6.0000e+001 219306 -3.3141e+005 -1.5314e+006  6.3215e+004 130429 219156,219234,219208
 6.0000e+001 219283 -4.4915e+005 -7.5923e+005  2.1142e+005 130429 219130,219234,219156
 6.0000e+001 219260 -1.5404e+006 -1.8566e+006  4.2303e+005 130429 219156,219208,219182
 6.0000e+001 219507 -3.0287e+005 -1.0730e+006  4.4178e+005 130025 219383,219435,219409
 6.0000e+001 219484 -2.7312e+005 -1.3626e+006  5.7562e+005 130025 219331,219435,219383
 6.0000e+001 219461 -3.1280e+005 -8.2424e+005  3.3719e+005 130025 219331,219383,219357
 6.0000e+001 219659 -2.4707e+005 -5.2331e+006  5.3001e+005 129685 219558,219610,219584
 6.0000e+001 219636  7.0139e+005 -8.1921e+006 -4.2155e+006 129685 219532,219610,219558
 6.0000e+001 219860 -1.5795e+005 -9.9892e+005  5.3003e+005 129395 219710,219788,219762
 6.0000e+001 219837 -2.3061e+005 -1.0796e+006  4.7997e+005 129395 219684,219788,219710
 6.0000e+001 219814 -2.4238e+004 -1.3860e+006  2.4919e+005 129395 219710,219762,219736
 6.0000e+001 220061  3.9508e+004 -3.6371e+005  1.0270e+005 128991 219937,219989,219963
 6.0000e+001 220038  2.4636e+004 -5.2383e+005  6.4088e+004 128991 219885,219989,219937
 6.0000e+001 220015 -7.1235e+003 -7.3326e+005  1.4378e+005 128991 219885,219937,219911
 6.0000e+001 220262 -1.1937e+005 -1.7111e+005  2.5909e+004 128701 220086,220164,220112
 6.0000e+001 220239 -1.2133e+004 -4.9097e+005  1.4851e+005 128701 220086,220190,220164
 6.0000e+001 220216 -2.4092e+002 -1.9550e+005 -5.3061e+004 128701 220112,220164,220138
 6.0000e+001 220463 -3.6679e+006 -8.4694e+006  3.9515e+006 128297 220339,220391,220365
 6.0000e+001 220440  7.9402e+005 -1.5688e+007  2.1975e+006 128297 220313,220391,220339
 6.0000e+001 220417 -1.6721e+006 -2.1098e+007 -7.2104e+006 128297 220287,220391,220313
 6.0000e+001 220615 -1.0868e+006 -1.8242e+006 -1.0245e+006 128007 220488,220540,220514
 6.0000e+001 220592  9.9018e+005 -9.1052e+006 -3.4543e+005 128007 220488,220566,220540
 6.0000e+001 220767  8.2058e+004 -4.9208e+006 -8.9470e+004 127567 220640,220692,220666
 6.0000e+001 220744 -5.1336e+005 -1.5109e+006 -2.2094e+005 127567 220640,220718,220692
 6.0000e+001 220919 -1.8839e+006 -1.6187e+007 -2.0142e+006 127163 220792,220844,220818
 6.0000e+001 220896  5.5944e+005 -1.9361e+007  2.4012e+006 127163 220792,220870,220844
 6.0000e+001 221071 -2.2715e+006 -5.1444e+006  2.9788e+006 126915 220970,221022,220996
 6.0000e+001 221048 -2.5912e+006 -5.0355e+006  2.9281e+006 126915 220944,221022,220970
 6.0000e+001 221272 -2.1064e+006 -3.9859e+006  3.4320e+006 126461 221122,221174,221148
 6.0000e+001 221249 -2.5287e+006 -5.3261e+006 -4.2471e+005 126461 221122,221200,221174
 6.0000e+001 221226  4.2750e+005 -9.8030e+006 -2.3760e+006 126461 221096,221200,221122
 6.0000e+001 221375  7.2510e+000 -4.5729e+001  1.2094e+000 126213 221297,221349,221323
 6.0000e+001 221478  1.2765e-187 -5.7730e-188  6.2576e-188 125766 221400,221452,221426
 6.0000e+001 221679 -3.5674e+004 -2.6397e+005  5.7700e+004 125212 221503,221555,221529
 6.0000e+001 221656 -2.5144e+004 -3.0140e+005  1.9471e+004 125212 221503,221581,221555
 6.0000e+001 221633  3.6677e+004 -9.4625e+005  3.3813e+005 125212 221503,221607,221581
 6.0000e+001 221929 -2.8955e+003 -4.8996e+002 -1.0138e+003 124872 221782,221834,221808
 6.0000e+001 221906 -8.1174e+003 -7.1328e+002  4.3434e+003 124872 221756,221834,221782
 6.0000e+001 221883 -1.7946e+004 -9.5611e+002 -9.8894e+003 124872 221704,221834,221756
 6.0000e+001 221860 -2.2585e+004 -3.6773e+003 -3.7925e+003 124872 221704,221756,221730
 6.0000e+001 222130 -4.6642e+005 -8.4359e+006  1.5125e+005 124582 221980,222058,222006
 6.0000e+001 222107 -1.5559e+006 -8.1839e+006  3.9385e+005 124582 221954,222058,221980
 6.0000e+001 222084 -1.8701e+006 -8.0548e+006 -3.6405e+005 124582 222006,222058,222032
 6.0000e+001 222282 -1.8976e+006 -8.0226e+006 -2.5677e+006 124192 222181,222233,222207
 6.0000e+001 222259 -1.1557e+006 -6.4869e+006 -1.1150e+006 124192 222155,222233,222181
 6.0000e+001 222483 -4.5821e+005 -4.1563e+006 -2.2549e+006 123702 222333,222385,222359
 6.0000e+001 222460 -1.7449e+005 -1.8689e+006  2.8572e+005 123702 222333,222411,222385
 6.0000e+001 222437 -1.3901e+005 -4.7842e+005 -6.2555e+004 123702 222307,222411,222333
 6.0000e+001 222635 -5.2034e+005 -8.6224e+005 -4.4272e+005 123312 222508,222560,222534
 6.0000e+001 222612  2.8228e+005 -4.3086e+006 -3.4881e+005 123312 222508,222586,222560
 6.0000e+001 222787 -3.7793e+003 -1.4636e+005 -1.5131e+004 122858 222686,222738,222712
 6.0000e+001 222764 -2.5342e+003 -1.3731e+005 -1.7996e+004 122858 222660,222738,222686
 6.0000e+001 222939 -1.3787e+004 -3.5047e+005 -1.4592e+003 122568 222812,222864,222838
 6.0000e+001 222916  2.2285e+004 -2.0798e+005 -9.3054e+003 122568 222812,222890,222864
 6.0000e+001 223091 -1.2219e+006 -3.0196e+006 -2.6345e+005 122392 222964,223016,222990
 6.0000e+001 223068 -3.2120e+005 -2.6969e+006 -4.8965e+005 122392 222964,223042,223016
 6.0000e+001 223292 -8.1951e+005 -3.0481e+006 -4.9057e+005 121852 223142,223220,223194
 6.0000e+001 223269 -3.9247e+006 -1.3805e+006  8.3731e+004 121852 223116,223220,223142
 6.0000e+001 223246 -4.6699e+006 -3.0024e+006 -4.1506e+006 121852 223142,223194,223168
 6.0000e+001 223493 -5.9267e+005 -1.2404e+006  5.1301e+005 121406 223343,223395,223369
 6.0000e+001 223470 -1.4484e+006 -8.6813e+005  4.6421e+004 121406 223343,223421,223395
 6.0000e+001 223447 -3.7479e+005 -5.3920e+005  2.4380e+005 121406 223317,223421,223343
 6.0000e+001 223645  3.5967e+005 -1.0324e+007  1.2507e+006 121002 223544,223596,223570
 6.0000e+001 223622 -1.1903e+006 -5.8298e+006  1.4466e+006 121002 223518,223596,223544
 6.0000e+001 223846 -1.8036e+005 -1.0233e+006 -1.6332e+005 120662 223670,223748,223696
 6.0000e+001 223823 -1.8389e+005 -4.6453e+005  1.0112e+005 120662 223670,223774,223748
 6.0000e+001 223800 -1.2276e+006 -1.2995e+005 -3.7238e+005 120662 223696,223748,223722
 6.0000e+001 224047 -3.2707e+004 -4.2961e+005  9.3460e+004 120222 223897,223949,223923
 6.0000e+001 224024  2.1202e+005 -5.9251e+005 -5.4990e+004 120222 223871,223949,223897
 6.0000e+001 224001 -7.9881e+004 -3.7438e+005 -1.0630e+005 120222 223871,223975,223949
 6.0000e+001 224248 -7.6207e+004 -4.0218e+005 -3.5384e+005 119875 224124,224176,224150
 6.0000e+001 224225 -4.2763e+005 -1.0017e+006 -6.1107e+005 119875 224098,224176,224124
 6.0000e+001 224202 -6.2560e+004 -2.2056e+005  3.5966e+002 119875 224072,224176,224098
 6.0000e+001 224449  1.6743e+004 -4.8252e+005  2.0438e+004 119677 224325,224377,224351
 6.0000e+001 224426 -1.2338e+004 -5.9980e+005  2.2171e+003 119677 224299,224377,224325
 6.0000e+001 224403  1.5577e+003 -1.4514e+005  4.3354e+002 119677 224273,224377,224299
 6.0000e+001 224552 -2.8555e+004 -9.4452e+004 -2.2167e+004 119273 224474,224526,224500
 6.0000e+001 224704  2.2817e+004 -1.7238e+006 -3.0006e+005 118983 224603,224655,224629
 6.0000e+001 224681 -1.6531e+005 -1.1244e+006  1.2051e+003 118983 224577,224655,224603
 6.0000e+001 224856 -2.8134e+005 -1.4682e+006 -2.2912e+005 118529 224755,224807,224781
 6.0000e+001 224833 -7.3172e+004 -1.1809e+006 -8.4081e+004 118529 224729,224807,224755
 6.0000e+001 225008 -4.2076e+004 -1.2451e+006 -8.2493e+002 118353 224881,224933,224907
 6.0000e+001 224985 -1.4244e+004  8.0411e+004  1.0896e+004 118353 224881,224959,224933
 6.0000e+001 225209 -3.3204e+005 -5.6894e+006 -1.1813e+006 117949 225059,225137,225111
 6.0000e+001 225186 -3.5784e+005 -4.9378e+006  1.4155e+005 117949 225033,225137,225059
 6.0000e+001 225163 -3.0755e+005 -6.6062e+006 -7.0554e+005 117949 225059,225111,225085
 6.0000e+001 225410 -2.8943e+004 -6.4834e+006  8.3723e+005 117559 225260,225338,225312
 6.0000e+001 225387 -9.8754e+005 -6.8050e+006  5.4065e+005 117559 225234,225338,225260
 6.0000e+001 225364 -5.2568e+005 -4.4541e+006 -1.5308e+006 117559 225260,225312,225286
 6.0000e+001 225611 -1.1404e+006 -8.0645e+006 -2.9299e+006 117361 225461,225513,225487
 6.0000e+001 225588 -6.0658e+005 -8.6308e+006  1.1561e+006 117361 225461,225539,225513
 6.0000e+001 225565 -9.1667e+005 -7.8734e+006  1.6434e+006 117361 225435,225539,225461
 6.0000e+001 225812  4.0638e+005 -6.7124e+006 -8.5767e+005 116900 225636,225714,225662
 6.0000e+001 225789 -9.3970e+005 -3.8512e+006 -1.1266e+006 116900 225636,225740,225714
 6.0000e+001 225766 -2.9959e+003 -6.8518e+006 -1.4279e+005 116900 225662,225714,225688
 6.0000e+001 225964 -1.5927e+005 -3.2804e+006 -1.7929e+005 116560 225837,225889,225863
 6.0000e+001 225941  1.2775e+005 -4.8104e+006  1.4747e+005 116560 225837,225915,225889
 6.0000e+001 226165 -4.9482e+004 -7.7989e+005 -3.5329e+005 116106 226015,226093,226041
 6.0000e+001 226142 -5.1155e+005 -6.9660e+005 -7.1009e+005 116106 225989,226093,226015
 6.0000e+001 226119 -6.3121e+004 -4.3456e+005  7.1186e+004 116106 226041,226093,226067
 6.0000e+001 226268 -1.0831e+006 -4.5876e+006  7.6407e+005 115716 226190,226242,226216
 6.0000e+001 226420  6.4981e+004 -8.4246e+006  1.8903e+006 115376 226293,226345,226319
 6.0000e+001 226397 -3.3733e+004 -8.3897e+006  1.7934e+006 115376 226293,226371,226345
 6.0000e+001 226621 -5.5620e+005 -1.5626e+006  3.5681e+005 114972 226497,226549,226523
 6.0000e+001 226598 -4.6154e+005 -8.1452e+006 -3.8617e+005 114972 226445,226549,226497
 6.0000e+001 226575 -5.0500e+004 -4.2729e+006  7.9033e+005 114972 226445,226497,226471
 6.0000e+001 226773 -1.7223e+006 -1.7874e+006 -9.5590e+005 114670 226646,226698,226672
 6.0000e+001 226750  3.8288e+005 -5.3431e+006  5.9946e+005 114670 226646,226724,226698
 6.0000e+001 226974  2.9806e+004 -1.6946e+006 -2.2696e+005 114082 226798,226850,226824
 6.0000e+001 226951  9.3534e+004 -2.2007e+006 -5.0420e+004 114082 226798,226902,226850
 6.0000e+001 226928 -6.0761e+003 -3.1030e+006 -2.3446e+005 114082 226850,226902,226876
 6.0000e+001 227175 -6.0139e+005 -4.3623e+006 -1.9862e+006 113678 226999,227051,227025
 6.0000e+001 227152 -1.9347e+006 -8.1573e+006 -3.5170e+006 113678 226999,227077,227051
 6.0000e+001 227129 -2.6318e+006 -5.2871e+006 -3.0831e+006 113678 226999,227103,227077
 6.0000e+001 227425 -3.7816e+006 -8.4351e+006 -9.1853e+006 113274 227226,227278,227252
 6.0000e+001 227402 -7.7072e+005 -8.0480e+006 -2.1982e+006 113274 227226,227330,227278
 6.0000e+001 227379 -4.3339e+006 -5.1859e+006 -2.5427e+006 113274 227200,227330,227226
 6.0000e+001 227356 -1.8463e+006 -1.8160e+006 -2.0681e+006 113274 227278,227330,227304
 6.0000e+001 227626 -2.4524e+005 -3.0249e+006 -1.5465e+006 112934 227502,227554,227528
 6.0000e+001 227603  3.1602e+005 -2.2490e+006 -4.5528e+004 112934 227450,227554,227502
 6.0000e+001 227580 -1.3921e+006 -5.3717e+005  2.1890e+005 112934 227450,227502,227476
 6.0000e+001 227876 -1.3065e+005 -1.3432e+006 -5.4594e+004 112437 227677,227755,227703
 6.0000e+001 227853 -9.1531e+005 -1.6985e+006  1.1957e+006 112437 227677,227781,227755
 6.0000e+001 227830 -1.8427e+005 -7.3701e+005  3.0303e+005 112437 227703,227755,227729
 6.0000e+001 227807 -3.9151e+005 -4.7917e+006  1.0811e+005 112437 227651,227781,227677
 6.0000e+001 228126 -2.6001e+005 -4.6010e+006 -2.2823e+005 112041 227927,228005,227953
 6.0000e+001 228103 -7.6798e+005 -4.6117e+006 -2.7961e+005 112041 227927,228031,228005
 6.0000e+001 228080 -1.1073e+005 -5.8478e+006 -1.4597e+005 112041 227953,228005,227979
 6.0000e+001 228057 -1.0509e+006 -3.0390e+006 -4.5261e+005 112041 227901,228031,227927
 6.0000e+001 228327 -1.1964e+006 -2.6461e+006 -1.4852e+005 111693 228151,228203,228177
 6.0000e+001 228304 -2.9456e+005 -1.7074e+006 -7.6426e+005 111693 228151,228229,228203
 6.0000e+001 228281  3.3865e+005 -3.4879e+006  5.4202e+005 111693 228151,228255,228229
 6.0000e+001 228479 -4.2118e+006 -2.5713e+006 -4.2577e+006 111253 228352,228404,228378
 6.0000e+001 228456 -2.6199e+006 -5.0099e+005 -1.1100e+005 111253 228352,228430,228404
 6.0000e+001 228582 -2.7549e+002  8.3036e+002  7.5548e+002 110906 228504,228556,228530
 6.0000e+001 228783 -1.4460e+004 -1.7358e+006 -1.8728e+004 110416 228633,228711,228659
 6.0000e+001 228760  8.2196e+004 -1.3566e+006  8.0629e+003 110416 228607,228711,228633
 6.0000e+001 228737  3.3832e+004 -1.7570e+006 -5.6999e+004 110416 228659,228711,228685
 6.0000e+001 228935  8.0504e+003 -2.7619e+006 -6.1818e+005 110012 228808,228860,228834
 6.0000e+001 228912 -6.5665e+005 -5.0069e+006 -1.0733e+006 110012 228808,228886,228860
 6.0000e+001 229087 -8.7044e+005 -2.1761e+006 -1.1638e+006 109672 228960,229012,228986
 6.0000e+001 229064  3.1387e+005 -4.5702e+006 -4.8311e+005 109672 228960,229038,229012
 6.0000e+001 229190 -1.4376e+003 -1.6232e+005  1.5833e+004 109332 229112,229164,229138
 6.0000e+001 229391 -6.4671e+005 -1.5318e+005  2.2042e+005 109156 229267,229319,229293
 6.0000e+001 229368 -5.7975e+005 -8.3075e+005  4.1241e+005 109156 229215,229319,229267
 6.0000e+001 229345 -3.8153e+005 -3.4668e+005  1.5733e+005 109156 229215,229267,229241
 6.0000e+001 229543  7.9746e+005 -1.1333e+007  1.6230e+006 108752 229416,229468,229442
 6.0000e+001 229520 -1.0291e+006 -4.3985e+006 -7.0617e+005 108752 229416,229494,229468
 6.0000e+001 229744 -7.3848e+004 -6.5919e+006  1.6362e+005 108198 229594,229646,229620
 6.0000e+001 229721  4.2486e+005 -6.4431e+006 -2.1456e+005 108198 229594,229672,229646
 6.0000e+001 229698 -4.7567e+005 -5.7446e+006  9.9759e+004 108198 229568,229672,229594
 6.0000e+001 229847 -1.5548e+005 -1.7050e+006 -3.7797e+005 107758 229769,229821,229795
 6.0000e+001 230048 -7.3498e+005 -1.7918e+006 -2.4486e+005 107468 229898,229950,229924
 6.0000e+001 230025 -5.5974e+005 -1.4899e+006  2.9307e+005 107468 229872,229950,229898
 6.0000e+001 230002 -9.4611e+005 -1.7932e+006  5.3947e+005 107468 229872,229976,229950
 6.0000e+001 230298  2.4038e+004 -9.3733e+005  1.2007e+005 107121 230099,230203,230177
 6.0000e+001 230275  1.4295e+004 -1.8050e+006  9.6375e+004 107121 230073,230203,230099
 6.0000e+001 230252  2.0893e+005 -9.6325e+005 -1.7806e+004 107121 230099,230177,230151
 6.0000e+001 230229 -1.0735e+005 -7.3637e+005 -2.8134e+005 107121 230099,230151,230125
 6.0000e+001 230450  1.4455e+005 -1.9036e+006 -1.4363e+005 106823 230349,230401,230375
 6.0000e+001 230427 -8.4499e+004 -8.3937e+005  8.1231e+004 106823 230323,230401,230349
 6.0000e+001 230602 -2.8670e+006 -1.2253e+007 -8.5033e+006 106533 230501,230553,230527
 6.0000e+001 230579 -2.5619e+005 -1.2906e+007  1.7944e+006 106533 230475,230553,230501
 6.0000e+001 230803 -7.7273e+004 -2.0574e+006 -2.7577e+004 106029 230679,230731,230705
 6.0000e+001 230780  7.1500e+004 -1.4595e+006 -5.8139e+003 106029 230653,230731,230679
 6.0000e+001 230757  5.7049e+003 -1.7507e+006 -7.9687e+004 106029 230627,230731,230653
 6.0000e+001 231004 -9.6813e+004 -1.3048e+006  1.2868e+005 105689 230854,230906,230880
 6.0000e+001 230981  4.4818e+004 -1.5474e+006 -1.4513e+005 105689 230828,230906,230854
 6.0000e+001 230958 -3.7443e+005 -1.2847e+006 -3.5966e+005 105689 230828,230932,230906
 6.0000e+001 231156  5.5337e+005 -8.9641e+006 -5.9733e+005 105377 231055,231107,231081
 6.0000e+001 231133  2.2757e+004 -5.0365e+006  5.9474e+005 105377 231029,231107,231055
 6.0000e+001 231406 -3.9358e+005 -9.0282e+006 -1.7740e+006 104858 231207,231259,231233
 6.0000e+001 231383 -1.7642e+006 -9.2883e+006 -1.7528e+006 104858 231207,231311,231259
 6.0000e+001 231360 -7.1704e+005 -1.0639e+007 -2.6972e+006 104858 231259,231311,231285
 6.0000e+001 231337 -4.3584e+005 -1.2491e+007 -2.4477e+006 104858 231181,231311,231207
 6.0000e+001 231558 -1.6841e+006 -1.5925e+007  4.3330e+006 104418 231457,231509,231483
 6.0000e+001 231535 -2.9667e+006 -1.5524e+007 -7.9004e+006 104418 231431,231509,231457
 6.0000e+001 231710 -1.3381e+006 -1.4633e+006 -4.8970e+005 103978 231583,231635,231609
 6.0000e+001 231687 -8.6351e+005 -1.4212e+006 -7.6469e+005 103978 231583,231661,231635
 6.0000e+001 231862 -8.5293e+004 -2.9855e+006  7.3498e+004 103588 231761,231813,231787
 6.0000e+001 231839  2.1532e+004 -2.4246e+006 -1.8411e+004 103588 231735,231813,231761
 6.0000e+001 232014 -2.4011e+006 -9.8537e+006 -3.2407e+006 103248 231887,231939,231913
 6.0000e+001 231991 -2.4663e+006 -2.0159e+007 -7.8681e+006 103248 231887,231965,231939
 6.0000e+001 232215 -1.2463e+003 -6.8623e+004  2.9289e+003 102844 232039,232117,232065
 6.0000e+001 232192  5.1850e+003 -4.3462e+004  7.1719e+002 102844 232039,232143,232117
 6.0000e+001 232169 -1.0679e+004 -3.6129e+004 -1.9369e+004 102844 232065,232117,232091
 6.0000e+001 232416 -4.3252e+006 -1.1129e+007 -4.9675e+006 102554 232240,232318,232292
 6.0000e+001 232393  1.6023e+006 -1.8470e+007 -4.7914e+005 102554 232240,232344,232318
 6.0000e+001 232370 -5.9076e+006 -4.0441e+006 -1.0832e+006 102554 232240,232292,232266
 6.0000e+001 232568 -6.1322e+004 -1.2722e+006  5.1536e+004 102100 232441,232493,232467
 6.0000e+001 232545 -4.3239e+005 -1.4763e+006  4.0765e+005 102100 232441,232519,232493
 6.0000e+001 232769 -4.8039e+004 -5.8763e+005  1.0208e+005 101596 232645,232697,232671
 6.0000e+001 232746  1.9418e+004 -3.2264e+005  5.6251e+004 101596 232593,232697,232645
 6.0000e+001 232723 -1.6664e+004 -5.6605e+005  9.8715e+004 101596 232593,232645,232619
 6.0000e+001 232921 -3.6072e+002 -5.8304e+002  1.1008e+002 101420 232794,232846,232820
 6.0000e+001 232898 -8.2384e+002 -2.5515e+002  7.2388e+002 101420 232794,232872,232846
 6.0000e+001 233073 -1.1080e+006 -8.8001e+005 -1.5606e+005 101023 232946,232998,232972
 6.0000e+001 233050 -2.8766e+005 -1.9763e+006  6.7139e+005 101023 232946,233024,232998
 6.0000e+001 233225  3.2090e+002 -5.9688e+004 -4.9982e+002 100661 233098,233150,233124
 6.0000e+001 233202  1.4968e+002 -6.1376e+004 -1.5215e+002 100661 233098,233176,233150
 6.0000e+001 233426 -2.3328e+006 -8.1382e+006 -2.9526e+006 100265 233276,233328,233302
 6.0000e+001 233403 -1.0180e+006 -6.9166e+006 -4.3053e+005 100265 233276,233354,233328
 6.0000e+001 233380 -1.9492e+006 -8.3125e+006 -1.0966e+006 100265 233250,233354,233276
 6.0000e+001 233578 -1.1488e+003 -5.8067e+005  2.5973e+004 100032 233451,233503,233477
 6.0000e+001 233555 -2.6442e+004 -5.7517e+005  1.3114e+005 100032 233451,233529,233503
 6.0000e+001 233681 -3.3523e+005 -1.1653e+004 -9.5563e+004 99742 233603,233655,233629
 6.0000e+001 233784 -8.0307e+005 -2.7817e+006 -6.0508e+004 99402 233706,233758,233732
 6.0000e+001 233936 -6.3722e+005 -1.9751e+006  4.6400e+005 99062 233835,233887,233861
 6.0000e+001 233913 -5.6760e+005 -1.6652e+006  3.3873e+005 99062 233809,233887,233835
 6.0000e+001 234088 -8.6752e+005 -3.7671e+006  1.3498e+006 98772 233987,234039,234013
 6.0000e+001 234065 -3.8225e+005 -3.7259e+006  1.1053e+006 98772 233961,234039,233987
 6.0000e+001 234240 -1.4207e+004 -5.6200e+004  1.8837e+004 98160 234139,234191,234165
 6.0000e+001 234217 -1.7302e+004 -7.2686e+004 -8.4881e+003 98160 234113,234191,234139
 6.0000e+001 234441 -2.1663e+002  4.4285e+002  8.5429e+002 97820 234317,234369,234343
 6.0000e+001 234418 -2.1512e+002  2.0709e+002  2.8657e+002 97820 234291,234369,234317
 6.0000e+001 234395 -1.1226e+003  5.9663e+002 -1.1345e+002 97820 234265,234369,234291
 6.0000e+001 234593 -3.0082e+005 -1.6412e+006 -2.2445e+005 97366 234466,234518,234492
 6.0000e+001 234570  1.3416e+005 -3.7394e+006 -2.6727e+005 97366 234466,234544,234518
 6.0000e+001 234794 -8.2348e+005 -1.2786e+006 -8.3103e+005 96976 234618,234670,234644
 6.0000e+001 234771 -1.6303e+005 -2.7335e+006 -6.4570e+005 96976 234618,234722,234670
 6.0000e+001 234748 -5.4707e+005 -2.5208e+006 -1.3321e+006 96976 234670,234722,234696
 6.0000e+001 234946 -9.1831e+005 -1.4619e+006  5.5105e+005 96568 234845,234897,234871
 6.0000e+001 234923 -6.3537e+005 -8.7606e+005  1.0490e+006 96568 234819,234897,234845
 6.0000e+001 235196 -1.8783e+005 -8.3925e+005 -2.3966e+005 96216 234997,235075,235049
 6.0000e+001 235173  8.2581e+004 -4.0317e+006  1.1732e+006 96216 234997,235101,235075
 6.0000e+001 235150 -4.3347e+005 -1.0218e+006  1.0329e+005 96216 234997,235049,235023
 6.0000e+001 235127 -1.9890e+005 -4.2300e+006  9.1714e+005 96216 234971,235101,234997
 6.0000e+001 235348 -1.0553e+006 -1.7907e+006 -1.3316e+006 95863 235247,235299,235273
 6.0000e+001 235325 -8.0277e+005 -1.4541e+006 -1.0344e+006 95863 235221,235299,235247
 6.0000e+001 235500 -7.3357e+005 -2.5336e+006 -1.1286e+006 95339 235373,235425,235399
 6.0000e+001 235477 -5.8262e+005 -4.1513e+006  3.0251e+006 95339 235373,235451,235425
 6.0000e+001 235701  8.2552e+004 -3.6761e+006  8.0221e+005 95023 235525,235577,235551
 6.0000e+001 235678 -1.6468e+005 -3.5945e+006  7.3153e+005 95023 235525,235629,235577
 6.0000e+001 235655 -1.9317e+005 -6.2413e+006  1.2941e+006 95023 235577,235629,235603
 6.0000e+001 235853  5.0803e+005 -1.5297e+007  1.9842e+005 94671 235726,235778,235752
 6.0000e+001 235830  3.2717e+004 -1.5120e+007  6.5358e+004 94671 235726,235804,235778
 6.0000e+001 236005 -1.4216e+006 -9.1177e+006 -2.4246e+005 94261 235904,235956,235930
 6.0000e+001 235982 -2.5791e+005 -1.2911e+007 -4.0262e+006 94261 235878,235956,235904
 6.0000e+001 236206 -7.1553e+005 -8.6570e+005  1.1318e+006 93853 236056,236134,236082
 6.0000e+001 236183 -1.1670e+006 -1.0090e+006  4.8403e+005 93853 236030,236134,236056
 6.0000e+001 236160 -1.0331e+006 -1.1127e+006  9.5783e+005 93853 236082,236134,236108
 6.0000e+001 236407 -1.7778e+006 -5.5446e+006  2.7899e+005 93557 236257,236309,236283
 6.0000e+001 236384 -3.1900e+006 -6.4203e+006 -2.2767e+006 93557 236231,236309,236257
 6.0000e+001 236361  1.2738e+006 -2.0245e+007  2.0544e+006 93557 236231,236335,236309
 6.0000e+001 236559 -8.0269e+002 -3.6075e+004  1.1467e+004 93149 236432,236484,236458
 6.0000e+001 236536  1.5669e+004 -5.4518e+003  3.3638e+004 93149 236432,236510,236484
 6.0000e+001 236711 -1.0196e+005 -3.0287e+005  1.3348e+005 92853 236584,236636,236610
 6.0000e+001 236688 -3.2382e+004 -6.9697e+005  1.9224e+005 92853 236584,236662,236636
 6.0000e+001 236912 -1.8401e+005 -2.7718e+006  9.7988e+005 92501 236736,236788,236762
 6.0000e+001 236889 -5.0295e+005 -1.5187e+006  2.9212e+005 92501 236736,236840,236788
 6.0000e+001 236866 -6.3887e+005 -2.2210e+006  2.2280e+005 92501 236788,236840,236814
 6.0000e+001 237113 -1.2684e+005 -5.6610e+006  2.2909e+005 92291 236963,237041,237015
 6.0000e+001 237090  1.8534e+005 -3.1603e+006  8.2536e+004 92291 236937,237041,236963
 6.0000e+001 237067 -2.6471e+005 -5.1506e+006  1.1669e+006 92291 236963,237015,236989
 6.0000e+001 237265  1.2227e+005 -1.1214e+006 -4.9618e+005 91871 237138,237190,237164
 6.0000e+001 237242 -8.4822e+005 -3.0193e+006 -1.2945e+006 91871 237138,237216,237190
 6.0000e+001 237368 -8.6698e+002 -1.7961e+006  6.1957e+002 91581 237290,237342,237316
 6.0000e+001 237520 -3.1846e+004 -1.9568e+005  6.0114e+004 91184 237419,237471,237445
 6.0000e+001 237497 -9.3803e+004 -3.1116e+005 -3.8314e+004 91184 237393,237471,237419
 6.0000e+001 237672 -5.3608e+005 -1.4324e+006 -2.8890e+005 90894 237545,237597,237571
 6.0000e+001 237649 -2.3468e+005 -5.2200e+006  1.4268e+006 90894 237545,237623,237597
 6.0000e+001 237873 -8.0644e+005 -4.2267e+006  8.3108e+005 90490 237749,237801,237775
 6.0000e+001 237850 -5.9642e+005 -3.6216e+006  9.8021e+005 90490 237723,237801,237749
 6.0000e+001 237827 -1.1228e+006 -3.7485e+006 -6.3407e+005 90490 237697,237801,237723
 6.0000e+001 238074 -6.6210e+005 -6.4030e+006  3.9191e+005 90100 237898,237976,237950
 6.0000e+001 238051 -1.6904e+006 -6.4177e+006  1.1936e+005 90100 237898,238002,237976
 6.0000e+001 238028 -5.9379e+005 -4.9390e+006  3.5984e+005 90100 237898,237950,237924
 6.0000e+001 238275  5.6075e+004 -1.6695e+006  7.4176e+005 89696 238125,238177,238151
 6.0000e+001 238252 -4.6782e+005 -9.4318e+005 -8.4737e+005 89696 238099,238177,238125
 6.0000e+001 238229 -7.6814e+005 -2.2720e+006 -5.6579e+005 89696 238099,238203,238177
 6.0000e+001 238427  1.6875e+004 -5.6472e+004 -2.2838e+004 89206 238326,238378,238352
 6.0000e+001 238404 -1.8934e+004 -3.3026e+005 -5.9021e+004 89206 238300,238378,238326
 6.0000e+001 238579 -6.5027e+005 -3.3962e+006  1.3198e+006 88908 238452,238504,238478
 6.0000e+001 238556 -1.3414e+005 -2.7366e+006  1.3291e+005 88908 238452,238530,238504
 6.0000e+001 238682 -3.5322e+002 -6.8554e+002 -5.8797e+002 88568 238604,238656,238630
 6.0000e+001 238883  2.2344e+005 -5.4607e+006  1.6837e+006 88278 238733,238811,238785
 6.0000e+001 238860 -7.5252e+005 -2.6384e+006  1.4823e+006 88278 238707,238811,238733
 6.0000e+001 238837 -1.9844e+005 -5.8352e+006  1.0756e+006 88278 238733,238785,238759
 6.0000e+001 239035 -1.3966e+006 -4.6750e+006 -4.0876e+005 87988 238908,238960,238934
 6.0000e+001 239012 -1.6643e+006 -2.3639e+006  4.6768e+005 87988 238908,238986,238960
 6.0000e+001 239138 -7.9875e+004 -6.8302e+005  7.7331e+004 87648 239060,239112,239086
 6.0000e+001 239339 -1.3264e+006 -3.3506e+006 -2.2019e+006 87358 239163,239215,239189
 6.0000e+001 239316 -1.3241e+006 -1.9742e+006 -4.1843e+005 87358 239163,239241,239215
 6.0000e+001 239293 -8.8783e+005 -1.2215e+006 -8.0471e+005 87358 239163,239267,239241
 6.0000e+001 239589 -2.3870e+002 -1.4102e+004  2.4915e+003 86961 239390,239468,239416
 6.0000e+001 239566 -1.8978e+004 -9.5697e+003  1.5886e+004 86961 239390,239494,239468
 6.0000e+001 239543 -1.7840e+003 -7.6186e+002  8.1741e+002 86961 239416,239468,239442
 6.0000e+001 239520 -1.0481e+004 -5.1762e+004  6.1461e+003 86961 239364,239494,239390
 6.0000e+001 239741 -1.1141e+006 -2.7323e+006 -2.7063e+005 86621 239640,239692,239666
 6.0000e+001 239718 -1.5663e+005 -4.0822e+006 -1.2014e+006 86621 239614,239692,239640
 6.0000e+001 239893 -5.7488e+005 -4.8223e+006  1.4023e+006 86217 239792,239844,239818
 6.0000e+001 239870 -6.9497e+005 -3.9049e+006  9.2818e+005 86217 239766,239844,239792
 6.0000e+001 240045 -7.7019e+005 -3.7655e+006  7.7628e+005 85827 239918,239970,239944
 6.0000e+001 240022 -2.0874e+005 -3.6050e+006  2.7870e+005 85827 239918,239996,239970
 6.0000e+001 240197 -6.5393e+005 -7.2661e+006  1.0651e+006 85437 240096,240148,240122
 6.0000e+001 240174 -1.5853e+006 -6.9441e+005 -4.7837e+005 85437 240070,240148,240096
 6.0000e+001 240349  2.8391e+004 -1.1152e+006  2.2601e+005 85147 240222,240274,240248
 6.0000e+001 240326 -6.6679e+004 -7.6054e+005 -1.3368e+005 85147 240222,240300,240274
 6.0000e+001 240501 -1.4466e+005 -1.1009e+006  4.9927e+005 84807 240374,240426,240400
 6.0000e+001 240478 -1.6499e+006 -2.4323e+006  1.7021e+006 84807 240374,240452,240426
 6.0000e+001 240653 -2.0504e+003  2.8555e+002 -1.9262e+002 84303 240552,240604,240578
 6.0000e+001 240630 -1.5369e+003 -1.0622e+002  9.7060e+002 84303 240526,240604,240552
 6.0000e+001 240854 -2.1392e+005 -1.0570e+007 -5.0973e+006 83929 240704,240756,240730
 6.0000e+001 240831  1.5367e+006 -8.4689e+006  2.3162e+006 83929 240704,240782,240756
 6.0000e+001 240808 -3.1481e+006  1.7806e+006  2.6117e+006 83929 240678,240782,240704
 6.0000e+001 241055  6.9301e+002 -1.8039e+004 -3.8553e+003 83539 240879,240957,240931
 6.0000e+001 241032  5.8132e+001 -1.8991e+004 -2.5162e+003 83539 240879,240983,240957
 6.0000e+001 241009 -5.2958e+003 -2.7490e+003 -4.1012e+003 83539 240879,240931,240905
 6.0000e+001 241207 -3.6214e+004 -8.6016e+005  9.7102e+004 83079 241106,241158,241132
 6.0000e+001 241184  6.5981e+003 -1.1452e+006  7.6604e+004 83079 241080,241158,241106
 6.0000e+001 241408 -1.6232e+005 -1.8839e+006 -1.1546e+006 82665 241232,241284,241258
 6.0000e+001 241385 -5.4435e+005 -1.8665e+006 -3.7135e+006 82665 241232,241336,241284
 6.0000e+001 241362 -3.7960e+006 -1.0833e+007  6.4119e+006 82665 241284,241336,241310
 6.0000e+001 241658 -2.2521e+005 -3.9345e+006  5.4429e+005 82375 241485,241563,241511
 6.0000e+001 241635 -2.5670e+003 -2.1744e+006  1.9528e+005 82375 241433,241563,241485
 6.0000e+001 241612 -1.0077e+005 -2.5995e+006  1.8346e+005 82375 241433,241485,241459
 6.0000e+001 241589 -6.3922e+005 -4.2386e+006  7.6593e+005 82375 241511,241563,241537
 6.0000e+001 241810 -1.0064e+006 -2.9790e+006 -4.6007e+005 82035 241683,241735,241709
 6.0000e+001 241787 -1.6182e+006 -4.1695e+006  1.0429e+006 82035 241683,241761,241735
 6.0000e+001 241962 -8.8308e+005 -2.6273e+006  6.1892e+005 81695 241861,241913,241887
 6.0000e+001 241939 -2.3876e+005 -3.3595e+006 -8.3070e+005 81695 241835,241913,241861
 6.0000e+001 242114 -1.2866e+006 -6.1768e+006  2.3007e+006 81355 242013,242065,242039
 6.0000e+001 242091 -2.6887e+005 -3.0304e+006  9.0160e+005 81355 241987,242065,242013
 6.0000e+001 242266 -8.9579e+003 -4.9823e+005  1.3412e+004 80951 242139,242191,242165
 6.0000e+001 242243 -1.9605e+005 -1.2182e+006 -1.0947e+005 80951 242139,242217,242191
 6.0000e+001 242467 -4.2442e+005 -4.8732e+006  5.3507e+005 80311 242291,242369,242343
 6.0000e+001 242444  1.4478e+005 -2.4217e+006  4.2061e+005 80311 242291,242395,242369
 6.0000e+001 242421 -1.5942e+005 -1.2135e+006  2.0514e+005 80311 242291,242343,242317
 6.0000e+001 242619 -1.3909e+006 -2.6411e+006  4.2888e+005 80021 242492,242544,242518
 6.0000e+001 242596 -1.3237e+006 -2.4484e+006  1.4647e+006 80021 242492,242570,242544
 6.0000e+001 242869 -2.6892e+005 -5.9621e+004 -1.1062e+005 79631 242644,242722,242696
 6.0000e+001 242846 -3.1318e+004 -1.3839e+006  1.9428e+005 79631 242644,242774,242722
 6.0000e+001 242823  2.1927e+005 -4.6472e+005  7.9374e+004 79631 242722,242774,242748
 6.0000e+001 242800 -2.6765e+005 -2.2980e+005  7.6545e+004 79631 242644,242696,242670
 6.0000e+001 243070 -3.7465e+005 -1.5208e+007  3.7702e+006 79341 242920,242972,242946
 6.0000e+001 243047 -8.5029e+005 -7.3205e+006 -2.9303e+005 79341 242920,242998,242972
 6.0000e+001 243024 -8.8026e+005 -4.6791e+006  2.0299e+006 79341 242894,242998,242920
 6.0000e+001 243222 -5.2249e+005 -3.8215e+006  1.6934e+006 78801 243121,243173,243147
 6.0000e+001 243199 -4.3360e+005 -3.6849e+006  1.4063e+006 78801 243095,243173,243121
 6.0000e+001 243423 -1.0086e+006 -5.1906e+006 -1.2418e+005 78511 243273,243325,243299
 6.0000e+001 243400  5.1724e+005 -9.5260e+006  2.1095e+006 78511 243273,243351,243325
 6.0000e+001 243377 -4.8176e+003 -9.7630e+006  2.2090e+005 78511 243247,243351,243273
 6.0000e+001 243624 -5.0012e+005 -4.2662e+006 -1.5277e+006 78107 243474,243552,243526
 6.0000e+001 243601 -6.2151e+005 -5.1279e+006 -1.4810e+006 78107 243448,243552,243474
 6.0000e+001 243578 -2.8036e+005 -4.0992e+006 -1.3884e+006 78107 243474,243526,243500
 6.0000e+001 243776 -7.3450e+005 -4.8382e+006 -1.1556e+006 77653 243649,243701,243675
 6.0000e+001 243753 -1.6497e+006 -7.0308e+006 -3.8784e+005 77653 243649,243727,243701
 6.0000e+001 243977 -3.8641e+005 -5.7427e+006  2.5901e+004 77093 243801,243853,243827
 6.0000e+001 243954 -6.1772e+004 -4.7689e+006  6.8095e+005 77093 243801,243879,243853
 6.0000e+001 243931 -3.9262e+005 -1.7984e+006 -2.0391e+005 77093 243801,243905,243879
 6.0000e+001 244080 -6.4376e+005 -7.3874e+006  4.2427e+005 76791 244002,244054,244028
 6.0000e+001 244232 -4.2450e+005 -4.4943e+006  1.5047e+005 76311 244131,244183,244157
 6.0000e+001 244209 -1.9383e+005 -9.7331e+006  8.7692e+005 76311 244105,244183,244131
 6.0000e+001 244433 -9.1546e+005 -1.7568e+007  4.7254e+006 75903 244283,244335,244309
 6.0000e+001 244410 -1.4600e+006 -1.0379e+007 -6.7843e+005 75903 244283,244361,244335
 6.0000e+001 244387 -2.0773e+006 -9.2772e+006  1.0448e+005 75903 244257,244361,244283
 6.0000e+001 244585  2.7583e+005 -1.7400e+007  1.4697e+006 75419 244458,244510,244484
 6.0000e+001 244562 -8.9282e+005 -9.0247e+006 -4.4659e+005 75419 244458,244536,244510
 6.0000e+001 244737 -3.7069e+005 -4.3287e+005 -1.6586e+005 75215 244636,244688,244662
 6.0000e+001 244714 -1.7468e+005 -4.3838e+006 -1.4944e+005 75215 244610,244688,244636
 6.0000e+001 244889 -8.4766e+005 -4.9632e+006 -4.6975e+005 74857 244788,244840,244814
 6.0000e+001 244866 -9.8876e+004 -2.0824e+006 -2.3158e+005 74857 244762,244840,244788
 6.0000e+001 245041 -7.7853e+004 -1.1502e+006 -6.6444e+005 74653 244940,244992,244966
 6.0000e+001 245018 -1.7907e+005 -2.6214e+005  4.9805e+005 74653 244914,244992,244940
 6.0000e+001 245144 -1.4466e+006 -5.6345e+006 -1.3364e+006 74359 245066,245118,245092
 6.0000e+001 245296 -6.3129e+004 -9.7640e+005 -3.0131e+005 74007 245169,245221,245195
 6.0000e+001 245273 -3.5219e+005 -1.6791e+006 -5.2017e+005 74007 245169,245247,245221
 6.0000e+001 245448 -1.0998e+006 -6.7663e+006  1.2124e+006 73711 245321,245373,245347
 6.0000e+001 245425 -3.1592e+005 -6.5283e+006 -1.7561e+006 73711 245321,245399,245373
 6.0000e+001 245600  6.7826e+005 -1.2752e+007 -9.1279e+005 73301 245499,245551,245525
 6.0000e+001 245577 -1.4753e+006 -8.9237e+006  2.0687e+006 73301 245473,245551,245499
 6.0000e+001 245752 -1.8297e+006 -2.6954e+006 -1.6706e+006 72995 245625,245677,245651
 6.0000e+001 245729  3.7254e+005 -1.0462e+007 -1.2244e+006 72995 245625,245703,245677
 6.0000e+001 245953 -1.6307e+006 -9.6686e+006  1.0255e+006 72585 245777,245829,245803
 6.0000e+001 245930 -7.6615e+005 -1.5044e+007  3.3981e+006 72585 245777,245855,245829
 6.0000e+001 245907 -4.3264e+005 -6.4899e+006  4.7774e+005 72585 245777,245881,245855
 6.0000e+001 246154 -3.9036e+005 -6.8172e+006  1.1997e+006 72127 246030,246082,246056
 6.0000e+001 246131 -9.2500e+005 -8.0384e+006  6.2928e+005 72127 245978,246082,246030
 6.0000e+001 246108 -8.7630e+004 -8.4439e+006  2.2614e+005 72127 245978,246030,246004
 6.0000e+001 246257 -1.7736e+006 -2.7881e+005 -3.6349e+004 71737 246179,246231,246205
 6.0000e+001 246360  1.6515e+005 -3.0642e+006  4.9514e+005 71447 246282,246334,246308
 6.0000e+001 246512 -8.0113e+004 -2.5385e+006  9.5874e+005 71157 246385,246437,246411
 6.0000e+001 246489 -7.1910e+004 -1.9747e+006 -1.0611e+005 71157 246385,246463,246437
 6.0000e+001 246664 -1.5963e+005 -2.1825e+006 -3.8546e+005 70753 246537,246589,246563
 6.0000e+001 246641 -6.2195e+005 -1.1300e+006 -1.7543e+005 70753 246537,246615,246589
 6.0000e+001 246865 -2.2074e+006 -9.2492e+006  6.4534e+006 70249 246715,246767,246741
 6.0000e+001 246842 -2.0196e+006 -8.3599e+006 -4.6702e+005 70249 246715,246793,246767
 6.0000e+001 246819 -1.5122e+005 -1.1291e+007 -2.1040e+006 70249 246689,246793,246715
 6.0000e+001 247066 -3.3078e+004 -1.8568e+006  2.8779e+005 70023 246916,246994,246942
 6.0000e+001 247043 -3.6808e+004 -1.8048e+006  3.1190e+005 70023 246890,246994,246916
 6.0000e+001 247020  9.9221e+003 -1.7061e+006  3.1407e+005 70023 246942,246994,246968
 6.0000e+001 247267 -3.0771e+005 -3.4344e+006 -2.5254e+005 69633 247091,247143,247117
 6.0000e+001 247244 -4.5736e+004 -2.1990e+006 -9.9117e+004 69633 247091,247169,247143
 6.0000e+001 247221  3.2368e+004 -2.6102e+006 -2.7162e+005 69633 247091,247195,247169
 6.0000e+001 247419 -1.0185e+006 -5.2006e+006  6.1312e+005 69457 247318,247370,247344
 6.0000e+001 247396 -1.1357e+006 -2.7983e+006  8.6069e+005 69457 247292,247370,247318
 6.0000e+001 247522 -9.9132e+001 -2.0595e+002  4.4307e+001 69209 247444,247496,247470
 6.0000e+001 247625 -1.7666e+006 -2.3807e+006 -1.5008e+006 68919 247547,247599,247573
 6.0000e+001 247777  1.7057e+005 -7.0389e+006 -3.6288e+005 68579 247650,247702,247676
 6.0000e+001 247754 -2.6592e+005 -1.8391e+006 -1.8588e+005 68579 247650,247728,247702
 6.0000e+001 247929 -3.1413e+004 -3.1113e+006  1.0550e+006 68289 247802,247854,247828
 6.0000e+001 247906 -2.5592e+005 -1.4577e+006 -4.2566e+005 68289 247802,247880,247854
 6.0000e+001 248081 -5.9981e+005 -4.6687e+006  1.5423e+006 67949 247980,248032,248006
 6.0000e+001 248058 -7.3079e+005 -5.6757e+005  3.3273e+005 67949 247954,248032,247980
 6.0000e+001 248233 -2.0301e+006 -5.2504e+006 -6.5464e+005 67616 248132,248184,248158
 6.0000e+001 248210 -5.2405e+005 -5.8648e+006 -2.6741e+005 67616 248106,248184,248132
 6.0000e+001 248434 -1.7171e+005 -4.5681e+006 -3.1652e+005 67212 248284,248336,248310
 6.0000e+001 248411 -9.1139e+004 -4.5620e+006 -3.6139e+005 67212 248258,248336,248284
 6.0000e+001 248388 -1.7401e+006 -1.8770e+006 -8.2706e+005 67212 248258,248362,248336
 6.0000e+001 248586  3.9368e+004 -5.1550e+006  1.0984e+006 66872 248485,248537,248511
 6.0000e+001 248563 -5.6187e+005 -5.6979e+005  2.2488e+005 66872 248459,248537,248485
 6.0000e+001 248738 -2.7318e+005 -4.8586e+006  1.1868e+005 66510 248637,248689,248663
 6.0000e+001 248715 -3.7901e+005 -7.6947e+006  1.8428e+005 66510 248611,248689,248637
 6.0000e+001 248890 -1.9120e+004 -4.9459e+005  9.6731e+004 66220 248789,248841,248815
 6.0000e+001 248867 -4.5631e+004 -6.3455e+005 -1.7468e+005 66220 248763,248841,248789
 6.0000e+001 249091 -1.0839e+006 -7.9954e+006  2.9121e+006 65759 248915,248967,248941
 6.0000e+001 249068 -9.5239e+005 -7.2984e+006  2.9697e+006 65759 248915,248993,248967
 6.0000e+001 249045 -6.7088e+005 -4.6561e+006  5.0360e+005 65759 248915,249019,248993
 6.0000e+001 249243 -1.1148e+005 -7.8993e+006  1.6646e+006 65419 249142,249194,249168
 6.0000e+001 249220  2.1125e+005 -2.6088e+006  6.1981e+005 65419 249116,249194,249142
 6.0000e+001 249395 -1.9257e+005 -1.5732e+006 -7.4405e+004 65079 249268,249320,249294
 6.0000e+001 249372 -2.4350e+005 -3.5040e+006 -5.7687e+005 65079 249268,249346,249320
 6.0000e+001 249547 -1.0167e+006 -2.4799e+006  1.1276e+006 64739 249420,249472,249446
 6.0000e+001 249524  3.0467e+005 -1.6538e+006 -1.2962e+005 64739 249420,249498,249472
 6.0000e+001 249650 -1.3106e+006 -3.0581e+006 -1.7698e+006 64342 249572,249624,249598
 6.0000e+001 249851 -1.3218e+005 -2.5429e+006 -1.6663e+005 63938 249701,249779,249753
 6.0000e+001 249828 -1.2409e+005 -2.6232e+006  3.2383e+005 63938 249675,249779,249701
 6.0000e+001 249805 -2.4249e+005 -1.8666e+006 -1.4225e+005 63938 249701,249753,249727
 6.0000e+001 250052 -3.7985e+005 -4.2776e+006 -3.5575e+005 63341 249876,249954,249902
 6.0000e+001 250029 -1.4813e+005 -6.7155e+006 -9.7443e+005 63341 249876,249980,249954
 6.0000e+001 250006 -2.0745e+004 -4.0752e+006 -5.0946e+005 63341 249902,249954,249928
 6.0000e+001 250253 -5.2006e+005 -9.4942e+005 -1.4793e+005 63058 250077,250129,250103
 6.0000e+001 250230 -1.6189e+006 -1.4283e+006  8.1355e+005 63058 250077,250155,250129
 6.0000e+001 250207 -2.6740e+005 -8.0965e+005  2.1966e+005 63058 250077,250181,250155
 6.0000e+001 250454 -7.3721e+005 -6.7203e+006  1.0161e+006 62832 250304,250382,250330
 6.0000e+001 250431  1.4615e+005 -8.3545e+006 -2.2193e+006 62832 250278,250382,250304
 6.0000e+001 250408 -1.7310e+006 -4.4348e+006  2.6614e+005 62832 250330,250382,250356
 6.0000e+001 250606 -1.4341e+005 -1.3550e+007 -1.2169e+006 62428 250479,250531,250505
 6.0000e+001 250583 -6.0410e+005 -1.2751e+007 -1.1923e+006 62428 250479,250557,250531
 6.0000e+001 250758 -2.7418e+005 -7.3085e+006  7.1651e+005 62202 250631,250683,250657
 6.0000e+001 250735 -5.3527e+005 -7.3700e+006  7.3692e+005 62202 250631,250709,250683
 6.0000e+001 250861  1.5957e+005 -2.7663e+006 -2.3696e+005 61954 250783,250835,250809
 6.0000e+001 251062 -2.4855e+006 -1.0937e+007 -6.5689e+005 61557 250912,250990,250938
 6.0000e+001 251039  3.9622e+004 -1.3468e+007 -8.9924e+005 61557 250886,250990,250912
 6.0000e+001 251016 -1.7878e+006 -1.5021e+007 -3.3577e+006 61557 250938,250990,250964
 6.0000e+001 251263 -4.5785e+005 -6.5950e+006  1.5158e+003 61167 251113,251165,251139
 6.0000e+001 251240 -2.8113e+005 -6.1818e+006 -1.4633e+005 61167 251113,251191,251165
 6.0000e+001 251217 -1.1965e+006 -6.1051e+006  1.5594e+006 61167 251087,251191,251113
 6.0000e+001 251415 -7.0990e+005 -8.1087e+006  2.4322e+006 60827 251288,251340,251314
 6.0000e+001 251392 -6.4694e+005 -2.8630e+006 -7.2013e+005 60827 251288,251366,251340
 6.0000e+001 251567  6.0564e+004 -2.5869e+006 -2.0352e+005 60487 251466,251518,251492
 6.0000e+001 251544 -1.6792e+005 -3.6423e+006 -2.3394e+005 60487 251440,251518,251466
 6.0000e+001 251719 -5.3844e+005 -8.4221e+006 -1.1765e+006 59983 251592,251644,251618
 6.0000e+001 251696 -1.5904e+006 -8.2213e+006 -6.6115e+005 59983 251592,251670,251644
 6.0000e+001 251920  3.7059e+004 -1.2651e+006 -4.6411e+004 59807 251770,251848,251796
 6.0000e+001 251897  4.0474e+004 -1.3445e+006 -2.0545e+004 59807 251744,251848,251770
 6.0000e+001 251874 -4.8236e+004 -1.6212e+006 -3.6595e+004 59807 251796,251848,251822
 6.0000e+001 252023  1.9956e+005 -4.3973e+006 -1.9072e+004 59517 251945,251997,251971
 6.0000e+001 252175  1.7219e+006 -1.4902e+007 -3.1209e+005 59269 252074,252126,252100
 6.0000e+001 252152 -2.0603e+005 -9.2360e+006  1.7392e+005 59269 252048,252126,252074
 6.0000e+001 252278 -5.4867e+005 -1.0639e+007  1.9621e+006 58979 252200,252252,252226
 6.0000e+001 252381 -2.0564e+006 -2.0352e+006  1.6827e+006 58689 252303,252355,252329
 6.0000e+001 252533 -2.7234e+005 -2.7574e+006 -9.8858e+005 58249 252432,252484,252458
 6.0000e+001 252510 -9.7829e+005 -5.7158e+006 -9.7071e+005 58249 252406,252484,252432
 6.0000e+001 252734 -2.8039e+005 -2.0351e+006  3.1541e+005 57902 252584,252662,252610
 6.0000e+001 252711  1.1173e+005 -4.1372e+006 -7.2363e+005 57902 252558,252662,252584
 6.0000e+001 252688 -2.6862e+005 -1.2358e+006 -1.6111e+005 57902 252610,252662,252636
 6.0000e+001 252886  3.6537e+004 -4.6461e+006 -3.6494e+004 57540 252785,252837,252811
 6.0000e+001 252863 -1.5385e+004 -4.3401e+006  3.9017e+004 57540 252759,252837,252785
 6.0000e+001 253038 -9.2336e+005 -5.9067e+006  1.4979e+006 57086 252937,252989,252963
 6.0000e+001 253015 -2.7192e+005 -1.4323e+006  5.5533e+005 57086 252911,252989,252937
 6.0000e+001 253239 -1.3797e+006 -8.2492e+006 -1.5895e+006 56796 253063,253141,253115
 6.0000e+001 253216  4.0149e+005 -9.7611e+006  1.0083e+006 56796 253063,253167,253141
 6.0000e+001 253193 -4.5941e+006 -4.7891e+006 -1.3196e+005 56796 253063,253115,253089
 6.0000e+001 253342 -7.4398e+005 -1.8997e+007 -6.5606e+004 56349 253264,253316,253290
 6.0000e+001 253543 -2.3975e+005 -2.6665e+006 -1.2452e+006 56009 253367,253419,253393
 6.0000e+001 253520 -3.9718e+005 -1.0821e+006 -7.5121e+005 56009 253367,253445,253419
 6.0000e+001 253497 -4.5908e+005 -1.1613e+006 -7.0306e+005 56009 253367,253471,253445
 6.0000e+001 253695 -3.5523e+005 -1.1920e+006  6.2555e+005 55733 253594,253646,253620
 6.0000e+001 253672 -7.3784e+005 -4.7498e+005  5.6660e+005 55733 253568,253646,253594
 6.0000e+001 253798 -5.2331e+005 -1.7029e+006 -2.2612e+004 55557 253720,253772,253746
 6.0000e+001 253950 -5.4255e+005 -3.3462e+006  2.9766e+005 55153 253849,253901,253875
 6.0000e+001 253927  1.6630e+004 -3.8901e+006 -3.5731e+005 55153 253823,253901,253849
 6.0000e+001 254151 -9.4986e+005 -3.9635e+006  6.5587e+005 54863 253975,254053,254001
 6.0000e+001 254128 -4.9246e+005 -3.8636e+006  1.2233e+005 54863 253975,254079,254053
 6.0000e+001 254105 -6.1391e+005 -3.9271e+006  5.8271e+005 54863 254001,254053,254027
 6.0000e+001 254303 -1.5183e+005 -6.4922e+005  3.3628e+005 54373 254176,254228,254202
 6.0000e+001 254280 -2.2976e+005 -7.2245e+005  3.8350e+005 54373 254176,254254,254228
 6.0000e+001 254455 -3.6765e+003 -3.7822e+006 -3.8685e+005 53975 254354,254406,254380
 6.0000e+001 254432 -2.0052e+005 -8.2685e+005  1.0640e+005 53975 254328,254406,254354
 6.0000e+001 254607 -4.8892e+005 -4.5305e+006 -2.0756e+005 53585 254480,254532,254506
 6.0000e+001 254584 -1.3378e+005 -4.4971e+006 -3.6304e+005 53585 254480,254558,254532
 6.0000e+001 254808 -1.3020e+006 -3.1002e+006  2.7419e+005 53245 254658,254736,254684
 6.0000e+001 254785 -1.0462e+006 -1.0563e+006  2.8205e+005 53245 254632,254736,254658
 6.0000e+001 254762 -6.9127e+005 -2.3413e+006 -4.9988e+005 53245 254684,254736,254710
 6.0000e+001 254911 -1.0949e+005 -8.3170e+005 -2.6753e+005 52955 254833,254885,254859
 6.0000e+001 255063 -5.6429e+005 -6.4212e+006 -2.0412e+004 52551 254962,255014,254988
 6.0000e+001 255040 -6.6595e+005 -6.8778e+006 -2.3606e+005 52551 254936,255014,254962
 6.0000e+001 255264 -7.6317e+005 -4.5155e+005 -2.5591e+005 52261 255114,255166,255140
 6.0000e+001 255241 -9.4083e+005 -9.5045e+005 -5.4697e+004 52261 255114,255192,255166
 6.0000e+001 255218 -3.7857e+006 -1.8719e+004  9.0678e+005 52261 255088,255192,255114
 6.0000e+001 255416 -9.3852e+005 -5.4188e+006  2.1762e+006 51971 255289,255341,255315
 6.0000e+001 255393 -6.0537e+005 -4.7253e+006 -6.8820e+005 51971 255289,255367,255341
 6.0000e+001 255568 -5.2402e+005 -6.4945e+005 -5.8675e+005 51681 255441,255493,255467
 6.0000e+001 255545 -1.8119e+005 -1.1190e+006 -5.9963e+005 51681 255441,255519,255493
 6.0000e+001 255769 -2.4633e+005 -2.7105e+006  5.0794e+004 51291 255619,255697,255671
 6.0000e+001 255746 -2.2595e+005 -2.3589e+006 -2.5514e+005 51291 255593,255697,255619
 6.0000e+001 255723 -2.2187e+005 -4.8811e+006 -4.6956e+005 51291 255619,255671,255645
 6.0000e+001 255921 -5.8448e+005 -3.1247e+006  9.0448e+005 50951 255820,255872,255846
 6.0000e+001 255898 -1.7372e+005 -1.7639e+006  1.0109e+005 50951 255794,255872,255820
 6.0000e+001 256171 -1.1382e+006 -4.2570e+006  1.9039e+005 50547 256024,256076,256050
 6.0000e+001 256148 -8.7769e+005 -3.7172e+006  4.2778e+005 50547 255972,256076,256024
 6.0000e+001 256125 -2.8653e+005 -4.5360e+006 -1.7487e+005 50547 255946,256076,255972
 6.0000e+001 256102 -7.8960e+005 -3.2526e+006  2.5394e+005 50547 255972,256024,255998
 6.0000e+001 256323  2.0820e+005 -3.6779e+006  2.1158e+005 50093 256196,256248,256222
 6.0000e+001 256300 -8.7561e+005 -2.4901e+006 -7.3711e+005 50093 256196,256274,256248
 6.0000e+001 256426 -2.7212e+002 -3.6363e+001 -7.0537e+001 49845 256348,256400,256374
 6.0000e+001 256627 -2.1801e+004 -4.7583e+006  2.2928e+005 49555 256477,256555,256503
 6.0000e+001 256604 -1.8480e+005 -3.1014e+006  2.6111e+005 49555 256451,256555,256477
 6.0000e+001 256581 -4.5364e+005 -4.0816e+006  4.9286e+005 49555 256503,256555,256529
 6.0000e+001 256828 -6.5436e+005 -2.3609e+006 -3.8594e+005 49056 256652,256730,256678
 6.0000e+001 256805 -4.8201e+005 -2.4744e+006 -5.0809e+005 49056 256652,256756,256730
 6.0000e+001 256782 -4.6267e+005 -2.7385e+006 -1.3571e+005 49056 256678,256730,256704
 6.0000e+001 256931 -6.1620e+004 -1.7715e+005  4.4976e+004 48766 256853,256905,256879
 6.0000e+001 257083 -1.2674e+006 -4.3904e+006 -5.7321e+005 48568 256982,257034,257008
 6.0000e+001 257060 -5.9569e+005 -1.7538e+006 -1.2683e+005 48568 256956,257034,256982
 6.0000e+001 257186 -2.5104e+003 -2.0565e+006  1.3791e+003 48228 257108,257160,257134
 6.0000e+001 257338 -1.0447e+006 -2.3708e+005  1.4325e+005 47888 257237,257289,257263
 6.0000e+001 257315 -6.8109e+005 -1.3134e+006  1.1232e+006 47888 257211,257289,257237
 6.0000e+001 257539 -4.0734e+005 -2.8083e+006  3.7842e+004 47548 257363,257441,257415
 6.0000e+001 257516 -8.5490e+005 -2.6177e+006 -3.8562e+005 47548 257363,257467,257441
 6.0000e+001 257493 -8.6376e+005 -1.6719e+006 -1.9471e+005 47548 257363,257415,257389
 6.0000e+001 257740 -2.9125e+005 -3.7433e+006  3.5661e+005 46994 257564,257642,257616
 6.0000e+001 257717 -4.0605e+005 -3.0617e+006  9.2764e+004 46994 257564,257668,257642
 6.0000e+001 257694 -7.1551e+005 -3.8995e+006  1.6925e+004 46994 257564,257616,257590
 6.0000e+001 257843 -4.3573e+005 -8.6549e+005 -5.7583e+005 46654 257765,257817,257791
 6.0000e+001 257995 -6.3556e+005 -2.0760e+006  3.9385e+005 46364 257894,257946,257920
 6.0000e+001 257972 -6.0083e+005 -2.3078e+006  2.6615e+005 46364 257868,257946,257894
 6.0000e+001 258147 -1.1275e+005 -2.6330e+006  9.7660e+004 46024 258046,258098,258072
 6.0000e+001 258124 -3.0735e+005 -2.0025e+006  3.0908e+005 46024 258020,258098,258046
 6.0000e+001 258250 -7.6227e+005 -1.1943e+006  7.4886e+005 45741 258172,258224,258198
 6.0000e+001 258402 -4.6385e+005 -1.6412e+006  3.5676e+005 45401 258301,258353,258327
 6.0000e+001 258379 -5.6063e+005 -7.9174e+005  4.2952e+005 45401 258275,258353,258301
 6.0000e+001 258603 -6.6277e+005 -1.4238e+006 -1.8781e+004 45071 258427,258505,258479
 6.0000e+001 258580 -2.6624e+005 -3.4470e+006  1.6509e+005 45071 258427,258531,258505
 6.0000e+001 258557 -3.1065e+005 -2.2258e+006  1.3576e+005 45071 258427,258479,258453
 6.0000e+001 258755 -2.7195e+005 -3.0019e+006 -5.1656e+005 44681 258654,258706,258680
 6.0000e+001 258732 -2.2958e+005 -2.9636e+006 -4.8860e+005 44681 258628,258706,258654
 6.0000e+001 258907 -5.8194e+005 -1.9785e+006 -1.3942e+005 44157 258806,258858,258832
 6.0000e+001 258884 -4.5211e+005 -1.8675e+006 -6.7516e+004 44157 258780,258858,258806
 6.0000e+001 259010 -5.6888e+005 -1.4822e+006 -8.4112e+004 43705 258932,258984,258958
 6.0000e+001 259113 -4.6631e+005 -2.1423e+006  1.7348e+005 43284 259035,259087,259061
 6.0000e+001 259216 -5.2373e+005 -3.5915e+006 -1.7643e+005 42954 259138,259190,259164
 6.0000e+001 259319 -5.8730e+005 -8.6919e+005 -1.1438e+005 42116 259241,259293,259267
 6.0000e+001 259422 -1.3632e+005 -2.7075e+006 -1.0658e+004 41804 259344,259396,259370
 6.0000e+001 259525 -5.7040e+005 -4.6126e+006  7.0325e+005 41219 259447,259499,259473
 6.0000e+001 259628 -8.4002e+005 -1.6200e+006 -4.7899e+005 385 259550,259602,259576
 6.2000e+001 190120 -2.1689e+005 -2.3104e+006 -4.2841e+005 189630 189993,190045,190019
 6.2000e+001 190097 -6.8068e+005 -1.6904e+006 -2.6261e+005 189630 189993,190071,190045
 6.2000e+001 190319 -8.6628e+005 -6.1694e+006 -1.4081e+006 189312 190169,190221,190195
 6.2000e+001 190296 -4.0068e+005 -6.5128e+006 -1.0176e+006 189312 190169,190247,190221
 6.2000e+001 190273 -8.7370e+005 -5.9287e+006  1.4562e+005 189312 190143,190247,190169
 6.2000e+001 190518 -4.7743e+005  4.8752e+004  1.5858e+004 189124 190368,190446,190420
 6.2000e+001 190495 -5.6207e+005  2.1548e+004 -4.4119e+003 189124 190342,190446,190368
 6.2000e+001 190472 -9.8822e+005 -5.2925e+004 -4.8802e+004 189124 190368,190420,190394
 6.2000e+001 190619 -4.5038e+005 -4.5692e+004 -6.2084e+003 188926 190541,190593,190567
 6.2000e+001 190771 -4.8554e+005 -7.6844e+004  1.6593e+004 188614 190670,190722,190696
 6.2000e+001 190748 -5.6054e+005  1.6323e+005  5.6096e+004 188614 190644,190722,190670
 6.2000e+001 190972 -4.3427e+005 -5.2968e+005 -3.6234e+005 188324 190848,190900,190874
 6.2000e+001 190949 -4.8974e+005 -7.9314e+005 -5.1582e+005 188324 190796,190900,190848
 6.2000e+001 190926 -9.9182e+004 -3.7480e+005 -2.5455e+005 188324 190796,190848,190822
 6.2000e+001 191124 -7.1458e+005 -9.6163e+005 -1.6876e+005 188034 191023,191075,191049
 6.2000e+001 191101 -1.3417e+005 -1.1116e+006 -1.1502e+005 188034 190997,191075,191023
 6.2000e+001 191276 -1.0501e+005 -2.8421e+006 -1.6162e+005 187836 191149,191201,191175
 6.2000e+001 191253 -4.8704e+005 -1.5214e+006  5.1857e+005 187836 191149,191227,191201
 6.2000e+001 191379 -4.6544e+005 -1.4722e+006 -1.7473e+005 187546 191301,191353,191327
 6.2000e+001 191531 -4.2689e+005 -6.1999e+006  5.1692e+005 187256 191430,191482,191456
 6.2000e+001 191508 -1.2921e+006 -9.1297e+006 -3.1316e+006 187256 191404,191482,191430
 6.2000e+001 191634 -7.4229e+005  1.0022e+004 -1.9927e+004 187058 191556,191608,191582
 6.2000e+001 191835 -5.0134e+005 -1.1752e+004 -1.6967e+004 186860 191659,191711,191685
 6.2000e+001 191812 -3.3404e+005 -1.8957e+005 -3.4494e+003 186860 191659,191737,191711
 6.2000e+001 191789 -2.8987e+005 -5.8423e+004 -4.0487e+004 186860 191659,191763,191737
 6.2000e+001 191987 -8.5996e+004 -1.0430e+006 -2.2654e+005 186662 191886,191938,191912
 6.2000e+001 191964  6.2915e+004 -2.4184e+006  6.9710e+005 186662 191860,191938,191886
 6.2000e+001 192090 -4.1942e+005 -2.8217e+006 -5.0019e+005 186486 192012,192064,192038
 6.2000e+001 192242  6.0892e+003 -1.3939e+007 -4.5074e+005 186288 192115,192167,192141
 6.2000e+001 192219 -1.1061e+006 -8.7233e+006  4.1640e+005 186288 192115,192193,192167
 6.2000e+001 192394  6.0431e+005 -1.1666e+007 -1.0269e+005 185935 192293,192345,192319
 6.2000e+001 192371 -7.9105e+005 -7.6335e+006 -1.0204e+006 185935 192267,192345,192293
 6.2000e+001 192546 -4.8304e+005 -3.3766e+006 -7.3411e+005 185675 192419,192471,192445
 6.2000e+001 192523 -9.4386e+005 -1.7867e+006 -7.8085e+005 185675 192419,192497,192471
 6.2000e+001 192649 -4.9719e+005 -3.2084e+006 -6.5779e+005 185499 192571,192623,192597
 6.2000e+001 192801 -1.5285e+005 -9.3863e+005 -2.3610e+005 185301 192674,192726,192700
 6.2000e+001 192778 -3.2868e+005 -1.3788e+006  9.0023e+005 185301 192674,192752,192726
 6.2000e+001 193002 -1.0284e+005 -1.2127e+006 -5.2610e+005 185046 192852,192930,192878
 6.2000e+001 192979 -5.1026e+005 -2.6920e+006 -3.3176e+005 185046 192826,192930,192852
 6.2000e+001 192956  6.4305e+005 -3.5483e+006  1.5526e+005 185046 192878,192930,192904
 6.2000e+001 193203  4.9546e+005 -1.0073e+007 -1.2643e+006 184798 193079,193131,193105
 6.2000e+001 193180 -1.0253e+006 -5.8228e+006 -7.2611e+005 184798 193027,193131,193079
 6.2000e+001 193157 -2.9475e+005 -5.6706e+006 -2.0056e+005 184798 193027,193079,193053
 6.2000e+001 193404 -2.4873e+005 -6.5595e+006 -1.8392e+006 184600 193254,193306,193280
 6.2000e+001 193381 -8.1948e+005 -2.2177e+006 -3.2286e+005 184600 193254,193332,193306
 6.2000e+001 193358 -1.1513e+006 -7.2278e+005 -6.9009e+005 184600 193228,193332,193254
 6.2000e+001 193556 -7.6697e+005 -4.9160e+005 -5.9991e+005 184402 193429,193481,193455
 6.2000e+001 193533 -6.0918e+005 -5.6103e+005 -5.4700e+005 184402 193429,193507,193481
 6.2000e+001 193708 -5.6229e+005 -2.4244e+006 -2.8785e+005 184204 193607,193659,193633
 6.2000e+001 193685 -4.5434e+005 -1.0352e+007 -2.0861e+006 184204 193581,193659,193607
 6.2000e+001 193860 -6.5993e+005 -1.0706e+006  2.7871e+005 183908 193759,193811,193785
 6.2000e+001 193837 -1.4157e+005 -1.4489e+006  4.1657e+005 183908 193733,193811,193759
 6.2000e+001 194061 -1.8609e+005 -5.4010e+005  2.0299e+005 183710 193911,193989,193937
 6.2000e+001 194038 -6.6550e+005 -1.3546e+006  6.9357e+005 183710 193885,193989,193911
 6.2000e+001 194015 -5.4315e+005 -1.6574e+006  5.6024e+005 183710 193937,193989,193963
 6.2000e+001 194262 -1.4802e+005 -3.3070e+006 -7.3937e+005 183420 194086,194164,194112
 6.2000e+001 194239 -1.7647e+005 -3.9026e+006 -1.4228e+006 183420 194086,194190,194164
 6.2000e+001 194216  7.1294e+005 -6.2653e+006  6.9464e+005 183420 194112,194164,194138
 6.2000e+001 194414 -8.0290e+005 -6.7355e+006 -9.5580e+005 183222 194287,194339,194313
 6.2000e+001 194391 -1.6700e+005 -3.4981e+006 -6.8226e+005 183222 194287,194365,194339
 6.2000e+001 194517 -8.9760e+005 -1.7643e+006 -2.6932e+005 183024 194439,194491,194465
 6.2000e+001 194718  2.6123e+006 -1.8287e+007  1.0631e+006 182734 194568,194620,194594
 6.2000e+001 194695 -1.4062e+006 -5.4898e+006 -4.4614e+006 182734 194542,194620,194568
 6.2000e+001 194672 -4.3589e+006 -2.6792e+006 -2.2651e+006 182734 194542,194646,194620
 6.2000e+001 194870 -3.8529e+005 -1.3661e+005  1.1855e+005 182444 194769,194821,194795
 6.2000e+001 194847 -4.2494e+005 -9.2484e+005  6.7498e+005 182444 194743,194821,194769
 6.2000e+001 195071 -2.6736e+005 -1.3941e+006  7.5383e+005 182154 194895,194947,194921
 6.2000e+001 195048 -2.7638e+005 -4.9898e+005  1.8456e+005 182154 194895,194999,194947
 6.2000e+001 195025 -2.4895e+005 -1.9910e+005  2.2547e+005 182154 194947,194999,194973
 6.2000e+001 195223 -3.2238e+005 -5.5136e+005 -2.3714e+005 181814 195096,195148,195122
 6.2000e+001 195200 -5.7240e+005 -2.1132e+006 -1.2968e+006 181814 195096,195174,195148
 6.2000e+001 195375 -4.2333e+004 -2.9723e+004  2.2556e+004 181524 195248,195300,195274
 6.2000e+001 195352 -1.9017e+004 -4.7318e+004  1.7611e+004 181524 195248,195326,195300
 6.2000e+001 195527 -2.9956e+005 -1.6429e+006  2.1113e+005 181326 195426,195478,195452
 6.2000e+001 195504 -1.5045e+006 -2.4847e+006  1.0181e+006 181326 195400,195478,195426
 6.2000e+001 195679 -3.0640e+005 -1.0388e+007 -1.2449e+006 180936 195578,195630,195604
 6.2000e+001 195656 -3.8310e+005 -5.3020e+006 -8.6120e+005 180936 195552,195630,195578
 6.2000e+001 195831 -4.6036e+005 -3.7784e+005 -1.7913e+005 180646 195704,195756,195730
 6.2000e+001 195808 -7.3420e+005 -2.4685e+004  1.4835e+004 180646 195704,195782,195756
 6.2000e+001 196032 -1.4937e+005 -2.1061e+006  1.4031e+005 180306 195882,195960,195934
 6.2000e+001 196009 -4.9304e+004 -1.0069e+006 -1.2196e+005 180306 195856,195960,195882
 6.2000e+001 195986 -1.1077e+004 -2.1020e+006  1.2806e+005 180306 195882,195934,195908
 6.2000e+001 196233 -3.3553e+005 -1.4901e+005 -9.4103e+005 179944 196057,196109,196083
 6.2000e+001 196210 -8.6512e+005 -2.7652e+006  2.8730e+005 179944 196057,196135,196109
 6.2000e+001 196187 -1.8715e+006  4.1713e+006 -1.3558e+006 179944 196057,196161,196135
 6.2000e+001 196385 -6.6118e+005 -7.2797e+005 -5.5290e+005 179604 196258,196310,196284
 6.2000e+001 196362 -8.4426e+005 -9.5245e+005 -1.0044e+006 179604 196258,196336,196310
 6.2000e+001 196586 -9.5841e+005 -6.4018e+005 -7.6367e+005 179114 196410,196488,196436
 6.2000e+001 196563 -4.8313e+005 -2.4546e+006 -8.3646e+005 179114 196410,196514,196488
 6.2000e+001 196540 -5.6463e+003 -5.8506e+005 -5.7622e+004 179114 196436,196488,196462
 6.2000e+001 196738 -8.8868e+005 -1.8949e+006 -9.5207e+005 178674 196611,196663,196637
 6.2000e+001 196715  7.0418e+004 -4.4228e+006 -2.7543e+005 178674 196611,196689,196663
 6.2000e+001 196939  3.4605e+006 -1.0506e+007 -2.1751e+006 178334 196789,196867,196841
 6.2000e+001 196916 -2.3036e+006 -1.1706e+007  1.4393e+006 178334 196763,196867,196789
 6.2000e+001 196893 -6.5243e+006 -3.0918e+006 -8.0863e+006 178334 196789,196841,196815
 6.2000e+001 197091 -3.8554e+005 -3.4806e+006 -8.1535e+005 177930 196990,197042,197016
 6.2000e+001 197068 -5.4346e+005 -3.8055e+006 -2.2991e+005 177930 196964,197042,196990
 6.2000e+001 197194  9.5792e+002 -2.5772e+005  1.4245e+003 177732 197116,197168,197142
 6.2000e+001 197346 -3.2659e+005 -4.4964e+006 -3.9817e+005 177534 197219,197271,197245
 6.2000e+001 197323  3.2391e+005 -6.6948e+006  7.7917e+005 177534 197219,197297,197271
 6.2000e+001 197547 -9.6012e+005 -5.7457e+006 -2.0016e+006 177130 197397,197449,197423
 6.2000e+001 197524 -2.5146e+006 -5.6538e+006 -3.1492e+006 177130 197397,197475,197449
 6.2000e+001 197501 -2.3250e+006 -1.0513e+007 -3.9365e+006 177130 197371,197475,197397
 6.2000e+001 197748 -1.2339e+005 -5.1244e+006  1.6630e+004 176790 197598,197676,197624
 6.2000e+001 197725  4.3443e+003 -4.3704e+006  1.4377e+005 176790 197572,197676,197598
 6.2000e+001 197702 -1.1682e+005 -4.6226e+006  8.9155e+004 176790 197624,197676,197650
 6.2000e+001 197900 -2.8101e+005 -2.9943e+006 -3.8360e+005 176300 197773,197825,197799
 6.2000e+001 197877  1.4568e+005 -4.7128e+006 -2.9415e+005 176300 197773,197851,197825
 6.2000e+001 198052 -4.2011e+005 -6.4873e+006 -1.1074e+006 176010 197925,197977,197951
 6.2000e+001 198029 -3.5671e+005 -4.7235e+006 -1.0845e+006 176010 197925,198003,197977
 6.2000e+001 198204 -1.2924e+006 -3.2863e+006 -1.1164e+006 175670 198103,198155,198129
 6.2000e+001 198181 -1.2375e+006 -1.8323e+006 -5.4885e+005 175670 198077,198155,198103
 6.2000e+001 198405  2.8990e+003 -4.3786e+006 -6.3982e+005 175266 198255,198307,198281
 6.2000e+001 198382  8.0131e+004 -4.9019e+006 -1.0775e+006 175266 198229,198307,198255
 6.2000e+001 198359 -1.0539e+006 -3.8252e+006 -1.8787e+006 175266 198229,198333,198307
 6.2000e+001 198606 -8.2234e+003  1.2507e+003  4.6912e+003 174876 198430,198508,198482
 6.2000e+001 198583 -7.9893e+004 -1.9740e+004  3.4439e+004 174876 198430,198534,198508
 6.2000e+001 198560 -2.7987e+004 -5.1520e+003  1.1677e+004 174876 198430,198482,198456
 6.2000e+001 198758 -1.7683e+002  1.5307e+002  6.0286e+001 174536 198657,198709,198683
 6.2000e+001 198735 -1.7638e+002 -3.9816e+000 -6.7427e+001 174536 198631,198709,198657
 6.2000e+001 199008 -1.0429e+006 -5.8837e+006 -1.8005e+005 174132 198835,198913,198887
 6.2000e+001 198985 -6.1303e+005 -2.3541e+006  2.3089e+005 174132 198809,198913,198835
 6.2000e+001 198962 -7.2350e+005 -2.6795e+006 -1.6790e+006 174132 198783,198913,198809
 6.2000e+001 198939 -3.6366e+005 -6.2118e+006 -1.0304e+005 174132 198835,198887,198861
 6.2000e+001 199160 -1.0421e+006 -2.4209e+006 -6.6062e+005 173842 199059,199111,199085
 6.2000e+001 199137 -6.4517e+005 -1.4577e+006 -3.5884e+005 173842 199033,199111,199059
 6.2000e+001 199361 -7.9539e+005 -1.8859e+006  6.4987e+005 173438 199237,199289,199263
 6.2000e+001 199338  1.0226e+005 -3.1277e+006  7.2874e+005 173438 199211,199289,199237
 6.2000e+001 199315  2.6928e+005 -5.6354e+006 -1.3654e+006 173438 199185,199289,199211
 6.2000e+001 199513 -4.3912e+005 -4.3302e+006 -8.8079e+005 173190 199386,199438,199412
 6.2000e+001 199490 -1.5086e+006 -5.0684e+006 -3.3595e+005 173190 199386,199464,199438
 6.2000e+001 199665 -5.6935e+005 -1.6747e+006  3.0649e+005 172750 199564,199616,199590
 6.2000e+001 199642 -1.0380e+006 -9.6136e+005  4.4144e+003 172750 199538,199616,199564
 6.2000e+001 199817 -1.0141e+005 -1.5364e+006 -3.6876e+005 172524 199690,199742,199716
 6.2000e+001 199794 -4.9056e+004 -1.1248e+006 -4.4229e+005 172524 199690,199768,199742
 6.2000e+001 199969 -6.2567e+003 -5.8376e+006 -1.5400e+005 172348 199842,199894,199868
 6.2000e+001 199946 -7.8223e+005 -6.0328e+006 -1.3242e+005 172348 199842,199920,199894
 6.2000e+001 200121  4.1792e+004 -9.5341e+005 -2.0915e+005 172008 199994,200046,200020
 6.2000e+001 200098 -1.0760e+005 -3.7891e+005 -1.4128e+005 172008 199994,200072,200046
 6.2000e+001 200273 -1.5673e+006 -7.6274e+006 -2.4790e+006 171668 200172,200224,200198
 6.2000e+001 200250 -1.1265e+006 -7.0861e+006 -1.9027e+006 171668 200146,200224,200172
 6.2000e+001 200474  2.9602e+005 -4.6968e+006 -6.7982e+005 171264 200350,200402,200376
 6.2000e+001 200451 -2.1528e+005 -5.1057e+006 -9.5370e+005 171264 200324,200402,200350
 6.2000e+001 200428 -3.5534e+005 -3.4258e+006  1.1035e+006 171264 200298,200402,200324
 6.2000e+001 200626 -8.3832e+005 -5.1788e+006 -7.4200e+005 170832 200525,200577,200551
 6.2000e+001 200603 -2.7529e+005 -3.0629e+006 -2.4690e+005 170832 200499,200577,200525
 6.2000e+001 200827 -2.7173e+005 -5.4688e+005  1.4511e+005 170492 200677,200729,200703
 6.2000e+001 200804 -8.8639e+005 -2.3910e+005 -9.6051e+004 170492 200651,200729,200677
 6.2000e+001 200781 -2.8937e+005 -1.3681e+006 -5.5166e+005 170492 200651,200755,200729
 6.2000e+001 201077  1.6368e+005 -3.3556e+005  1.2211e+004 170088 200878,200956,200904
 6.2000e+001 201054 -1.7272e+005 -6.5506e+005 -3.2925e+005 170088 200852,200956,200878
 6.2000e+001 201031  8.2571e+004 -3.2913e+005  4.2120e+005 170088 200904,200956,200930
 6.2000e+001 201008  8.6472e+005 -1.9802e+006  5.9512e+005 170088 200852,200982,200956
 6.2000e+001 201278 -4.2595e+005 -4.0368e+006 -1.6609e+006 169798 201102,201154,201128
 6.2000e+001 201255 -1.0279e+006 -5.4806e+006 -2.1741e+006 169798 201102,201206,201154
 6.2000e+001 201232 -1.3394e+006 -1.3313e+006 -3.0809e+005 169798 201154,201206,201180
 6.2000e+001 201430 -1.6301e+005 -9.6593e+005 -4.4979e+005 169337 201303,201355,201329
 6.2000e+001 201407 -2.8708e+005 -7.9948e+005 -2.7709e+005 169337 201303,201381,201355
 6.2000e+001 201631 -3.2754e+005 -1.3100e+006  1.2094e+005 168883 201481,201559,201507
 6.2000e+001 201608 -4.3174e+005 -1.4905e+006  2.9244e+003 168883 201455,201559,201481
 6.2000e+001 201585 -2.6002e+005 -5.6324e+005  1.9310e+005 168883 201507,201559,201533
 6.2000e+001 201832  2.5048e+005 -8.3756e+006  2.5347e+005 168479 201682,201734,201708
 6.2000e+001 201809 -2.2303e+006 -6.1654e+006 -1.6941e+006 168479 201656,201734,201682
 6.2000e+001 201786 -1.7617e+006 -4.2853e+006  3.2021e+004 168479 201656,201760,201734
 6.2000e+001 202033 -2.1364e+005 -2.6905e+006  2.2950e+005 167825 201883,201935,201909
 6.2000e+001 202010 -1.2448e+006 -3.6293e+006 -1.4389e+006 167825 201857,201935,201883
 6.2000e+001 201987  4.0156e+005 -9.9114e+006 -5.7829e+005 167825 201857,201961,201935
 6.2000e+001 202234 -2.0740e+006 -3.0086e+006 -1.7801e+006 167435 202058,202136,202084
 6.2000e+001 202211 -9.3419e+005 -5.1206e+006  6.3175e+005 167435 202058,202162,202136
 6.2000e+001 202188 -1.1828e+006 -1.4560e+006 -5.8176e+005 167435 202084,202136,202110
 6.2000e+001 202386  4.4491e+004 -3.8331e+005  1.5877e+005 167002 202285,202337,202311
 6.2000e+001 202363 -1.2120e+005 -1.4604e+005  1.1630e+005 167002 202259,202337,202285
 6.2000e+001 202538 -1.1739e+006 -4.3175e+006 -2.6582e+006 166662 202411,202463,202437
 6.2000e+001 202515 -1.4293e+006 -3.0744e+006 -2.5084e+006 166662 202411,202489,202463
 6.2000e+001 202690 -2.5391e+004 -1.2917e+006 -5.5594e+005 166322 202589,202641,202615
 6.2000e+001 202667 -6.7316e+004 -5.7128e+005 -5.9486e+004 166322 202563,202641,202589
 6.2000e+001 202891 -3.8784e+005 -4.3003e+005 -1.7693e+005 165918 202715,202767,202741
 6.2000e+001 202868 -5.9754e+005 -1.5994e+006 -8.5577e+005 165918 202715,202793,202767
 6.2000e+001 202845 -1.1200e+006 -2.1307e+006 -5.1962e+005 165918 202715,202819,202793
 6.2000e+001 203092  1.9299e+005 -1.9074e+006 -2.7439e+005 165628 202916,202968,202942
 6.2000e+001 203069 -3.9959e+005 -4.5362e+005 -3.5400e+005 165628 202916,202994,202968
 6.2000e+001 203046 -7.8335e+004 -5.5809e+005 -2.0890e+005 165628 202916,203020,202994
 6.2000e+001 203293 -4.5685e+006 -2.9109e+006 -2.9356e+006 165266 203143,203195,203169
 6.2000e+001 203270 -1.7074e+006 -6.4217e+006 -7.5554e+005 165266 203143,203221,203195
 6.2000e+001 203247 -1.0601e+006 -6.7616e+006 -1.1743e+006 165266 203117,203221,203143
 6.2000e+001 203445 -2.0714e+005 -3.0132e+005  1.5109e+005 164826 203318,203370,203344
 6.2000e+001 203422 -1.9488e+004 -1.5533e+005 -3.3943e+003 164826 203318,203396,203370
 6.2000e+001 203597 -2.1696e+005 -3.1255e+006  4.5861e+004 164386 203470,203522,203496
 6.2000e+001 203574 -4.1946e+005 -3.0311e+006 -5.9208e+005 164386 203470,203548,203522
 6.2000e+001 203798 -7.5684e+004 -1.6788e+006  8.1804e+004 163996 203622,203674,203648
 6.2000e+001 203775 -8.7268e+005 -2.4158e+005 -8.7411e+004 163996 203622,203726,203674
 6.2000e+001 203752 -1.0052e+006 -5.7736e+005  2.1387e+005 163996 203674,203726,203700
 6.2000e+001 203901 -2.9246e+005 -2.5320e+006 -4.1167e+005 163770 203823,203875,203849
 6.2000e+001 204053 -1.4556e+006 -4.0540e+006 -1.4322e+006 163474 203952,204004,203978
 6.2000e+001 204030 -1.4227e+006 -3.7034e+006 -8.2995e+005 163474 203926,204004,203952
 6.2000e+001 204205  1.2265e+005 -1.1261e+006 -5.5813e+005 163034 204104,204156,204130
 6.2000e+001 204182 -1.9626e+005 -7.5376e+005 -1.0770e+005 163034 204078,204156,204104
 6.2000e+001 204357 -7.7516e+004 -1.4312e+006  9.5411e+004 162624 204256,204308,204282
 6.2000e+001 204334  1.4469e+005 -4.3415e+005  1.4653e+005 162624 204230,204308,204256
 6.2000e+001 204509 -1.6682e+005 -5.2960e+004  8.1504e+004 162200 204382,204434,204408
 6.2000e+001 204486 -1.3240e+005 -1.3687e+005  1.6646e+005 162200 204382,204460,204434
 6.2000e+001 204710  2.4252e+000  2.9975e+000 -1.5191e+000 161810 204560,204638,204586
 6.2000e+001 204687 -2.9384e-001 -4.5684e+000  1.1586e+000 161810 204534,204638,204560
 6.2000e+001 204664 -8.9612e+000 -1.2402e+000  3.3337e+000 161810 204586,204638,204612
 6.2000e+001 204862 -1.3941e+006 -1.5687e+006 -8.5703e+005 161406 204735,204787,204761
 6.2000e+001 204839 -2.8001e+006 -1.9276e+005 -1.2451e+006 161406 204735,204813,204787
 6.2000e+001 205014  9.6459e-002  2.5486e-001  1.5679e-001 161180 204887,204939,204913
 6.2000e+001 204991 -2.0051e-001 -5.2979e-001 -3.2593e-001 161180 204887,204965,204939
 6.2000e+001 205215 -6.5374e+005 -2.0919e+006 -1.4652e+006 160726 205039,205091,205065
 6.2000e+001 205192 -1.1926e+006 -4.3725e+006 -1.1573e+006 160726 205039,205143,205091
 6.2000e+001 205169 -1.5017e+006 -1.8670e+006 -1.3188e+006 160726 205091,205143,205117
 6.2000e+001 205416 -6.1494e+005 -3.2489e+005  4.5444e+005 160272 205292,205344,205318
 6.2000e+001 205393 -5.1663e+005 -2.9270e+005  5.2489e+005 160272 205240,205344,205292
 6.2000e+001 205370 -3.7291e+005 -1.2880e+005 -7.2092e+004 160272 205240,205292,205266
 6.2000e+001 205568 -2.7785e+000 -3.8017e-001 -1.0278e+000 159932 205441,205493,205467
 6.2000e+001 205545  7.5229e-001  1.0293e-001  2.7827e-001 159932 205441,205519,205493
 6.2000e+001 205720 -6.4293e+004 -1.0304e+005  7.2199e+004 159542 205593,205645,205619
 6.2000e+001 205697 -1.5543e+005 -1.7620e+005  1.4557e+005 159542 205593,205671,205645
 6.2000e+001 205872 -1.5471e+000 -2.2230e-003 -5.8644e-002 159252 205745,205797,205771
 6.2000e+001 205849  1.2940e+000  1.8593e-003  4.9051e-002 159252 205745,205823,205797
 6.2000e+001 206024 -3.6611e+005 -5.6126e+004 -1.0824e+005 159004 205923,205975,205949
 6.2000e+001 206001 -2.0857e+005 -2.2285e+004  6.9226e+004 159004 205897,205975,205923
 6.2000e+001 206127 -5.0052e+006 -4.2269e+006  3.1052e+003 158364 206049,206101,206075
 6.2000e+001 206328 -1.1896e+005 -4.0207e+004  8.2284e+004 157960 206178,206256,206204
 6.2000e+001 206305 -7.0807e+004 -5.7659e+004  5.7800e+004 157960 206152,206256,206178
 6.2000e+001 206282 -1.2852e+005 -4.5922e+004  7.6182e+004 157960 206204,206256,206230
 6.2000e+001 206529 -1.7750e+006 -7.8104e+006  1.2041e+006 157648 206405,206457,206431
 6.2000e+001 206506 -3.8563e+006 -3.9786e+006  5.9320e+005 157648 206379,206457,206405
 6.2000e+001 206483 -3.1906e+006 -3.1215e+006  1.5121e+006 157648 206353,206457,206379
 6.2000e+001 206730 -7.1520e+005 -6.0229e+005  6.0712e+005 157208 206554,206606,206580
 6.2000e+001 206707 -4.2371e+005 -3.8007e+005  4.0927e+005 157208 206554,206632,206606
 6.2000e+001 206684 -6.3268e+005 -3.7964e+005  1.6157e+005 157208 206554,206658,206632
 6.2000e+001 206882 -5.2097e-001 -1.1421e+000 -7.7135e-001 157010 206755,206807,206781
 6.2000e+001 206859  2.9999e-001  6.5764e-001  4.4417e-001 157010 206755,206833,206807
 6.2000e+001 207034  1.6574e+002 -5.1713e+003  1.3158e+002 156620 206907,206959,206933
 6.2000e+001 207011  1.7018e+002 -2.9174e+003 -9.3282e+001 156620 206907,206985,206959
 6.2000e+001 207186 -2.1067e+003 -1.4378e+006  5.2899e+004 156330 207085,207137,207111
 6.2000e+001 207163 -1.6160e+005 -1.5229e+006 -4.4178e+005 156330 207059,207137,207085
 6.2000e+001 207387 -7.8271e+005 -2.7068e+006  2.4135e+005 155890 207211,207289,207237
 6.2000e+001 207364 -1.7285e+006 -3.0370e+006 -1.3440e+006 155890 207211,207315,207289
 6.2000e+001 207341 -6.6583e+005 -2.2242e+006  5.4702e+005 155890 207237,207289,207263
 6.2000e+001 207588 -4.9838e+005 -2.4001e+007  8.6111e+006 155436 207438,207490,207464
 6.2000e+001 207565 -1.4010e+006 -1.7323e+007 -1.0601e+006 155436 207412,207490,207438
 6.2000e+001 207542 -2.7875e+006 -9.6783e+006 -1.3080e+006 155436 207412,207516,207490
 6.2000e+001 207789  1.9247e+006 -3.5527e+007 -2.2148e+006 155260 207639,207691,207665
 6.2000e+001 207766 -4.3043e+006 -1.1781e+007  5.2148e+006 155260 207613,207691,207639
 6.2000e+001 207743 -1.1864e+006 -9.0288e+006  4.5768e+004 155260 207613,207717,207691
 6.2000e+001 207990 -6.2407e-003  6.3695e-001 -1.4867e-001 154920 207840,207918,207892
 6.2000e+001 207967 -1.4094e-002 -5.9734e-001  9.1753e-002 154920 207814,207918,207840
 6.2000e+001 207944  4.7398e-002  1.4485e-001  8.2858e-002 154920 207840,207892,207866
 6.2000e+001 208191 -1.4540e+005 -4.6091e+005  1.6321e+005 154630 208015,208093,208041
 6.2000e+001 208168 -2.3741e+004 -3.3203e+005  3.4345e+004 154630 208015,208119,208093
 6.2000e+001 208145 -3.3612e+004 -5.8866e+004 -4.3627e+004 154630 208041,208093,208067
 6.2000e+001 208343 -9.3144e+002 -7.7734e+002  3.8860e+002 154240 208216,208268,208242
 6.2000e+001 208320 -5.1452e+002  4.6083e+002 -6.8634e+002 154240 208216,208294,208268
 6.2000e+001 208495  1.1585e+006 -1.1204e+007 -1.5106e+006 153950 208394,208446,208420
 6.2000e+001 208472 -1.2137e+006 -5.7983e+006  2.2467e+006 153950 208368,208446,208394
 6.2000e+001 208647 -2.1845e+006 -3.0849e+006  4.7891e+006 153603 208520,208572,208546
 6.2000e+001 208624 -2.6454e+006 -3.1493e+006 -1.7355e+006 153603 208520,208598,208572
 6.2000e+001 208848 -7.1035e+005  1.8972e+003  4.5697e+005 153149 208698,208776,208724
 6.2000e+001 208825 -1.1475e+005 -3.8884e+005  2.1120e+005 153149 208672,208776,208698
 6.2000e+001 208802 -5.5998e+005 -3.6661e+005  4.5234e+005 153149 208724,208776,208750
 6.2000e+001 209000 -7.8262e+005 -3.2505e+006 -3.0126e+004 152859 208873,208925,208899
 6.2000e+001 208977 -5.1991e+004 -7.7537e+006  7.2245e+005 152859 208873,208951,208925
 6.2000e+001 209152  3.9617e+005 -5.1555e+006  3.0595e+005 152569 209051,209103,209077
 6.2000e+001 209129  4.7202e+005 -6.9047e+006 -6.7744e+005 152569 209025,209103,209051
 6.2000e+001 209304  1.6442e+002 -1.5231e+002  2.6672e+002 152065 209177,209229,209203
 6.2000e+001 209281  2.3407e+002  2.8366e+002  8.7599e+001 152065 209177,209255,209229
 6.2000e+001 209456 -1.3653e+006 -3.7879e+006 -4.2718e+005 151775 209355,209407,209381
 6.2000e+001 209433 -5.7913e+005 -9.7261e+006 -4.5029e+005 151775 209329,209407,209355
 6.2000e+001 209608 -8.8942e+005 -7.0121e+006 -1.6903e+006 151371 209481,209533,209507
 6.2000e+001 209585  1.0605e+006 -1.2328e+007 -1.6040e+005 151371 209481,209559,209533
 6.2000e+001 209760 -2.7006e+005 -1.1193e+005  1.5368e+005 150981 209659,209711,209685
 6.2000e+001 209737 -1.5363e+005 -2.1543e+005 -1.7349e+005 150981 209633,209711,209659
 6.2000e+001 209912  2.5863e+006 -3.6141e+007 -3.1348e+006 150619 209811,209863,209837
 6.2000e+001 209889 -3.2791e+006 -1.5445e+007  3.9747e+006 150619 209785,209863,209811
 6.2000e+001 210064 -4.9771e+003 -3.7415e+005  9.5918e+004 150279 209937,209989,209963
 6.2000e+001 210041 -7.6327e+004 -7.6337e+005  1.3477e+005 150279 209937,210015,209989
 6.2000e+001 210265 -2.6105e+006 -8.6040e+006 -2.8622e+005 149989 210115,210167,210141
 6.2000e+001 210242 -2.5087e+005 -9.0433e+006 -1.0540e+006 149989 210115,210193,210167
 6.2000e+001 210219 -2.5739e+005 -1.0461e+007 -1.0992e+006 149989 210089,210193,210115
 6.2000e+001 210417 -4.4966e+005 -2.2429e+005  1.9476e+005 149599 210316,210368,210342
 6.2000e+001 210394 -2.8484e+004 -1.0291e+006  1.9829e+005 149599 210290,210368,210316
 6.2000e+001 210618 -2.3963e+006 -1.5264e+007  4.0877e+006 149095 210468,210520,210494
 6.2000e+001 210595 -3.0609e+006 -1.5366e+007  3.3666e+006 149095 210442,210520,210468
 6.2000e+001 210572 -1.3499e+006 -1.9394e+007  3.3689e+006 149095 210442,210546,210520
 6.2000e+001 210819  1.5052e+002  1.9115e+002  6.7629e+001 148748 210695,210747,210721
 6.2000e+001 210796  4.9167e+001 -3.2612e+001 -3.3185e+001 148748 210669,210747,210695
 6.2000e+001 210773  1.7382e+002  3.5247e+002  2.4617e+002 148748 210643,210747,210669
 6.2000e+001 210971 -2.7807e+002  1.0231e+000  9.2865e+001 148408 210870,210922,210896
 6.2000e+001 210948 -3.9369e+002 -1.0721e+002 -1.2850e+001 148408 210844,210922,210870
 6.2000e+001 211123 -5.2115e+005 -4.7717e+006  9.3461e+005 148118 210996,211048,211022
 6.2000e+001 211100 -2.2119e+006 -5.2186e+006  3.0649e+006 148118 210996,211074,211048
 6.2000e+001 211275 -1.0834e+006 -3.9518e+006  1.3345e+006 147778 211148,211200,211174
 6.2000e+001 211252 -2.4575e+006 -8.1729e+006  4.3542e+006 147778 211148,211226,211200
 6.2000e+001 211427 -7.3362e+005 -2.9075e+006  1.2443e+006 147324 211326,211378,211352
 6.2000e+001 211404 -4.0607e+005 -3.1610e+006  1.2354e+006 147324 211300,211378,211326
 6.2000e+001 211628 -5.7484e+005 -6.6572e+005  2.4469e+005 147012 211452,211504,211478
 6.2000e+001 211605 -5.7724e+005 -1.8432e+005  3.4435e+005 147012 211452,211556,211504
 6.2000e+001 211582 -4.1380e+005 -8.7177e+005  8.1290e+005 147012 211504,211556,211530
 6.2000e+001 211829 -2.5898e+006 -2.7070e+006  1.0186e+006 146636 211679,211757,211731
 6.2000e+001 211806  1.5880e+006 -6.3265e+006  7.1491e+005 146636 211653,211757,211679
 6.2000e+001 211783  1.2971e+004 -4.4204e+006  3.8326e+006 146636 211679,211731,211705
 6.2000e+001 211981 -1.3193e+002 -1.0009e+002 -1.3010e+002 146246 211880,211932,211906
 6.2000e+001 211958 -4.0978e+001 -3.8978e+002 -6.0388e+001 146246 211854,211932,211880
 6.2000e+001 212133  1.9970e+002  4.8793e+002  3.2635e+002 145956 212006,212058,212032
 6.2000e+001 212110  9.6396e+002 -2.4253e+002  5.9619e+002 145956 212006,212084,212058
 6.2000e+001 212285 -3.2734e+001 -1.6485e+001 -1.9848e+001 145544 212184,212236,212210
 6.2000e+001 212262  3.7716e+001 -8.1859e+001  4.7626e+001 145544 212158,212236,212184
 6.2000e+001 212486 -1.2445e+006 -1.6257e+007  4.5823e+006 144990 212362,212414,212388
 6.2000e+001 212463  2.2941e+005 -1.3984e+007  5.9778e+006 144990 212310,212414,212362
 6.2000e+001 212440 -4.3654e+006 -2.7747e+006  2.8296e+006 144990 212310,212362,212336
 6.2000e+001 212638 -1.3391e+005 -2.7036e+005  1.4808e+005 144600 212537,212589,212563
 6.2000e+001 212615 -1.5561e+005 -3.6502e+005  1.4326e+005 144600 212511,212589,212537
 6.2000e+001 212839 -4.1569e+005 -2.0805e+006  6.9256e+005 144210 212689,212741,212715
 6.2000e+001 212816 -3.9430e+005 -2.0235e+006  6.2247e+005 144210 212663,212741,212689
 6.2000e+001 212793 -4.5244e+005 -2.3663e+006  8.1573e+005 144210 212663,212767,212741
 6.2000e+001 212991  2.4055e+002 -2.0702e+002 -1.6290e+001 143920 212890,212942,212916
 6.2000e+001 212968  6.4187e+002 -2.7501e+001  2.2867e+002 143920 212864,212942,212890
 6.2000e+001 213143  3.8377e+002  1.6846e+002  2.3720e+001 143480 213016,213068,213042
 6.2000e+001 213120 -9.0036e+001  1.6567e+002 -1.2326e+001 143480 213016,213094,213068
 6.2000e+001 213295 -6.3504e+005 -4.8715e+006  2.0773e+006 142990 213194,213246,213220
 6.2000e+001 213272 -2.1170e+005 -2.0844e+006  1.5021e+006 142990 213168,213246,213194
 6.2000e+001 213447  2.7467e+005 -2.4518e+006  1.0940e+006 142600 213320,213372,213346
 6.2000e+001 213424 -2.4694e+005 -1.1412e+006  1.4490e+003 142600 213320,213398,213372
 6.2000e+001 213599 -2.5034e+004 -4.3091e+005  4.3872e+004 142260 213472,213524,213498
 6.2000e+001 213576 -1.1235e+005 -4.9421e+005  2.8545e+005 142260 213472,213550,213524
 6.2000e+001 213751 -2.4181e+005 -5.0831e+005 -2.6485e+005 141870 213624,213676,213650
 6.2000e+001 213728 -8.6610e+005 -4.7514e+005 -5.1536e+005 141870 213624,213702,213676
 6.2000e+001 213903 -9.9825e+005 -1.1013e+006 -1.0551e+006 141530 213776,213828,213802
 6.2000e+001 213880 -2.8016e+005 -1.3133e+006 -5.3937e+005 141530 213776,213854,213828
 6.2000e+001 214055 -1.3175e+006 -4.8397e+004  1.5778e+005 141218 213928,213980,213954
 6.2000e+001 214032 -8.0297e+005 -1.7633e+005  4.2974e+004 141218 213928,214006,213980
 6.2000e+001 214207 -8.4273e+002 -2.1356e+003  3.4292e+003 140928 214080,214132,214106
 6.2000e+001 214184 -8.6454e+002 -1.5828e+003  7.6680e+002 140928 214080,214158,214132
 6.2000e+001 214359 -3.8401e+004 -1.9268e+005  4.1780e+003 140538 214232,214284,214258
 6.2000e+001 214336 -8.8862e+004 -7.3991e+005  3.7447e+005 140538 214232,214310,214284
 6.2000e+001 214560 -3.2080e+005 -4.4711e+006  9.8382e+005 140248 214384,214462,214410
 6.2000e+001 214537  1.0454e+004 -2.5201e+006  6.0889e+005 140248 214384,214488,214462
 6.2000e+001 214514 -3.5871e+005 -2.6246e+006 -1.1174e+005 140248 214410,214462,214436
 6.2000e+001 214712 -9.2765e+005 -3.1887e+006  8.7535e+005 140000 214611,214663,214637
 6.2000e+001 214689 -5.9629e+005 -2.9193e+006  1.2050e+006 140000 214585,214663,214611
 6.2000e+001 214913 -1.3821e+005 -1.1968e+006 -4.0154e+005 139596 214737,214815,214763
 6.2000e+001 214890 -4.9478e+004 -4.8909e+005 -1.6406e+005 139596 214737,214841,214815
 6.2000e+001 214867  6.1200e+005 -4.2336e+006  3.7127e+005 139596 214763,214815,214789
 6.2000e+001 215016 -1.8741e+002  4.4309e+002 -1.5762e+002 139420 214938,214990,214964
 6.2000e+001 215168 -4.3301e+006 -1.0683e+007  6.9053e+006 139130 215067,215119,215093
 6.2000e+001 215145 -1.5763e+006 -1.2387e+007  2.6747e+006 139130 215041,215119,215067
 6.2000e+001 215320 -2.1003e+006 -6.3567e+006  3.8744e+006 138790 215219,215271,215245
 6.2000e+001 215297 -1.9429e+006 -1.0822e+007  5.2867e+006 138790 215193,215271,215219
 6.2000e+001 215472 -1.0027e+004 -1.9315e+005  7.4740e+004 138514 215345,215397,215371
 6.2000e+001 215449 -4.7252e+003 -1.0449e+005  4.0114e+003 138514 215345,215423,215397
 6.2000e+001 215624 -2.0941e+005 -8.3694e+006  2.0572e+006 138174 215497,215549,215523
 6.2000e+001 215601 -2.2081e+005 -6.0872e+006  1.6473e+006 138174 215497,215575,215549
 6.2000e+001 215776  2.7141e-002  1.1009e+000  1.7286e-001 137734 215649,215701,215675
 6.2000e+001 215753 -2.7148e-002 -1.1011e+000 -1.7290e-001 137734 215649,215727,215701
 6.2000e+001 215977  1.6410e+006 -1.5029e+007  2.7313e+006 137344 215801,215879,215827
 6.2000e+001 215954 -1.8713e+006 -6.1768e+006 -2.8013e+006 137344 215801,215905,215879
 6.2000e+001 215931 -5.5226e+005 -1.7378e+007  7.3625e+005 137344 215827,215879,215853
 6.2000e+001 216129 -4.4488e+005 -2.1425e+006  3.0544e+005 136940 216028,216080,216054
 6.2000e+001 216106 -4.7878e+005 -2.8197e+006  5.1485e+005 136940 216002,216080,216028
 6.2000e+001 216330 -2.5489e+006 -8.3810e+006  1.8909e+006 136600 216180,216232,216206
 6.2000e+001 216307 -7.9495e+005 -8.0324e+006  2.8453e+006 136600 216154,216232,216180
 6.2000e+001 216284 -2.7035e+006 -3.7471e+006  5.0439e+005 136600 216154,216258,216232
 6.2000e+001 216482 -2.2817e+005 -5.3038e+006  1.3785e+006 136260 216381,216433,216407
 6.2000e+001 216459 -3.6634e+005 -4.4781e+006  1.4240e+006 136260 216355,216433,216381
 6.2000e+001 216634 -1.0483e+006 -2.9660e+006  1.4765e+006 135970 216533,216585,216559
 6.2000e+001 216611 -5.0799e+005 -5.2102e+006  2.1057e+006 135970 216507,216585,216533
 6.2000e+001 216835 -1.6707e+005 -2.1785e+006 -8.4553e+004 135608 216685,216763,216711
 6.2000e+001 216812 -1.8741e+005 -2.1005e+006  3.2946e+004 135608 216659,216763,216685
 6.2000e+001 216789 -6.2041e+004 -2.0659e+006  2.0707e+004 135608 216711,216763,216737
 6.2000e+001 217036 -3.2096e+005 -1.2572e+006  6.9355e+005 135312 216912,216964,216938
 6.2000e+001 217013 -3.8339e+005 -2.6529e+006  1.1560e+006 135312 216886,216964,216912
 6.2000e+001 216990  3.5548e+005 -4.5981e+006  7.2694e+005 135312 216860,216964,216886
 6.2000e+001 217237 -1.0298e+005 -7.6003e+005  2.6767e+005 134908 217061,217139,217113
 6.2000e+001 217214 -1.7142e+005 -8.0398e+005  3.8857e+005 134908 217061,217165,217139
 6.2000e+001 217191 -1.4674e+005 -1.0208e+006  3.8600e+005 134908 217061,217113,217087
 6.2000e+001 217438 -1.6669e+006 -1.6522e+007  8.0147e+004 134568 217288,217366,217314
 6.2000e+001 217415  1.4786e+006 -2.7123e+007 -1.2349e+006 134568 217262,217366,217288
 6.2000e+001 217392 -7.8937e+005 -2.1823e+007 -2.0871e+006 134568 217314,217366,217340
 6.2000e+001 217590  1.7644e+002 -2.0813e+005  9.4061e+004 134106 217463,217515,217489
 6.2000e+001 217567 -1.3947e+004 -1.7729e+005  4.1033e+004 134106 217463,217541,217515
 6.2000e+001 217791 -2.4802e+006 -2.0635e+007 -6.9762e+006 133816 217641,217693,217667
 6.2000e+001 217768  4.3783e+006 -2.3644e+007  2.1851e+005 133816 217641,217719,217693
 6.2000e+001 217745 -1.4449e+007 -7.5902e+006  1.0464e+007 133816 217615,217719,217641
 6.2000e+001 217992 -4.4139e+006 -4.9889e+006  4.8872e+006 133355 217842,217920,217894
 6.2000e+001 217969 -5.9460e+004 -1.1276e+007  2.6679e+006 133355 217816,217920,217842
 6.2000e+001 217946 -1.2068e+006 -2.8378e+006  1.2404e+006 133355 217842,217894,217868
 6.2000e+001 218193 -3.1711e+005 -7.8594e+006  4.6918e+005 132851 218017,218095,218069
 6.2000e+001 218170 -4.6438e+006 -8.5150e+006  7.0097e+006 132851 218017,218121,218095
 6.2000e+001 218147 -1.7794e+006 -3.2838e+006 -8.0279e+005 132851 218017,218069,218043
 6.2000e+001 218345 -3.4981e+004 -1.9054e+005  5.7661e+004 132511 218244,218296,218270
 6.2000e+001 218322 -2.0110e+004 -4.8542e+005  1.1812e+005 132511 218218,218296,218244
 6.2000e+001 218497  2.2648e+006 -2.9389e+007 -1.3865e+005 132235 218396,218448,218422
 6.2000e+001 218474 -4.4186e+005 -9.9882e+006  8.9257e+005 132235 218370,218448,218396
 6.2000e+001 218698  5.2100e+005 -1.1152e+007 -2.7430e+006 131945 218574,218626,218600
 6.2000e+001 218675 -6.4279e+005 -1.9277e+007 -8.2861e+005 131945 218522,218626,218574
 6.2000e+001 218652 -2.5317e+006 -8.8988e+006 -3.0382e+006 131945 218522,218574,218548
 6.2000e+001 218850 -3.3668e+005 -1.8184e+007  7.6233e+005 131655 218723,218775,218749
 6.2000e+001 218827  4.6177e+005 -1.2580e+007  3.8949e+005 131655 218723,218801,218775
 6.2000e+001 218953 -1.4189e-051 -1.6590e-051  4.3709e-051 131215 218875,218927,218901
 6.2000e+001 219105 -7.4887e+004 -2.1077e+006 -5.0890e+005 130875 218978,219030,219004
 6.2000e+001 219082 -1.7080e+005 -6.4311e+005 -1.3115e+005 130875 218978,219056,219030
 6.2000e+001 219306 -3.2252e+005 -1.4765e+006  6.6637e+004 130429 219156,219234,219208
 6.2000e+001 219283 -4.1955e+005 -7.6810e+005  2.0586e+005 130429 219130,219234,219156
 6.2000e+001 219260 -1.4226e+006 -1.7839e+006  5.8578e+005 130429 219156,219208,219182
 6.2000e+001 219507 -3.0113e+005 -1.0619e+006  4.3632e+005 130025 219383,219435,219409
 6.2000e+001 219484 -2.7107e+005 -1.3606e+006  5.7414e+005 130025 219331,219435,219383
 6.2000e+001 219461 -3.0819e+005 -8.1285e+005  3.3034e+005 130025 219331,219383,219357
 6.2000e+001 219659 -2.1388e+005 -4.1799e+006  2.7928e+005 129685 219558,219610,219584
 6.2000e+001 219636  4.9235e+005 -6.2337e+006 -3.3468e+006 129685 219532,219610,219558
 6.2000e+001 219860 -1.6051e+005 -9.9584e+005  5.2937e+005 129395 219710,219788,219762
 6.2000e+001 219837 -2.3447e+005 -1.0841e+006  4.7795e+005 129395 219684,219788,219710
 6.2000e+001 219814 -1.7489e+004 -1.3981e+006  2.3836e+005 129395 219710,219762,219736
 6.2000e+001 220061  3.7840e+004 -3.7939e+005  1.0189e+005 128991 219937,219989,219963
 6.2000e+001 220038  2.4596e+004 -5.3398e+005  6.5901e+004 128991 219885,219989,219937
 6.2000e+001 220015 -1.1640e+004 -7.5526e+005  1.4554e+005 128991 219885,219937,219911
 6.2000e+001 220262 -1.2347e+005 -1.7841e+005  2.6997e+004 128701 220086,220164,220112
 6.2000e+001 220239 -1.6948e+004 -4.9787e+005  1.5284e+005 128701 220086,220190,220164
 6.2000e+001 220216 -3.7026e+003 -2.1239e+005 -6.4627e+004 128701 220112,220164,220138
 6.2000e+001 220463 -3.8816e+006 -9.1796e+006  4.3473e+006 128297 220339,220391,220365
 6.2000e+001 220440  3.0204e+005 -1.4488e+007  3.1841e+006 128297 220313,220391,220339
 6.2000e+001 220417 -1.1932e+006 -2.0725e+007 -8.6746e+006 128297 220287,220391,220313
 6.2000e+001 220615 -8.0695e+005 -1.4462e+006 -7.9368e+005 128007 220488,220540,220514
 6.2000e+001 220592  7.2432e+005 -7.1027e+006 -4.6185e+005 128007 220488,220566,220540
 6.2000e+001 220767  3.2852e+004 -4.8673e+006 -1.0005e+005 127567 220640,220692,220666
 6.2000e+001 220744 -5.1409e+005 -1.4899e+006 -2.6771e+005 127567 220640,220718,220692
 6.2000e+001 220919 -1.7049e+006 -1.6356e+007 -2.2264e+006 127163 220792,220844,220818
 6.2000e+001 220896  2.1262e+005 -1.9766e+007  2.3524e+006 127163 220792,220870,220844
 6.2000e+001 221071 -2.3351e+006 -5.1190e+006  3.0154e+006 126915 220970,221022,220996
 6.2000e+001 221048 -2.7056e+006 -4.9601e+006  2.9653e+006 126915 220944,221022,220970
 6.2000e+001 221272 -1.9748e+006 -4.0897e+006  3.4182e+006 126461 221122,221174,221148
 6.2000e+001 221249 -1.3668e+006 -5.1697e+006 -3.3408e+005 126461 221122,221200,221174
 6.2000e+001 221226  3.6426e+004 -8.0130e+006 -1.6249e+006 126461 221096,221200,221122
 6.2000e+001 221375  1.4900e+000 -1.7776e+003 -8.4768e-001 126213 221297,221349,221323
 6.2000e+001 221478 -2.4266e-258 -2.0339e-259 -4.3062e-260 125766 221400,221452,221426
 6.2000e+001 221679 -3.5730e+004 -2.6557e+005  5.6736e+004 125212 221503,221555,221529
 6.2000e+001 221656 -2.5784e+004 -3.0861e+005  1.7449e+004 125212 221503,221581,221555
 6.2000e+001 221633  4.1225e+004 -9.7757e+005  3.4850e+005 125212 221503,221607,221581
 6.2000e+001 221929 -4.6771e+002  5.2695e+001  3.4959e+002 124872 221782,221834,221808
 6.2000e+001 221906 -1.8717e+003 -2.0154e+003  1.5471e+003 124872 221756,221834,221782
 6.2000e+001 221883 -5.0790e+003  1.6064e+003 -4.1834e+003 124872 221704,221834,221756
 6.2000e+001 221860 -4.4431e+003 -4.7670e+003 -6.7626e+003 124872 221704,221756,221730
 6.2000e+001 222130 -5.1555e+005 -8.0179e+006  2.0881e+005 124582 221980,222058,222006
 6.2000e+001 222107 -1.9871e+006 -7.8719e+006  3.6979e+005 124582 221954,222058,221980
 6.2000e+001 222084 -1.9961e+006 -7.5523e+006 -3.3034e+005 124582 222006,222058,222032
 6.2000e+001 222282 -1.9632e+006 -7.6744e+006 -2.6229e+006 124192 222181,222233,222207
 6.2000e+001 222259 -1.2626e+006 -6.1388e+006 -1.1823e+006 124192 222155,222233,222181
 6.2000e+001 222483 -6.1847e+005 -2.7318e+006 -1.7023e+006 123702 222333,222385,222359
 6.2000e+001 222460 -1.3946e+005 -1.2773e+006 -1.5183e+005 123702 222333,222411,222385
 6.2000e+001 222437 -1.0694e+005 -8.1722e+005 -2.3788e+005 123702 222307,222411,222333
 6.2000e+001 222635 -2.3227e+005 -5.5818e+005 -1.1593e+005 123312 222508,222560,222534
 6.2000e+001 222612  7.7315e+004 -2.0712e+006 -6.8822e+004 123312 222508,222586,222560
 6.2000e+001 222787 -2.9051e+003 -1.6469e+005 -1.8907e+004 122858 222686,222738,222712
 6.2000e+001 222764 -2.6658e+003 -1.5596e+005 -2.3837e+004 122858 222660,222738,222686
 6.2000e+001 222939 -1.5202e+004 -3.5700e+005 -1.6994e+003 122568 222812,222864,222838
 6.2000e+001 222916  2.2631e+004 -2.0649e+005 -9.1469e+003 122568 222812,222890,222864
 6.2000e+001 223091 -8.4922e+005 -1.7228e+006 -1.1495e+005 122392 222964,223016,222990
 6.2000e+001 223068 -6.7993e+005 -1.5206e+006 -3.1699e+005 122392 222964,223042,223016
 6.2000e+001 223292 -7.2967e+005 -2.7942e+006 -4.9726e+005 121852 223142,223220,223194
 6.2000e+001 223269 -4.0743e+006 -8.9334e+005  1.5545e+005 121852 223116,223220,223142
 6.2000e+001 223246 -4.8851e+006 -2.8275e+006 -4.2919e+006 121852 223142,223194,223168
 6.2000e+001 223493 -3.3588e+005 -9.4237e+005  6.0077e+005 121406 223343,223395,223369
 6.2000e+001 223470 -1.2560e+006 -6.9900e+005  2.4962e+005 121406 223343,223421,223395
 6.2000e+001 223447 -3.6264e+005 -5.2580e+005  2.7479e+005 121406 223317,223421,223343
 6.2000e+001 223645  3.5342e+005 -1.0901e+007  1.3892e+006 121002 223544,223596,223570
 6.2000e+001 223622 -1.2160e+006 -6.4204e+006  1.5667e+006 121002 223518,223596,223544
 6.2000e+001 223846 -1.4307e+005 -6.6581e+005 -1.1691e+005 120662 223670,223748,223696
 6.2000e+001 223823 -1.6402e+005 -3.0396e+005  9.3157e+004 120662 223670,223774,223748
 6.2000e+001 223800 -8.0659e+005 -1.7395e+005 -2.1718e+005 120662 223696,223748,223722
 6.2000e+001 224047 -8.7309e+003 -3.2322e+005  4.1626e+004 120222 223897,223949,223923
 6.2000e+001 224024  1.7263e+005 -4.0275e+005 -3.3321e+004 120222 223871,223949,223897
 6.2000e+001 224001 -5.2057e+004 -2.4567e+005 -6.8058e+004 120222 223871,223975,223949
 6.2000e+001 224248 -5.9454e+004 -2.2983e+005 -2.3754e+005 119875 224124,224176,224150
 6.2000e+001 224225 -2.8279e+005 -6.2641e+005 -4.0221e+005 119875 224098,224176,224124
 6.2000e+001 224202 -3.8878e+004 -1.3840e+005 -1.7805e+003 119875 224072,224176,224098
 6.2000e+001 224449 -5.4253e+003 -3.6116e+005  1.3373e+003 119677 224325,224377,224351
 6.2000e+001 224426 -1.5249e+004 -4.0034e+005  3.5356e+003 119677 224299,224377,224325
 6.2000e+001 224403 -4.7948e+003 -9.8303e+004  3.2749e+003 119677 224273,224377,224299
 6.2000e+001 224552  1.5694e+004 -3.9940e+004  1.3869e+004 119273 224474,224526,224500
 6.2000e+001 224704  8.7652e+004 -1.3245e+006 -1.7009e+005 118983 224603,224655,224629
 6.2000e+001 224681 -1.9877e+005 -5.7273e+005  1.9686e+005 118983 224577,224655,224603
 6.2000e+001 224856 -6.3306e+005 -9.5820e+005 -1.1298e+005 118529 224755,224807,224781
 6.2000e+001 224833 -9.5408e+004 -7.7393e+005  1.2717e+005 118529 224729,224807,224755
 6.2000e+001 225008 -4.0531e+004 -8.3147e+005  3.0889e+003 118353 224881,224933,224907
 6.2000e+001 224985 -2.3137e+004  5.1006e+004  1.1808e+004 118353 224881,224959,224933
 6.2000e+001 225209 -4.0611e+005 -5.6147e+006 -1.1863e+006 117949 225059,225137,225111
 6.2000e+001 225186 -3.9932e+005 -4.7016e+006  3.9244e+005 117949 225033,225137,225059
 6.2000e+001 225163 -2.0191e+005 -6.9579e+006 -5.0592e+005 117949 225059,225111,225085
 6.2000e+001 225410 -9.4478e+003 -6.8023e+006  8.0995e+005 117559 225260,225338,225312
 6.2000e+001 225387 -1.1312e+006 -7.1567e+006  5.3150e+005 117559 225234,225338,225260
 6.2000e+001 225364 -5.5529e+005 -4.7346e+006 -1.6211e+006 117559 225260,225312,225286
 6.2000e+001 225611 -1.1720e+006 -8.6882e+006 -3.1716e+006 117361 225461,225513,225487
 6.2000e+001 225588 -8.4584e+005 -9.3634e+006  1.2538e+006 117361 225461,225539,225513
 6.2000e+001 225565 -9.3803e+005 -8.7120e+006  1.6805e+006 117361 225435,225539,225461
 6.2000e+001 225812  4.6164e+005 -6.8932e+006 -7.5655e+005 116900 225636,225714,225662
 6.2000e+001 225789 -1.0179e+006 -3.6938e+006 -1.0741e+006 116900 225636,225740,225714
 6.2000e+001 225766 -1.6730e+003 -7.0386e+006 -1.3438e+005 116900 225662,225714,225688
 6.2000e+001 225964 -2.2864e+005 -3.7521e+006 -1.3153e+005 116560 225837,225889,225863
 6.2000e+001 225941  1.0899e+005 -5.7495e+006  3.1087e+005 116560 225837,225915,225889
 6.2000e+001 226165 -3.9659e+004 -4.9670e+005 -2.3825e+005 116106 226015,226093,226041
 6.2000e+001 226142 -3.5069e+005 -4.4187e+005 -4.4754e+005 116106 225989,226093,226015
 6.2000e+001 226119 -3.8305e+004 -2.8333e+005  4.3085e+004 116106 226041,226093,226067
 6.2000e+001 226268 -1.1414e+006 -4.5967e+006  8.2216e+005 115716 226190,226242,226216
 6.2000e+001 226420  1.3618e+005 -8.9543e+006  1.8828e+006 115376 226293,226345,226319
 6.2000e+001 226397 -6.2004e+004 -9.1001e+006  2.0705e+006 115376 226293,226371,226345
 6.2000e+001 226621 -6.3234e+005 -1.7663e+006  4.1228e+005 114972 226497,226549,226523
 6.2000e+001 226598 -4.6871e+005 -9.1383e+006 -3.8375e+005 114972 226445,226549,226497
 6.2000e+001 226575  3.6175e+004 -4.8057e+006  8.0993e+005 114972 226445,226497,226471
 6.2000e+001 226773 -1.5615e+006 -2.1851e+006 -1.0396e+006 114670 226646,226698,226672
 6.2000e+001 226750  4.6244e+005 -6.1773e+006  7.6182e+005 114670 226646,226724,226698
 6.2000e+001 226974  3.6352e+004 -2.0134e+006 -2.9206e+005 114082 226798,226850,226824
 6.2000e+001 226951  1.1275e+005 -2.6509e+006 -6.8498e+004 114082 226798,226902,226850
 6.2000e+001 226928  6.3649e+003 -3.7092e+006 -3.0431e+005 114082 226850,226902,226876
 6.2000e+001 227175 -6.1789e+005 -4.4114e+006 -1.9991e+006 113678 226999,227051,227025
 6.2000e+001 227152 -1.9745e+006 -8.2689e+006 -3.5792e+006 113678 226999,227077,227051
 6.2000e+001 227129 -2.6815e+006 -5.3799e+006 -3.1457e+006 113678 226999,227103,227077
 6.2000e+001 227425 -3.9404e+006 -8.5753e+006 -9.3839e+006 113274 227226,227278,227252
 6.2000e+001 227402 -8.3013e+005 -8.1993e+006 -2.2828e+006 113274 227226,227330,227278
 6.2000e+001 227379 -4.5063e+006 -5.3014e+006 -2.6426e+006 113274 227200,227330,227226
 6.2000e+001 227356 -1.9347e+006 -1.8538e+006 -2.1321e+006 113274 227278,227330,227304
 6.2000e+001 227626 -2.4226e+005 -3.4302e+006 -1.8684e+006 112934 227502,227554,227528
 6.2000e+001 227603  5.6727e+005 -2.4763e+006  8.3752e+004 112934 227450,227554,227502
 6.2000e+001 227580 -1.5647e+006 -3.3478e+005  4.8169e+005 112934 227450,227502,227476
 6.2000e+001 227876 -1.3718e+005 -1.4695e+006 -8.0298e+004 112437 227677,227755,227703
 6.2000e+001 227853 -9.7059e+005 -1.8410e+006  1.2600e+006 112437 227677,227781,227755
 6.2000e+001 227830 -1.9664e+005 -7.8764e+005  3.1937e+005 112437 227703,227755,227729
 6.2000e+001 227807 -3.7132e+005 -5.5261e+006 -3.0584e+004 112437 227651,227781,227677
 6.2000e+001 228126 -2.5175e+005 -4.2231e+006 -1.3368e+005 112041 227927,228005,227953
 6.2000e+001 228103 -5.5639e+005 -4.7844e+006 -4.8688e+005 112041 227927,228031,228005
 6.2000e+001 228080 -2.7491e+005 -5.1180e+006 -1.6853e+005 112041 227953,228005,227979
 6.2000e+001 228057 -6.5052e+005 -3.4963e+006 -5.2825e+005 112041 227901,228031,227927
 6.2000e+001 228327 -1.3986e+006 -2.9947e+006 -1.0101e+005 111693 228151,228203,228177
 6.2000e+001 228304 -2.2757e+005 -1.9508e+006 -8.8748e+005 111693 228151,228229,228203
 6.2000e+001 228281  4.4311e+005 -4.1224e+006  7.0761e+005 111693 228151,228255,228229
 6.2000e+001 228479 -4.2840e+006 -2.5775e+006 -4.3060e+006 111253 228352,228404,228378
 6.2000e+001 228456 -2.6567e+006 -5.0237e+005 -9.9808e+004 111253 228352,228430,228404
 6.2000e+001 228582 -3.5146e+002 -3.9010e+004 -7.7340e+001 110906 228504,228556,228530
 6.2000e+001 228783 -2.8312e+004 -1.9770e+006  6.6715e+003 110416 228633,228711,228659
 6.2000e+001 228760  8.2269e+004 -1.5084e+006  1.6469e+004 110416 228607,228711,228633
 6.2000e+001 228737  3.0464e+004 -1.9653e+006 -3.9065e+004 110416 228659,228711,228685
 6.2000e+001 228935  5.0702e+004 -3.2623e+006 -6.5939e+005 110012 228808,228860,228834
 6.2000e+001 228912 -6.2904e+005 -5.6412e+006 -1.0353e+006 110012 228808,228886,228860
 6.2000e+001 229087 -9.4016e+005 -2.2298e+006 -1.2571e+006 109672 228960,229012,228986
 6.2000e+001 229064  3.5715e+005 -5.1715e+006 -3.9444e+005 109672 228960,229038,229012
 6.2000e+001 229190 -1.6633e+003 -1.6990e+005  1.6256e+004 109332 229112,229164,229138
 6.2000e+001 229391 -3.9902e+005 -1.5730e+005  1.6249e+005 109156 229267,229319,229293
 6.2000e+001 229368 -3.5707e+005 -9.8558e+005  3.5281e+005 109156 229215,229319,229267
 6.2000e+001 229345 -2.3546e+005 -4.8948e+005  3.3483e+005 109156 229215,229267,229241
 6.2000e+001 229543  8.4697e+005 -1.1288e+007  1.5667e+006 108752 229416,229468,229442
 6.2000e+001 229520 -9.4159e+005 -4.5990e+006 -6.7333e+005 108752 229416,229494,229468
 6.2000e+001 229744 -8.0138e+004 -6.4688e+006  2.7900e+005 108198 229594,229646,229620
 6.2000e+001 229721  2.6476e+005 -6.3516e+006 -1.9669e+005 108198 229594,229672,229646
 6.2000e+001 229698 -3.2532e+005 -6.0494e+006 -7.9137e+004 108198 229568,229672,229594
 6.2000e+001 229847 -1.3768e+005 -1.6795e+006 -3.8294e+005 107758 229769,229821,229795
 6.2000e+001 230048 -8.0752e+005 -2.0534e+006 -2.6831e+005 107468 229898,229950,229924
 6.2000e+001 230025 -5.4618e+005 -1.7197e+006  2.9668e+005 107468 229872,229950,229898
 6.2000e+001 230002 -1.0454e+006 -1.9255e+006  4.4906e+005 107468 229872,229976,229950
 6.2000e+001 230298  3.7328e+004 -1.1408e+006  2.2154e+005 107121 230099,230203,230177
 6.2000e+001 230275 -7.4696e+004 -1.9071e+006  1.2822e+005 107121 230073,230203,230099
 6.2000e+001 230252  2.8836e+005 -1.2238e+006 -6.2262e+004 107121 230099,230177,230151
 6.2000e+001 230229 -1.3956e+005 -9.6947e+005 -3.6827e+005 107121 230099,230151,230125
 6.2000e+001 230450  1.3996e+005 -2.0776e+006 -1.3270e+005 106823 230349,230401,230375
 6.2000e+001 230427 -7.9218e+004 -1.0843e+006  7.5457e+004 106823 230323,230401,230349
 6.2000e+001 230602 -3.1244e+006 -1.2610e+007 -8.9136e+006 106533 230501,230553,230527
 6.2000e+001 230579 -1.5089e+005 -1.3642e+007  2.3402e+006 106533 230475,230553,230501
 6.2000e+001 230803 -8.7419e+004 -2.3606e+006 -9.0134e+003 106029 230679,230731,230705
 6.2000e+001 230780  8.9342e+004 -1.6499e+006  1.4543e+004 106029 230653,230731,230679
 6.2000e+001 230757  1.7190e+004 -1.9828e+006 -6.8019e+004 106029 230627,230731,230653
 6.2000e+001 231004 -1.3314e+005 -1.5290e+006  1.4945e+005 105689 230854,230906,230880
 6.2000e+001 230981  6.6749e+003 -1.8635e+006 -2.2079e+005 105689 230828,230906,230854
 6.2000e+001 230958 -5.4343e+005 -1.6642e+006 -3.8785e+005 105689 230828,230932,230906
 6.2000e+001 231156  4.9664e+005 -8.8524e+006 -5.3557e+005 105377 231055,231107,231081
 6.2000e+001 231133 -1.0996e+004 -5.2724e+006  5.4471e+005 105377 231029,231107,231055
 6.2000e+001 231406 -4.0840e+005 -9.3099e+006 -1.8242e+006 104858 231207,231259,231233
 6.2000e+001 231383 -1.5641e+006 -9.4297e+006 -1.9478e+006 104858 231207,231311,231259
 6.2000e+001 231360 -6.9141e+005 -1.1076e+007 -2.7620e+006 104858 231259,231311,231285
 6.2000e+001 231337 -3.5697e+005 -1.2207e+007 -2.5403e+006 104858 231181,231311,231207
 6.2000e+001 231558 -1.7564e+006 -1.6939e+007  4.5824e+006 104418 231457,231509,231483
 6.2000e+001 231535 -3.1757e+006 -1.6495e+007 -8.1797e+006 104418 231431,231509,231457
 6.2000e+001 231710 -1.5358e+006 -1.5928e+006 -5.0454e+005 103978 231583,231635,231609
 6.2000e+001 231687 -8.9306e+005 -1.6209e+006 -8.6878e+005 103978 231583,231661,231635
 6.2000e+001 231862 -1.2773e+005 -3.5345e+006  1.4672e+005 103588 231761,231813,231787
 6.2000e+001 231839 -2.1726e+003 -2.8157e+006 -1.5607e+004 103588 231735,231813,231761
 6.2000e+001 232014 -2.3489e+006 -1.0073e+007 -3.3409e+006 103248 231887,231939,231913
 6.2000e+001 231991 -2.5940e+006 -2.0204e+007 -7.9149e+006 103248 231887,231965,231939
 6.2000e+001 232215 -1.7790e+002 -1.5407e+003 -2.4478e+002 102844 232039,232117,232065
 6.2000e+001 232192  4.2531e+002 -1.6827e+002 -8.5198e+002 102844 232039,232143,232117
 6.2000e+001 232169 -5.9563e+002 -6.5269e+002 -8.5207e+002 102844 232065,232117,232091
 6.2000e+001 232416 -4.2332e+006 -1.1138e+007 -5.2074e+006 102554 232240,232318,232292
 6.2000e+001 232393  1.5199e+006 -1.8528e+007 -6.9632e+005 102554 232240,232344,232318
 6.2000e+001 232370 -5.8813e+006 -3.8868e+006 -1.1714e+006 102554 232240,232292,232266
 6.2000e+001 232568 -6.5404e+004 -1.7297e+006  7.4602e+004 102100 232441,232493,232467
 6.2000e+001 232545 -3.9008e+005 -1.9358e+006  4.7561e+005 102100 232441,232519,232493
 6.2000e+001 232769 -6.7146e+004 -8.1345e+005  1.4301e+005 101596 232645,232697,232671
 6.2000e+001 232746  2.6659e+004 -4.4586e+005  7.8205e+004 101596 232593,232697,232645
 6.2000e+001 232723 -2.3019e+004 -7.8158e+005  1.3702e+005 101596 232593,232645,232619
 6.2000e+001 232921  5.3422e+003 -3.6280e+004  1.5001e+003 101420 232794,232846,232820
 6.2000e+001 232898 -6.7184e+003 -1.4686e+005 -3.7255e+003 101420 232794,232872,232846
 6.2000e+001 233073 -1.0405e+006 -1.1252e+006 -1.2706e+005 101023 232946,232998,232972
 6.2000e+001 233050 -1.3436e+005 -2.5593e+006  9.5548e+005 101023 232946,233024,232998
 6.2000e+001 233225 -5.5231e+002 -7.7611e+002  9.3339e+001 100661 233098,233150,233124
 6.2000e+001 233202 -1.5734e+003 -1.0423e+002  4.6650e+002 100661 233098,233176,233150
 6.2000e+001 233426 -2.2880e+006 -8.3711e+006 -3.0168e+006 100265 233276,233328,233302
 6.2000e+001 233403 -1.0804e+006 -7.1522e+006 -4.2001e+005 100265 233276,233354,233328
 6.2000e+001 233380 -1.9447e+006 -8.8594e+006 -1.1247e+006 100265 233250,233354,233276
 6.2000e+001 233578 -1.6760e+003 -7.7762e+005  3.6820e+004 100032 233451,233503,233477
 6.2000e+001 233555 -9.2428e+003 -7.5910e+005  2.0839e+005 100032 233451,233529,233503
 6.2000e+001 233681 -3.9120e+005 -8.5748e+004 -1.8376e+005 99742 233603,233655,233629
 6.2000e+001 233784 -8.0863e+005 -2.9946e+006 -5.2385e+004 99402 233706,233758,233732
 6.2000e+001 233936 -6.5160e+005 -2.1004e+006  4.6667e+005 99062 233835,233887,233861
 6.2000e+001 233913 -5.9583e+005 -1.8436e+006  3.3103e+005 99062 233809,233887,233835
 6.2000e+001 234088 -8.4341e+005 -3.9847e+006  1.4470e+006 98772 233987,234039,234013
 6.2000e+001 234065 -4.0672e+005 -3.9619e+006  1.1845e+006 98772 233961,234039,233987
 6.2000e+001 234240 -1.4553e+004 -5.4307e+004  1.8823e+004 98160 234139,234191,234165
 6.2000e+001 234217 -1.6916e+004 -7.0273e+004 -8.6238e+003 98160 234113,234191,234139
 6.2000e+001 234441  2.6164e+001  1.6239e+002  2.0076e+002 97820 234317,234369,234343
 6.2000e+001 234418  7.5587e+001  3.8510e+002  2.7338e+002 97820 234291,234369,234317
 6.2000e+001 234395 -3.4465e+002  2.8757e+002  4.9949e+001 97820 234265,234369,234291
 6.2000e+001 234593 -3.6115e+005 -1.7036e+006 -2.2557e+005 97366 234466,234518,234492
 6.2000e+001 234570  1.5869e+005 -3.9471e+006 -3.0170e+005 97366 234466,234544,234518
 6.2000e+001 234794 -8.3562e+005 -1.3221e+006 -8.4960e+005 96976 234618,234670,234644
 6.2000e+001 234771 -1.2649e+005 -2.8085e+006 -6.7130e+005 96976 234618,234722,234670
 6.2000e+001 234748 -4.2765e+005 -2.4964e+006 -1.2551e+006 96976 234670,234722,234696
 6.2000e+001 234946 -8.3926e+005 -1.3749e+006  4.4617e+005 96568 234845,234897,234871
 6.2000e+001 234923 -5.5484e+005 -8.1166e+005  9.6364e+005 96568 234819,234897,234845
 6.2000e+001 235196 -1.9576e+005 -8.7718e+005 -2.5216e+005 96216 234997,235075,235049
 6.2000e+001 235173  8.0705e+004 -4.2061e+006  1.2416e+006 96216 234997,235101,235075
 6.2000e+001 235150 -4.5264e+005 -1.0497e+006  1.0584e+005 96216 234997,235049,235023
 6.2000e+001 235127 -2.1635e+005 -4.4147e+006  9.7725e+005 96216 234971,235101,234997
 6.2000e+001 235348 -1.0473e+006 -1.8880e+006 -1.3587e+006 95863 235247,235299,235273
 6.2000e+001 235325 -7.3857e+005 -1.4636e+006 -1.0003e+006 95863 235221,235299,235247
 6.2000e+001 235500 -8.1724e+005 -2.5644e+006 -1.2582e+006 95339 235373,235425,235399
 6.2000e+001 235477 -6.7171e+005 -4.2939e+006  3.2314e+006 95339 235373,235451,235425
 6.2000e+001 235701  7.4300e+004 -3.8379e+006  8.5488e+005 95023 235525,235577,235551
 6.2000e+001 235678 -1.7519e+005 -3.7396e+006  7.7053e+005 95023 235525,235629,235577
 6.2000e+001 235655 -2.1790e+005 -6.5146e+006  1.3673e+006 95023 235577,235629,235603
 6.2000e+001 235853  4.2171e+005 -1.5395e+007  5.1650e+004 94671 235726,235778,235752
 6.2000e+001 235830  8.2201e+004 -1.5546e+007  1.6486e+005 94671 235726,235804,235778
 6.2000e+001 236005 -1.4690e+006 -9.1569e+006 -9.3071e+004 94261 235904,235956,235930
 6.2000e+001 235982 -3.0794e+005 -1.3245e+007 -4.1724e+006 94261 235878,235956,235904
 6.2000e+001 236206 -7.3174e+005 -9.5638e+005  1.1572e+006 93853 236056,236134,236082
 6.2000e+001 236183 -1.2308e+006 -1.1122e+006  4.9768e+005 93853 236030,236134,236056
 6.2000e+001 236160 -1.0763e+006 -1.1311e+006  9.9163e+005 93853 236082,236134,236108
 6.2000e+001 236407 -1.7917e+006 -5.4173e+006  2.8368e+005 93557 236257,236309,236283
 6.2000e+001 236384 -3.2827e+006 -6.3353e+006 -2.3955e+006 93557 236231,236309,236257
 6.2000e+001 236361  1.3571e+006 -2.0803e+007  2.1361e+006 93557 236231,236335,236309
 6.2000e+001 236559  3.2580e+001 -3.2877e+004  1.0219e+004 93149 236432,236484,236458
 6.2000e+001 236536  1.5939e+004 -4.3074e+003  3.3141e+004 93149 236432,236510,236484
 6.2000e+001 236711 -1.5516e+005 -3.2246e+005  1.4587e+005 92853 236584,236636,236610
 6.2000e+001 236688 -2.6292e+004 -8.3588e+005  2.0757e+005 92853 236584,236662,236636
 6.2000e+001 236912 -1.6181e+005 -2.6685e+006  9.0578e+005 92501 236736,236788,236762
 6.2000e+001 236889 -4.6462e+005 -1.4812e+006  2.5632e+005 92501 236736,236840,236788
 6.2000e+001 236866 -5.9206e+005 -2.1446e+006  1.8725e+005 92501 236788,236840,236814
 6.2000e+001 237113 -1.2485e+005 -5.6262e+006  2.2453e+005 92291 236963,237041,237015
 6.2000e+001 237090  1.8571e+005 -3.1479e+006  8.2747e+004 92291 236937,237041,236963
 6.2000e+001 237067 -2.6159e+005 -5.1212e+006  1.1562e+006 92291 236963,237015,236989
 6.2000e+001 237265  1.2575e+005 -1.2834e+006 -4.9760e+005 91871 237138,237190,237164
 6.2000e+001 237242 -7.8455e+005 -3.1614e+006 -1.2321e+006 91871 237138,237216,237190
 6.2000e+001 237368 -1.4950e+002 -1.8992e+006  7.9086e+001 91581 237290,237342,237316
 6.2000e+001 237520 -3.9698e+004 -2.5050e+005  7.6078e+004 91184 237419,237471,237445
 6.2000e+001 237497 -1.1156e+005 -4.2044e+005 -6.9846e+004 91184 237393,237471,237419
 6.2000e+001 237672 -5.0755e+005 -1.5072e+006 -2.6868e+005 90894 237545,237597,237571
 6.2000e+001 237649 -2.4375e+005 -5.4049e+006  1.5081e+006 90894 237545,237623,237597
 6.2000e+001 237873 -7.9441e+005 -3.8568e+006  8.1966e+005 90490 237749,237801,237775
 6.2000e+001 237850 -5.2757e+005 -3.5530e+006  1.0396e+006 90490 237723,237801,237749
 6.2000e+001 237827 -1.0931e+006 -3.6852e+006 -7.0535e+005 90490 237697,237801,237723
 6.2000e+001 238074 -5.8882e+005 -6.4792e+006  4.5116e+005 90100 237898,237976,237950
 6.2000e+001 238051 -1.7408e+006 -6.4170e+006  2.7077e+004 90100 237898,238002,237976
 6.2000e+001 238028 -4.8633e+005 -4.4298e+006  4.0231e+005 90100 237898,237950,237924
 6.2000e+001 238275  7.1567e+004 -1.5628e+006  6.9580e+005 89696 238125,238177,238151
 6.2000e+001 238252 -4.9195e+005 -8.6829e+005 -8.3300e+005 89696 238099,238177,238125
 6.2000e+001 238229 -7.7278e+005 -2.3777e+006 -5.5121e+005 89696 238099,238203,238177
 6.2000e+001 238427  2.0620e+004 -7.8834e+004 -2.9537e+004 89206 238326,238378,238352
 6.2000e+001 238404 -2.8358e+004 -4.5375e+005 -7.9081e+004 89206 238300,238378,238326
 6.2000e+001 238579 -5.8625e+005 -3.2537e+006  1.1453e+006 88908 238452,238504,238478
 6.2000e+001 238556 -1.0816e+005 -2.6925e+006  1.6078e+005 88908 238452,238530,238504
 6.2000e+001 238682  1.3558e+002 -1.9228e+002  8.5783e+001 88568 238604,238656,238630
 6.2000e+001 238883  2.1938e+005 -5.1762e+006  1.6052e+006 88278 238733,238811,238785
 6.2000e+001 238860 -7.1987e+005 -2.4564e+006  1.4157e+006 88278 238707,238811,238733
 6.2000e+001 238837 -1.8609e+005 -5.5373e+006  1.0151e+006 88278 238733,238785,238759
 6.2000e+001 239035 -1.4538e+006 -4.7370e+006 -4.2490e+005 87988 238908,238960,238934
 6.2000e+001 239012 -1.7324e+006 -2.4099e+006  4.6954e+005 87988 238908,238986,238960
 6.2000e+001 239138 -6.8722e+004 -6.9965e+005  9.6614e+004 87648 239060,239112,239086
 6.2000e+001 239339 -1.4325e+006 -3.3858e+006 -2.2819e+006 87358 239163,239215,239189
 6.2000e+001 239316 -1.4300e+006 -1.9243e+006 -3.8932e+005 87358 239163,239241,239215
 6.2000e+001 239293 -9.1323e+005 -1.2612e+006 -7.5935e+005 87358 239163,239267,239241
 6.2000e+001 239589 -1.0733e+002 -2.0988e+004  3.8365e+003 86961 239390,239468,239416
 6.2000e+001 239566 -2.6203e+004 -1.5662e+004  2.0871e+004 86961 239390,239494,239468
 6.2000e+001 239543 -2.6145e+003 -1.1691e+003  1.1734e+003 86961 239416,239468,239442
 6.2000e+001 239520 -1.1390e+004 -9.1247e+004  3.2971e+003 86961 239364,239494,239390
 6.2000e+001 239741 -1.1454e+006 -2.2788e+006 -1.3954e+005 86621 239640,239692,239666
 6.2000e+001 239718 -9.1971e+004 -4.0734e+006 -1.3833e+006 86621 239614,239692,239640
 6.2000e+001 239893 -5.6502e+005 -4.5510e+006  1.3289e+006 86217 239792,239844,239818
 6.2000e+001 239870 -6.7210e+005 -3.7181e+006  9.0407e+005 86217 239766,239844,239792
 6.2000e+001 240045 -7.1002e+005 -3.7422e+006  7.3805e+005 85827 239918,239970,239944
 6.2000e+001 240022 -2.0432e+005 -3.5965e+006  2.6990e+005 85827 239918,239996,239970
 6.2000e+001 240197 -6.5770e+005 -6.7912e+006  9.4000e+005 85437 240096,240148,240122
 6.2000e+001 240174 -1.5144e+006 -6.6364e+005 -4.7674e+005 85437 240070,240148,240096
 6.2000e+001 240349  3.1923e+004 -1.0416e+006  1.8971e+005 85147 240222,240274,240248
 6.2000e+001 240326 -6.1199e+004 -7.3059e+005 -1.2995e+005 85147 240222,240300,240274
 6.2000e+001 240501 -1.4772e+005 -1.1002e+006  4.6561e+005 84807 240374,240426,240400
 6.2000e+001 240478 -1.6474e+006 -2.5242e+006  1.7672e+006 84807 240374,240452,240426
 6.2000e+001 240653  1.6889e+002  2.6537e+001  6.6053e+001 84303 240552,240604,240578
 6.2000e+001 240630  1.4068e+002 -1.9234e+002  1.0099e+002 84303 240526,240604,240552
 6.2000e+001 240854 -2.5944e+005 -1.0448e+007 -5.0741e+006 83929 240704,240756,240730
 6.2000e+001 240831  1.5232e+006 -8.3440e+006  2.3185e+006 83929 240704,240782,240756
 6.2000e+001 240808 -3.1367e+006  1.8006e+006  2.6018e+006 83929 240678,240782,240704
 6.2000e+001 241055  1.7930e+003 -2.6468e+004 -4.5673e+003 83539 240879,240957,240931
 6.2000e+001 241032  3.8997e+003 -2.6858e+004 -3.2808e+003 83539 240879,240983,240957
 6.2000e+001 241009 -6.2123e+003 -4.2957e+003 -5.2143e+003 83539 240879,240931,240905
 6.2000e+001 241207 -4.4127e+004 -7.6575e+005  8.0918e+004 83079 241106,241158,241132
 6.2000e+001 241184  4.3004e+004 -1.1442e+006  6.9860e+004 83079 241080,241158,241106
 6.2000e+001 241408 -2.4053e+005 -1.8259e+006 -1.1555e+006 82665 241232,241284,241258
 6.2000e+001 241385 -6.2998e+005 -1.8341e+006 -3.7064e+006 82665 241232,241336,241284
 6.2000e+001 241362 -3.7887e+006 -1.0836e+007  6.4055e+006 82665 241284,241336,241310
 6.2000e+001 241658 -2.2387e+005 -3.9203e+006  5.4378e+005 82375 241485,241563,241511
 6.2000e+001 241635 -3.4479e+003 -2.1738e+006  1.9704e+005 82375 241433,241563,241485
 6.2000e+001 241612 -1.0124e+005 -2.5970e+006  1.8535e+005 82375 241433,241485,241459
 6.2000e+001 241589 -6.2720e+005 -4.2466e+006  7.6734e+005 82375 241511,241563,241537
 6.2000e+001 241810 -1.0108e+006 -2.8806e+006 -4.6352e+005 82035 241683,241735,241709
 6.2000e+001 241787 -1.6291e+006 -4.1454e+006  1.1443e+006 82035 241683,241761,241735
 6.2000e+001 241962 -8.9031e+005 -2.4861e+006  6.6894e+005 81695 241861,241913,241887
 6.2000e+001 241939 -2.3479e+005 -3.2709e+006 -8.7470e+005 81695 241835,241913,241861
 6.2000e+001 242114 -1.1904e+006 -5.7229e+006  2.1278e+006 81355 242013,242065,242039
 6.2000e+001 242091 -2.4374e+005 -2.8020e+006  8.3642e+005 81355 241987,242065,242013
 6.2000e+001 242266 -3.5247e+002 -5.2827e+005  6.2241e+003 80951 242139,242191,242165
 6.2000e+001 242243 -1.5681e+005 -1.1282e+006 -1.1012e+005 80951 242139,242217,242191
 6.2000e+001 242467 -4.2371e+005 -4.8652e+006  5.3646e+005 80311 242291,242369,242343
 6.2000e+001 242444  1.4535e+005 -2.4183e+006  4.2075e+005 80311 242291,242395,242369
 6.2000e+001 242421 -1.6067e+005 -1.2077e+006  2.0539e+005 80311 242291,242343,242317
 6.2000e+001 242619 -1.4047e+006 -2.6163e+006  4.2496e+005 80021 242492,242544,242518
 6.2000e+001 242596 -1.3405e+006 -2.4246e+006  1.4707e+006 80021 242492,242570,242544
 6.2000e+001 242869 -2.9395e+005  5.0407e+004 -1.2315e+005 79631 242644,242722,242696
 6.2000e+001 242846 -3.1100e+004 -1.3531e+006  2.0116e+005 79631 242644,242774,242722
 6.2000e+001 242823  2.4663e+005 -3.7868e+005  3.6004e+004 79631 242722,242774,242748
 6.2000e+001 242800 -2.3846e+005 -7.0082e+004  2.6217e+005 79631 242644,242696,242670
 6.2000e+001 243070 -3.2865e+005 -1.4819e+007  3.7290e+006 79341 242920,242972,242946
 6.2000e+001 243047 -8.4783e+005 -6.9404e+006 -3.3678e+005 79341 242920,242998,242972
 6.2000e+001 243024 -8.2866e+005 -4.3798e+006  1.9052e+006 79341 242894,242998,242920
 6.2000e+001 243222 -4.8250e+005 -3.5387e+006  1.5617e+006 78801 243121,243173,243147
 6.2000e+001 243199 -4.0235e+005 -3.4184e+006  1.3028e+006 78801 243095,243173,243121
 6.2000e+001 243423 -1.0257e+006 -5.2840e+006  1.9475e+004 78511 243273,243325,243299
 6.2000e+001 243400  4.2939e+005 -9.3924e+006  2.1307e+006 78511 243273,243351,243325
 6.2000e+001 243377 -4.2972e+003 -9.6062e+006  2.1176e+005 78511 243247,243351,243273
 6.2000e+001 243624 -4.7805e+005 -4.1069e+006 -1.4986e+006 78107 243474,243552,243526
 6.2000e+001 243601 -6.4849e+005 -5.1286e+006 -1.4804e+006 78107 243448,243552,243474
 6.2000e+001 243578 -2.2255e+005 -3.8948e+006 -1.3202e+006 78107 243474,243526,243500
 6.2000e+001 243776 -7.5453e+005 -4.8345e+006 -1.2342e+006 77653 243649,243701,243675
 6.2000e+001 243753 -1.6688e+006 -6.7565e+006 -3.9219e+005 77653 243649,243727,243701
 6.2000e+001 243977 -3.8175e+005 -5.7114e+006  3.0684e+004 77093 243801,243853,243827
 6.2000e+001 243954 -6.4257e+004 -4.7586e+006  6.8343e+005 77093 243801,243879,243853
 6.2000e+001 243931 -3.9241e+005 -1.7927e+006 -2.0429e+005 77093 243801,243905,243879
 6.2000e+001 244080 -6.5225e+005 -7.3290e+006  4.3365e+005 76791 244002,244054,244028
 6.2000e+001 244232 -4.5224e+005 -4.4027e+006  1.8614e+005 76311 244131,244183,244157
 6.2000e+001 244209 -1.8012e+005 -9.6836e+006  9.6120e+005 76311 244105,244183,244131
 6.2000e+001 244433 -8.2506e+005 -1.7065e+007  4.6241e+006 75903 244283,244335,244309
 6.2000e+001 244410 -1.4879e+006 -9.9488e+006 -7.4242e+005 75903 244283,244361,244335
 6.2000e+001 244387 -2.1002e+006 -8.9854e+006 -6.1752e+004 75903 244257,244361,244283
 6.2000e+001 244585  4.0390e+005 -1.6947e+007  1.4396e+006 75419 244458,244510,244484
 6.2000e+001 244562 -8.5271e+005 -8.4816e+006 -4.8362e+005 75419 244458,244536,244510
 6.2000e+001 244737 -3.7712e+005 -4.7529e+005 -1.6828e+005 75215 244636,244688,244662
 6.2000e+001 244714 -1.9257e+005 -4.2203e+006 -1.5357e+005 75215 244610,244688,244636
 6.2000e+001 244889 -8.0557e+005 -4.9700e+006 -4.1690e+005 74857 244788,244840,244814
 6.2000e+001 244866 -5.9005e+004 -2.0639e+006 -2.2671e+005 74857 244762,244840,244788
 6.2000e+001 245041 -1.0730e+005 -1.2114e+006 -6.8476e+005 74653 244940,244992,244966
 6.2000e+001 245018 -1.9174e+005 -2.8191e+005  5.2751e+005 74653 244914,244992,244940
 6.2000e+001 245144 -1.5680e+006 -5.5536e+006 -1.3488e+006 74359 245066,245118,245092
 6.2000e+001 245296 -5.5981e+004 -8.7175e+005 -2.6761e+005 74007 245169,245221,245195
 6.2000e+001 245273 -3.1333e+005 -1.4983e+006 -4.6242e+005 74007 245169,245247,245221
 6.2000e+001 245448 -1.1775e+006 -6.7114e+006  1.1894e+006 73711 245321,245373,245347
 6.2000e+001 245425 -3.5393e+005 -6.4637e+006 -1.7027e+006 73711 245321,245399,245373
 6.2000e+001 245600  7.3015e+005 -1.2434e+007 -9.0146e+005 73301 245499,245551,245525
 6.2000e+001 245577 -1.4199e+006 -8.6124e+006  2.0638e+006 73301 245473,245551,245499
 6.2000e+001 245752 -1.8599e+006 -2.7452e+006 -1.7026e+006 72995 245625,245677,245651
 6.2000e+001 245729  3.7555e+005 -1.0588e+007 -1.2481e+006 72995 245625,245703,245677
 6.2000e+001 245953 -1.6007e+006 -9.4730e+006  8.6534e+005 72585 245777,245829,245803
 6.2000e+001 245930 -7.3564e+005 -1.4669e+007  3.2110e+006 72585 245777,245855,245829
 6.2000e+001 245907 -5.0330e+005 -6.1666e+006  3.2679e+005 72585 245777,245881,245855
 6.2000e+001 246154 -3.8369e+005 -6.8005e+006  1.2258e+006 72127 246030,246082,246056
 6.2000e+001 246131 -8.8943e+005 -7.9433e+006  6.7812e+005 72127 245978,246082,246030
 6.2000e+001 246108 -9.7470e+004 -8.2167e+006  2.8580e+005 72127 245978,246030,246004
 6.2000e+001 246257 -1.8537e+006 -2.3812e+005 -5.2624e+004 71737 246179,246231,246205
 6.2000e+001 246360  1.6298e+005 -3.0565e+006  4.9522e+005 71447 246282,246334,246308
 6.2000e+001 246512 -6.4075e+004 -2.5920e+006  9.5362e+005 71157 246385,246437,246411
 6.2000e+001 246489 -7.2002e+004 -2.0321e+006 -1.1098e+005 71157 246385,246463,246437
 6.2000e+001 246664 -1.5608e+005 -2.1984e+006 -3.4519e+005 70753 246537,246589,246563
 6.2000e+001 246641 -5.8384e+005 -1.2129e+006 -1.5166e+005 70753 246537,246615,246589
 6.2000e+001 246865 -2.0412e+006 -9.0299e+006  6.1782e+006 70249 246715,246767,246741
 6.2000e+001 246842 -1.9635e+006 -8.2064e+006 -5.5726e+005 70249 246715,246793,246767
 6.2000e+001 246819 -9.5440e+004 -1.1213e+007 -2.2335e+006 70249 246689,246793,246715
 6.2000e+001 247066 -4.5076e+004 -1.8652e+006  2.9677e+005 70023 246916,246994,246942
 6.2000e+001 247043 -1.7035e+004 -1.8979e+006  2.8558e+005 70023 246890,246994,246916
 6.2000e+001 247020 -8.1168e+003 -1.7104e+006  2.9618e+005 70023 246942,246994,246968
 6.2000e+001 247267 -2.7453e+005 -3.4144e+006 -1.9852e+005 69633 247091,247143,247117
 6.2000e+001 247244 -4.4559e+004 -2.2477e+006 -6.9371e+004 69633 247091,247169,247143
 6.2000e+001 247221  4.0901e+004 -2.6318e+006 -2.4586e+005 69633 247091,247195,247169
 6.2000e+001 247419 -9.9714e+005 -5.1698e+006  6.0706e+005 69457 247318,247370,247344
 6.2000e+001 247396 -1.1316e+006 -2.7312e+006  8.5021e+005 69457 247292,247370,247318
 6.2000e+001 247522  2.0722e+001 -3.1175e+003  1.5344e+001 69209 247444,247496,247470
 6.2000e+001 247625 -1.7973e+006 -2.3238e+006 -1.4973e+006 68919 247547,247599,247573
 6.2000e+001 247777  1.7407e+005 -7.1856e+006 -3.1079e+005 68579 247650,247702,247676
 6.2000e+001 247754 -2.5109e+005 -1.9032e+006 -1.4289e+005 68579 247650,247728,247702
 6.2000e+001 247929 -6.6037e+004 -3.1920e+006  1.0671e+006 68289 247802,247854,247828
 6.2000e+001 247906 -2.6976e+005 -1.5056e+006 -4.4129e+005 68289 247802,247880,247854
 6.2000e+001 248081 -5.6183e+005 -4.8592e+006  1.6050e+006 67949 247980,248032,248006
 6.2000e+001 248058 -7.1524e+005 -5.9549e+005  3.2196e+005 67949 247954,248032,247980
 6.2000e+001 248233 -2.0828e+006 -5.2065e+006 -6.5335e+005 67616 248132,248184,248158
 6.2000e+001 248210 -5.4294e+005 -5.7615e+006 -2.3932e+005 67616 248106,248184,248132
 6.2000e+001 248434 -1.1154e+005 -4.5974e+006 -2.9592e+005 67212 248284,248336,248310
 6.2000e+001 248411 -7.5492e+004 -4.6015e+006 -3.3966e+005 67212 248258,248336,248284
 6.2000e+001 248388 -1.6873e+006 -2.0536e+006 -7.6856e+005 67212 248258,248362,248336
 6.2000e+001 248586  6.5917e+003 -5.4499e+006  1.0581e+006 66872 248485,248537,248511
 6.2000e+001 248563 -5.6686e+005 -7.1864e+005  1.8461e+005 66872 248459,248537,248485
 6.2000e+001 248738 -2.8817e+005 -4.8414e+006  1.2541e+005 66510 248637,248689,248663
 6.2000e+001 248715 -3.9550e+005 -7.5191e+006  1.8088e+005 66510 248611,248689,248637
 6.2000e+001 248890 -1.9186e+004 -4.9876e+005  9.7330e+004 66220 248789,248841,248815
 6.2000e+001 248867 -4.3539e+004 -6.4125e+005 -1.8042e+005 66220 248763,248841,248789
 6.2000e+001 249091 -1.1746e+006 -8.6462e+006  2.4229e+006 65759 248915,248967,248941
 6.2000e+001 249068 -9.5012e+005 -7.0198e+006  2.7109e+006 65759 248915,248993,248967
 6.2000e+001 249045 -6.2869e+005 -4.6599e+006  4.2341e+005 65759 248915,249019,248993
 6.2000e+001 249243 -1.1096e+005 -7.8616e+006  1.6603e+006 65419 249142,249194,249168
 6.2000e+001 249220  2.0670e+005 -2.5350e+006  5.9630e+005 65419 249116,249194,249142
 6.2000e+001 249395 -2.0662e+005 -1.5819e+006 -5.2599e+004 65079 249268,249320,249294
 6.2000e+001 249372 -2.4542e+005 -3.4883e+006 -5.6697e+005 65079 249268,249346,249320
 6.2000e+001 249547 -1.1468e+006 -2.6723e+006  1.2189e+006 64739 249420,249472,249446
 6.2000e+001 249524  3.0222e+005 -1.7836e+006 -1.1790e+005 64739 249420,249498,249472
 6.2000e+001 249650 -1.3749e+006 -3.2320e+006 -1.8544e+006 64342 249572,249624,249598
 6.2000e+001 249851 -1.4652e+005 -2.6316e+006 -1.7494e+005 63938 249701,249779,249753
 6.2000e+001 249828 -1.3803e+005 -2.7162e+006  3.4239e+005 63938 249675,249779,249701
 6.2000e+001 249805 -2.5774e+005 -1.9406e+006 -1.5096e+005 63938 249701,249753,249727
 6.2000e+001 250052 -3.5701e+005 -4.3417e+006 -2.8329e+005 63341 249876,249954,249902
 6.2000e+001 250029 -6.0766e+004 -6.6968e+006 -9.6233e+005 63341 249876,249980,249954
 6.2000e+001 250006 -8.0317e+004 -3.9156e+006 -6.1814e+005 63341 249902,249954,249928
 6.2000e+001 250253 -5.7160e+005 -9.9076e+005 -1.5873e+005 63058 250077,250129,250103
 6.2000e+001 250230 -1.8016e+006 -1.5397e+006  9.1658e+005 63058 250077,250155,250129
 6.2000e+001 250207 -2.9914e+005 -8.4591e+005  2.4606e+005 63058 250077,250181,250155
 6.2000e+001 250454 -7.3650e+005 -6.6200e+006  9.8385e+005 62832 250304,250382,250330
 6.2000e+001 250431  1.3543e+005 -8.2121e+006 -2.1690e+006 62832 250278,250382,250304
 6.2000e+001 250408 -1.6828e+006 -4.4388e+006  2.6884e+005 62832 250330,250382,250356
 6.2000e+001 250606 -2.6573e+005 -1.2886e+007 -1.3806e+006 62428 250479,250531,250505
 6.2000e+001 250583 -5.9039e+005 -1.2838e+007 -1.2528e+006 62428 250479,250557,250531
 6.2000e+001 250758 -2.7440e+005 -7.2646e+006  7.5294e+005 62202 250631,250683,250657
 6.2000e+001 250735 -5.2087e+005 -7.2681e+006  6.9161e+005 62202 250631,250709,250683
 6.2000e+001 250861  2.9462e+005 -2.8843e+006 -2.6720e+005 61954 250783,250835,250809
 6.2000e+001 251062 -2.3458e+006 -1.0406e+007 -5.8338e+005 61557 250912,250990,250938
 6.2000e+001 251039  1.3840e+005 -1.3606e+007 -1.1410e+006 61557 250886,250990,250912
 6.2000e+001 251016 -1.7257e+006 -1.4108e+007 -3.2001e+006 61557 250938,250990,250964
 6.2000e+001 251263 -4.5004e+005 -6.4942e+006 -4.6287e+004 61167 251113,251165,251139
 6.2000e+001 251240 -2.6335e+005 -6.1302e+006 -1.9132e+005 61167 251113,251191,251165
 6.2000e+001 251217 -1.1374e+006 -6.0395e+006  1.5307e+006 61167 251087,251191,251113
 6.2000e+001 251415 -7.1997e+005 -8.1367e+006  2.4661e+006 60827 251288,251340,251314
 6.2000e+001 251392 -6.4577e+005 -2.9723e+006 -7.3906e+005 60827 251288,251366,251340
 6.2000e+001 251567  4.8148e+004 -2.4358e+006 -2.6551e+005 60487 251466,251518,251492
 6.2000e+001 251544 -2.2107e+005 -3.7868e+006 -2.6508e+005 60487 251440,251518,251466
 6.2000e+001 251719 -5.5374e+005 -8.3223e+006 -1.1664e+006 59983 251592,251644,251618
 6.2000e+001 251696 -1.5452e+006 -8.2441e+006 -6.6627e+005 59983 251592,251670,251644
 6.2000e+001 251920  1.7963e+004 -1.2879e+006 -2.6343e+004 59807 251770,251848,251796
 6.2000e+001 251897  2.4584e+004 -1.2898e+006 -1.6177e+004 59807 251744,251848,251770
 6.2000e+001 251874 -5.6157e+004 -1.5835e+006 -9.3488e+003 59807 251796,251848,251822
 6.2000e+001 252023  2.3773e+005 -4.3674e+006 -2.8099e+002 59517 251945,251997,251971
 6.2000e+001 252175  1.7021e+006 -1.4719e+007 -3.0430e+005 59269 252074,252126,252100
 6.2000e+001 252152 -1.9419e+005 -9.1917e+006  1.6368e+005 59269 252048,252126,252074
 6.2000e+001 252278 -5.4426e+005 -1.0764e+007  1.9960e+006 58979 252200,252252,252226
 6.2000e+001 252381 -2.1127e+006 -2.0378e+006  1.7075e+006 58689 252303,252355,252329
 6.2000e+001 252533 -2.8016e+005 -2.7223e+006 -1.0186e+006 58249 252432,252484,252458
 6.2000e+001 252510 -1.0055e+006 -5.7635e+006 -1.0025e+006 58249 252406,252484,252432
 6.2000e+001 252734 -2.8999e+005 -1.8726e+006  3.5464e+005 57902 252584,252662,252610
 6.2000e+001 252711  7.3919e+004 -4.2147e+006 -8.1348e+005 57902 252558,252662,252584
 6.2000e+001 252688 -2.8707e+005 -1.0659e+006 -1.4959e+005 57902 252610,252662,252636
 6.2000e+001 252886  3.6571e+004 -4.6656e+006 -3.6481e+004 57540 252785,252837,252811
 6.2000e+001 252863 -1.3900e+004 -4.3627e+006  3.8560e+004 57540 252759,252837,252785
 6.2000e+001 253038 -9.3864e+005 -5.9595e+006  1.5235e+006 57086 252937,252989,252963
 6.2000e+001 253015 -2.8471e+005 -1.4216e+006  5.4990e+005 57086 252911,252989,252937
 6.2000e+001 253239 -1.3849e+006 -8.2542e+006 -1.5883e+006 56796 253063,253141,253115
 6.2000e+001 253216  3.3480e+005 -9.7045e+006  1.0480e+006 56796 253063,253167,253141
 6.2000e+001 253193 -4.7186e+006 -4.6466e+006 -1.7610e+005 56796 253063,253115,253089
 6.2000e+001 253342 -7.6006e+005 -1.8772e+007 -8.1352e+004 56349 253264,253316,253290
 6.2000e+001 253543 -2.2685e+005 -2.6470e+006 -1.2360e+006 56009 253367,253419,253393
 6.2000e+001 253520 -3.6294e+005 -1.0641e+006 -7.7067e+005 56009 253367,253445,253419
 6.2000e+001 253497 -4.6672e+005 -1.1577e+006 -7.0951e+005 56009 253367,253471,253445
 6.2000e+001 253695 -3.5186e+005 -1.1948e+006  6.2341e+005 55733 253594,253646,253620
 6.2000e+001 253672 -7.4118e+005 -4.7311e+005  5.7226e+005 55733 253568,253646,253594
 6.2000e+001 253798 -5.2840e+005 -1.6795e+006 -4.4406e+004 55557 253720,253772,253746
 6.2000e+001 253950 -5.5907e+005 -3.3468e+006  2.7947e+005 55153 253849,253901,253875
 6.2000e+001 253927  1.2365e+004 -3.8653e+006 -3.4939e+005 55153 253823,253901,253849
 6.2000e+001 254151 -9.6298e+005 -3.9557e+006  6.1968e+005 54863 253975,254053,254001
 6.2000e+001 254128 -5.4430e+005 -3.8135e+006  1.4072e+005 54863 253975,254079,254053
 6.2000e+001 254105 -6.6620e+005 -4.1068e+006  6.3870e+005 54863 254001,254053,254027
 6.2000e+001 254303 -1.4181e+005 -6.3477e+005  3.2964e+005 54373 254176,254228,254202
 6.2000e+001 254280 -2.1759e+005 -6.7955e+005  3.7105e+005 54373 254176,254254,254228
 6.2000e+001 254455  2.4855e+003 -3.8489e+006 -3.8825e+005 53975 254354,254406,254380
 6.2000e+001 254432 -2.0481e+005 -8.4345e+005  1.1037e+005 53975 254328,254406,254354
 6.2000e+001 254607 -4.4467e+005 -4.6216e+006 -1.7842e+005 53585 254480,254532,254506
 6.2000e+001 254584 -1.6588e+005 -4.4856e+006 -3.2191e+005 53585 254480,254558,254532
 6.2000e+001 254808 -1.2914e+006 -3.1672e+006  2.8049e+005 53245 254658,254736,254684
 6.2000e+001 254785 -1.0397e+006 -9.4530e+005  2.6001e+005 53245 254632,254736,254658
 6.2000e+001 254762 -6.8477e+005 -2.2411e+006 -4.2983e+005 53245 254684,254736,254710
 6.2000e+001 254911 -9.6686e+004 -7.5595e+005 -2.3911e+005 52955 254833,254885,254859
 6.2000e+001 255063 -5.5724e+005 -6.4855e+006 -5.3599e+003 52551 254962,255014,254988
 6.2000e+001 255040 -6.5876e+005 -6.9082e+006 -2.0634e+005 52551 254936,255014,254962
 6.2000e+001 255264 -7.7000e+005 -4.6238e+005 -2.6519e+005 52261 255114,255166,255140
 6.2000e+001 255241 -9.4335e+005 -9.5375e+005 -6.7266e+004 52261 255114,255192,255166
 6.2000e+001 255218 -3.7781e+006  7.7832e+004  9.7600e+005 52261 255088,255192,255114
 6.2000e+001 255416 -9.3549e+005 -5.4572e+006  2.2081e+006 51971 255289,255341,255315
 6.2000e+001 255393 -5.6771e+005 -4.7535e+006 -6.6634e+005 51971 255289,255367,255341
 6.2000e+001 255568 -4.9947e+005 -6.0083e+005 -5.9217e+005 51681 255441,255493,255467
 6.2000e+001 255545 -1.4828e+005 -1.0930e+006 -6.0203e+005 51681 255441,255519,255493
 6.2000e+001 255769 -2.4197e+005 -2.8263e+006  3.2733e+004 51291 255619,255697,255671
 6.2000e+001 255746 -2.1910e+005 -2.4751e+006 -2.6325e+005 51291 255593,255697,255619
 6.2000e+001 255723 -2.2347e+005 -5.0150e+006 -4.9298e+005 51291 255619,255671,255645
 6.2000e+001 255921 -5.5532e+005 -3.1998e+006  9.1914e+005 50951 255820,255872,255846
 6.2000e+001 255898 -1.2738e+005 -1.7784e+006  1.0440e+005 50951 255794,255872,255820
 6.2000e+001 256171 -1.0832e+006 -4.4399e+006  2.7032e+005 50547 256024,256076,256050
 6.2000e+001 256148 -8.7416e+005 -3.8049e+006  4.0771e+005 50547 255972,256076,256024
 6.2000e+001 256125 -2.4809e+005 -4.4972e+006 -1.0047e+005 50547 255946,256076,255972
 6.2000e+001 256102 -7.8382e+005 -3.5027e+006  2.8534e+005 50547 255972,256024,255998
 6.2000e+001 256323  1.9414e+005 -3.7516e+006  2.4278e+005 50093 256196,256248,256222
 6.2000e+001 256300 -9.1203e+005 -2.5133e+006 -7.4597e+005 50093 256196,256274,256248
 6.2000e+001 256426 -2.1109e+001 -4.7416e+003 -8.4888e+000 49845 256348,256400,256374
 6.2000e+001 256627 -3.2451e+004 -4.9354e+006  1.9825e+005 49555 256477,256555,256503
 6.2000e+001 256604 -1.8488e+005 -3.2127e+006  2.4047e+005 49555 256451,256555,256477
 6.2000e+001 256581 -4.4858e+005 -4.2789e+006  4.5127e+005 49555 256503,256555,256529
 6.2000e+001 256828 -6.9421e+005 -2.3310e+006 -3.9444e+005 49056 256652,256730,256678
 6.2000e+001 256805 -5.0058e+005 -2.4666e+006 -5.3114e+005 49056 256652,256756,256730
 6.2000e+001 256782 -4.4590e+005 -2.7947e+006 -8.6774e+004 49056 256678,256730,256704
 6.2000e+001 256931 -6.1823e+004 -1.7518e+005  4.5249e+004 48766 256853,256905,256879
 6.2000e+001 257083 -1.3194e+006 -4.5015e+006 -6.0372e+005 48568 256982,257034,257008
 6.2000e+001 257060 -6.0522e+005 -1.6949e+006 -1.3759e+005 48568 256956,257034,256982
 6.2000e+001 257186 -8.8485e+001 -2.1192e+006  3.5093e+001 48228 257108,257160,257134
 6.2000e+001 257338 -1.0376e+006 -2.3905e+005  1.4241e+005 47888 257237,257289,257263
 6.2000e+001 257315 -6.6956e+005 -1.3358e+006  1.1235e+006 47888 257211,257289,257237
 6.2000e+001 257539 -4.1002e+005 -2.8774e+006  5.7714e+004 47548 257363,257441,257415
 6.2000e+001 257516 -8.3875e+005 -2.6775e+006 -3.7479e+005 47548 257363,257467,257441
 6.2000e+001 257493 -8.5073e+005 -1.7518e+006 -1.7593e+005 47548 257363,257415,257389
 6.2000e+001 257740 -2.6128e+005 -3.9938e+006  3.7014e+005 46994 257564,257642,257616
 6.2000e+001 257717 -4.1023e+005 -3.1942e+006  6.2872e+004 46994 257564,257668,257642
 6.2000e+001 257694 -7.2778e+005 -4.0812e+006 -6.2166e+003 46994 257564,257616,257590
 6.2000e+001 257843 -4.5983e+005 -7.6667e+005 -5.9628e+005 46654 257765,257817,257791
 6.2000e+001 257995 -6.3422e+005 -2.1786e+006  3.9674e+005 46364 257894,257946,257920
 6.2000e+001 257972 -6.0814e+005 -2.4025e+006  2.7270e+005 46364 257868,257946,257894
 6.2000e+001 258147 -1.0594e+005 -2.7535e+006  1.0426e+005 46024 258046,258098,258072
 6.2000e+001 258124 -3.2327e+005 -2.0865e+006  3.2549e+005 46024 258020,258098,258046
 6.2000e+001 258250 -7.6227e+005 -1.1940e+006  7.4072e+005 45741 258172,258224,258198
 6.2000e+001 258402 -4.6981e+005 -1.6388e+006  3.4480e+005 45401 258301,258353,258327
 6.2000e+001 258379 -5.4426e+005 -8.4021e+005  4.2335e+005 45401 258275,258353,258301
 6.2000e+001 258603 -6.6979e+005 -1.4528e+006 -1.8778e+004 45071 258427,258505,258479
 6.2000e+001 258580 -2.5935e+005 -3.5209e+006  1.6711e+005 45071 258427,258531,258505
 6.2000e+001 258557 -3.0919e+005 -2.2615e+006  1.4052e+005 45071 258427,258479,258453
 6.2000e+001 258755 -2.5498e+005 -3.1759e+006 -4.9060e+005 44681 258654,258706,258680
 6.2000e+001 258732 -2.4822e+005 -3.0146e+006 -4.7235e+005 44681 258628,258706,258654
 6.2000e+001 258907 -5.8956e+005 -2.0766e+006 -1.1839e+005 44157 258806,258858,258832
 6.2000e+001 258884 -4.1039e+005 -1.9577e+006 -3.0307e+004 44157 258780,258858,258806
 6.2000e+001 259010 -6.1056e+005 -1.6579e+006 -9.5494e+004 43705 258932,258984,258958
 6.2000e+001 259113 -4.7736e+005 -2.1385e+006  1.6273e+005 43284 259035,259087,259061
 6.2000e+001 259216 -5.0863e+005 -3.6876e+006 -1.8568e+005 42954 259138,259190,259164
 6.2000e+001 259319 -5.9113e+005 -9.0447e+005 -1.0594e+005 42116 259241,259293,259267
 6.2000e+001 259422 -1.5227e+005 -2.6816e+006 -1.6676e+004 41804 259344,259396,259370
 6.2000e+001 259525 -5.6439e+005 -4.9421e+006  7.0205e+005 41219 259447,259499,259473
 6.2000e+001 259628 -7.8933e+005 -1.7976e+006 -5.0908e+005 385 259550,259602,259576
 6.4000e+001 190120 -2.2679e+005 -2.1523e+006 -3.8822e+005 189630 189993,190045,190019
 6.4000e+001 190097 -6.6632e+005 -1.5878e+006 -2.4163e+005 189630 189993,190071,190045
 6.4000e+001 190319 -8.3139e+005 -6.0517e+006 -1.4136e+006 189312 190169,190221,190195
 6.4000e+001 190296 -4.4522e+005 -6.4138e+006 -1.0125e+006 189312 190169,190247,190221
 6.4000e+001 190273 -8.8020e+005 -5.8355e+006  1.2637e+005 189312 190143,190247,190169
 6.4000e+001 190518 -4.7810e+005  4.8846e+004  1.6014e+004 189124 190368,190446,190420
 6.4000e+001 190495 -5.6244e+005  2.1562e+004 -4.3178e+003 189124 190342,190446,190368
 6.4000e+001 190472 -9.8925e+005 -5.2853e+004 -4.8844e+004 189124 190368,190420,190394
 6.4000e+001 190619 -4.5061e+005 -4.5845e+004 -6.1557e+003 188926 190541,190593,190567
 6.4000e+001 190771 -4.8278e+005 -7.8854e+004  2.0520e+004 188614 190670,190722,190696
 6.4000e+001 190748 -5.6321e+005  1.6134e+005  5.8246e+004 188614 190644,190722,190670
 6.4000e+001 190972 -4.4340e+005 -5.0925e+005 -3.7616e+005 188324 190848,190900,190874
 6.4000e+001 190949 -4.7495e+005 -7.0938e+005 -4.9146e+005 188324 190796,190900,190848
 6.4000e+001 190926 -1.1956e+005 -3.2254e+005 -2.5294e+005 188324 190796,190848,190822
 6.4000e+001 191124 -7.1263e+005 -8.7925e+005 -1.5999e+005 188034 191023,191075,191049
 6.4000e+001 191101 -1.3529e+005 -1.0276e+006 -1.0633e+005 188034 190997,191075,191023
 6.4000e+001 191276 -8.6593e+004 -2.8369e+006 -1.6309e+005 187836 191149,191201,191175
 6.4000e+001 191253 -4.8931e+005 -1.5147e+006  5.1589e+005 187836 191149,191227,191201
 6.4000e+001 191379 -4.7928e+005 -1.4394e+006 -1.6842e+005 187546 191301,191353,191327
 6.4000e+001 191531 -4.1687e+005 -6.0884e+006  5.0947e+005 187256 191430,191482,191456
 6.4000e+001 191508 -1.3014e+006 -8.9587e+006 -3.0586e+006 187256 191404,191482,191430
 6.4000e+001 191634 -7.4135e+005  2.9760e+004 -2.2417e+004 187058 191556,191608,191582
 6.4000e+001 191835 -5.1666e+005  1.5637e+004 -2.4031e+004 186860 191659,191711,191685
 6.4000e+001 191812 -3.3382e+005 -1.2113e+005  5.5421e+003 186860 191659,191737,191711
 6.4000e+001 191789 -2.8880e+005 -8.2147e+003 -4.4275e+004 186860 191659,191763,191737
 6.4000e+001 191987 -1.7501e+005 -9.4341e+005 -2.1705e+005 186662 191886,191938,191912
 6.4000e+001 191964  1.1629e+004 -2.2253e+006  6.3993e+005 186662 191860,191938,191886
 6.4000e+001 192090 -4.2674e+005 -2.6240e+006 -4.4882e+005 186486 192012,192064,192038
 6.4000e+001 192242  4.4042e+003 -1.3705e+007 -4.4892e+005 186288 192115,192167,192141
 6.4000e+001 192219 -1.1000e+006 -8.5433e+006  4.0789e+005 186288 192115,192193,192167
 6.4000e+001 192394  5.8844e+005 -1.1465e+007 -1.0833e+005 185935 192293,192345,192319
 6.4000e+001 192371 -7.8407e+005 -7.4929e+006 -1.0124e+006 185935 192267,192345,192293
 6.4000e+001 192546 -5.2118e+005 -3.1807e+006 -7.2719e+005 185675 192419,192471,192445
 6.4000e+001 192523 -9.4902e+005 -1.6546e+006 -7.6519e+005 185675 192419,192497,192471
 6.4000e+001 192649 -5.7438e+005 -2.9434e+006 -5.6511e+005 185499 192571,192623,192597
 6.4000e+001 192801 -9.0889e+004 -9.3875e+005 -5.4403e+004 185301 192674,192726,192700
 6.4000e+001 192778 -3.0242e+005 -1.2783e+006  7.6632e+005 185301 192674,192752,192726
 6.4000e+001 193002 -1.0076e+005 -1.1657e+006 -5.2026e+005 185046 192852,192930,192878
 6.4000e+001 192979 -4.9941e+005 -2.6076e+006 -3.2561e+005 185046 192826,192930,192852
 6.4000e+001 192956  6.3325e+005 -3.4383e+006  1.4082e+005 185046 192878,192930,192904
 6.4000e+001 193203  4.7892e+005 -9.9025e+006 -1.2416e+006 184798 193079,193131,193105
 6.4000e+001 193180 -1.0291e+006 -5.7096e+006 -7.0526e+005 184798 193027,193131,193079
 6.4000e+001 193157 -3.8357e+005 -5.5806e+006 -1.4987e+005 184798 193027,193079,193053
 6.4000e+001 193404 -2.4865e+005 -6.3711e+006 -1.7942e+006 184600 193254,193306,193280
 6.4000e+001 193381 -7.6292e+005 -2.1383e+006 -3.7058e+005 184600 193254,193332,193306
 6.4000e+001 193358 -1.1466e+006 -7.2015e+005 -6.9956e+005 184600 193228,193332,193254
 6.4000e+001 193556 -8.1617e+005 -4.1565e+005 -5.4704e+005 184402 193429,193481,193455
 6.4000e+001 193533 -5.7594e+005 -4.9485e+005 -4.8617e+005 184402 193429,193507,193481
 6.4000e+001 193708 -5.5226e+005 -2.3885e+006 -2.6635e+005 184204 193607,193659,193633
 6.4000e+001 193685 -4.4414e+005 -1.0168e+007 -2.0283e+006 184204 193581,193659,193607
 6.4000e+001 193860 -5.9535e+005 -8.6312e+005  2.8129e+005 183908 193759,193811,193785
 6.4000e+001 193837 -1.4414e+005 -1.2601e+006  3.8803e+005 183908 193733,193811,193759
 6.4000e+001 194061 -2.2287e+005 -4.7299e+005  2.1850e+005 183710 193911,193989,193937
 6.4000e+001 194038 -6.4717e+005 -1.2369e+006  6.4189e+005 183710 193885,193989,193911
 6.4000e+001 194015 -4.6772e+005 -1.5276e+006  5.1443e+005 183710 193937,193989,193963
 6.4000e+001 194262 -9.1918e+004 -3.1654e+006 -6.3870e+005 183420 194086,194164,194112
 6.4000e+001 194239 -1.0635e+005 -3.8315e+006 -1.5004e+006 183420 194086,194190,194164
 6.4000e+001 194216  9.0575e+005 -5.9059e+006  6.6626e+005 183420 194112,194164,194138
 6.4000e+001 194414 -7.8198e+005 -6.5329e+006 -9.2733e+005 183222 194287,194339,194313
 6.4000e+001 194391 -1.5177e+005 -3.4450e+006 -6.4247e+005 183222 194287,194365,194339
 6.4000e+001 194517 -8.7918e+005 -1.7474e+006 -2.6722e+005 183024 194439,194491,194465
 6.4000e+001 194718  2.5770e+006 -1.7663e+007  9.6379e+005 182734 194568,194620,194594
 6.4000e+001 194695 -1.4434e+006 -5.3528e+006 -4.3400e+006 182734 194542,194620,194568
 6.4000e+001 194672 -4.2779e+006 -2.6651e+006 -2.2372e+006 182734 194542,194646,194620
 6.4000e+001 194870 -5.5764e+005 -1.5934e+005  1.6637e+005 182444 194769,194821,194795
 6.4000e+001 194847 -5.7347e+005 -7.3429e+005  6.1971e+005 182444 194743,194821,194769
 6.4000e+001 195071 -2.3413e+005 -1.1692e+006  6.7596e+005 182154 194895,194947,194921
 6.4000e+001 195048 -2.4214e+005 -4.0926e+005  1.8935e+005 182154 194895,194999,194947
 6.4000e+001 195025 -2.8605e+005 -1.3007e+005  1.8623e+005 182154 194947,194999,194973
 6.4000e+001 195223 -3.2702e+005 -4.3716e+005 -2.0356e+005 181814 195096,195148,195122
 6.4000e+001 195200 -5.5577e+005 -1.9132e+006 -1.2555e+006 181814 195096,195174,195148
 6.4000e+001 195375 -3.8287e+003 -8.0805e+003  5.5036e+003 181524 195248,195300,195274
 6.4000e+001 195352 -3.6474e+003 -7.8822e+003  5.3903e+003 181524 195248,195326,195300
 6.4000e+001 195527 -2.7091e+005 -7.8415e+005  3.2321e+005 181326 195426,195478,195452
 6.4000e+001 195504 -1.4175e+006 -1.6758e+006  1.0976e+006 181326 195400,195478,195426
 6.4000e+001 195679 -3.2254e+005 -9.9422e+006 -1.2660e+006 180936 195578,195630,195604
 6.4000e+001 195656 -3.3942e+005 -5.1613e+006 -8.7477e+005 180936 195552,195630,195578
 6.4000e+001 195831 -4.6073e+005 -3.7808e+005 -1.7927e+005 180646 195704,195756,195730
 6.4000e+001 195808 -7.3445e+005 -2.4710e+004  1.4834e+004 180646 195704,195782,195756
 6.4000e+001 196032 -1.5881e+005 -2.0398e+006  1.5834e+005 180306 195882,195960,195934
 6.4000e+001 196009 -8.4402e+004 -9.6966e+005 -1.4222e+005 180306 195856,195960,195882
 6.4000e+001 195986 -7.4744e+003 -2.0517e+006  1.2806e+005 180306 195882,195934,195908
 6.4000e+001 196233 -4.3551e+005 -1.0016e+005 -9.4630e+005 179944 196057,196109,196083
 6.4000e+001 196210 -7.9523e+005 -1.9806e+006  1.4895e+005 179944 196057,196135,196109
 6.4000e+001 196187 -1.6708e+006  3.6581e+006 -1.1684e+006 179944 196057,196161,196135
 6.4000e+001 196385 -6.7801e+005 -6.8388e+005 -5.7984e+005 179604 196258,196310,196284
 6.4000e+001 196362 -7.8012e+005 -7.4992e+005 -8.8265e+005 179604 196258,196336,196310
 6.4000e+001 196586 -9.1474e+005 -6.0347e+005 -7.3306e+005 179114 196410,196488,196436
 6.4000e+001 196563 -5.7227e+005 -2.1493e+006 -7.5874e+005 179114 196410,196514,196488
 6.4000e+001 196540 -4.9773e+003 -5.5029e+005 -5.3735e+004 179114 196436,196488,196462
 6.4000e+001 196738 -8.5912e+005 -1.8259e+006 -9.1653e+005 178674 196611,196663,196637
 6.4000e+001 196715  6.2059e+004 -4.2368e+006 -2.7184e+005 178674 196611,196689,196663
 6.4000e+001 196939  3.1706e+006 -1.0506e+007 -1.9164e+006 178334 196789,196867,196841
 6.4000e+001 196916 -2.3085e+006 -1.1682e+007  7.9223e+005 178334 196763,196867,196789
 6.4000e+001 196893 -6.1899e+006 -3.3629e+006 -7.6508e+006 178334 196789,196841,196815
 6.4000e+001 197091 -3.8630e+005 -3.6696e+006 -7.5552e+005 177930 196990,197042,197016
 6.4000e+001 197068 -4.4534e+005 -3.6256e+006 -2.2566e+005 177930 196964,197042,196990
 6.4000e+001 197194 -3.1373e+002 -2.3028e+005 -4.6634e+002 177732 197116,197168,197142
 6.4000e+001 197346 -3.3295e+005 -4.3753e+006 -3.4324e+005 177534 197219,197271,197245
 6.4000e+001 197323  2.7124e+005 -6.4111e+006  7.4683e+005 177534 197219,197297,197271
 6.4000e+001 197547 -1.0424e+006 -5.8323e+006 -2.1615e+006 177130 197397,197449,197423
 6.4000e+001 197524 -2.6659e+006 -5.7534e+006 -3.0706e+006 177130 197397,197475,197449
 6.4000e+001 197501 -2.3281e+006 -1.1372e+007 -4.1081e+006 177130 197371,197475,197397
 6.4000e+001 197748 -1.4364e+005 -4.9249e+006  5.6246e+004 176790 197598,197676,197624
 6.4000e+001 197725 -1.3233e+004 -4.2192e+006  1.8211e+005 176790 197572,197676,197598
 6.4000e+001 197702 -1.3433e+005 -4.4884e+006  1.1530e+005 176790 197624,197676,197650
 6.4000e+001 197900 -2.9194e+005 -2.8251e+006 -3.8676e+005 176300 197773,197825,197799
 6.4000e+001 197877  1.1074e+005 -4.5133e+006 -2.9119e+005 176300 197773,197851,197825
 6.4000e+001 198052 -5.7499e+005 -5.8771e+006 -9.3270e+005 176010 197925,197977,197951
 6.4000e+001 198029 -3.2839e+005 -4.7505e+006 -1.0929e+006 176010 197925,198003,197977
 6.4000e+001 198204 -1.1869e+006 -3.3561e+006 -1.3152e+006 175670 198103,198155,198129
 6.4000e+001 198181 -1.1438e+006 -1.3244e+006 -4.4979e+005 175670 198077,198155,198103
 6.4000e+001 198405 -6.5029e+004 -3.9692e+006 -5.0913e+005 175266 198255,198307,198281
 6.4000e+001 198382  6.9312e+004 -4.7479e+006 -1.1596e+006 175266 198229,198307,198255
 6.4000e+001 198359 -1.1048e+006 -3.8302e+006 -1.8443e+006 175266 198229,198333,198307
 6.4000e+001 198606 -1.3009e+004  5.1509e+003  5.9381e+003 174876 198430,198508,198482
 6.4000e+001 198583 -1.2891e+005 -2.8771e+004  5.4433e+004 174876 198430,198534,198508
 6.4000e+001 198560 -4.6037e+004 -8.7026e+003  1.8782e+004 174876 198430,198482,198456
 6.4000e+001 198758  1.4904e+000  2.4994e-002  1.9312e-001 174536 198657,198709,198683
 6.4000e+001 198735 -1.0691e+000 -1.7902e-002 -1.3844e-001 174536 198631,198709,198657
 6.4000e+001 199008 -9.3033e+005 -5.5219e+006 -1.4418e+005 174132 198835,198913,198887
 6.4000e+001 198985 -6.6232e+005 -2.1145e+006  1.5025e+005 174132 198809,198913,198835
 6.4000e+001 198962 -6.6509e+005 -2.3752e+006 -1.4948e+006 174132 198783,198913,198809
 6.4000e+001 198939 -2.0378e+005 -6.1307e+006 -1.4552e+005 174132 198835,198887,198861
 6.4000e+001 199160 -9.4343e+005 -1.8427e+006 -5.8572e+005 173842 199059,199111,199085
 6.4000e+001 199137 -7.0446e+005 -1.2133e+006 -4.1203e+005 173842 199033,199111,199059
 6.4000e+001 199361 -7.4733e+005 -1.7783e+006  6.0621e+005 173438 199237,199289,199263
 6.4000e+001 199338  9.3398e+004 -2.9464e+006  6.7890e+005 173438 199211,199289,199237
 6.4000e+001 199315  2.7558e+005 -5.3441e+006 -1.3244e+006 173438 199185,199289,199211
 6.4000e+001 199513 -4.3801e+005 -4.1898e+006 -8.8477e+005 173190 199386,199438,199412
 6.4000e+001 199490 -1.6955e+006 -4.8144e+006 -4.1719e+005 173190 199386,199464,199438
 6.4000e+001 199665 -6.3625e+005 -1.6173e+006  3.4258e+005 172750 199564,199616,199590
 6.4000e+001 199642 -1.1203e+006 -9.7983e+005  2.7591e+004 172750 199538,199616,199564
 6.4000e+001 199817 -9.1999e+004 -1.4158e+006 -3.3420e+005 172524 199690,199742,199716
 6.4000e+001 199794  2.5227e+004 -1.0733e+006 -4.3555e+005 172524 199690,199768,199742
 6.4000e+001 199969 -3.2782e+003 -5.5167e+006 -1.4464e+005 172348 199842,199894,199868
 6.4000e+001 199946 -9.0237e+005 -5.7439e+006 -1.0509e+005 172348 199842,199920,199894
 6.4000e+001 200121  2.6886e+004 -9.1493e+005 -2.2807e+005 172008 199994,200046,200020
 6.4000e+001 200098 -1.0552e+005 -4.2180e+005 -1.6247e+005 172008 199994,200072,200046
 6.4000e+001 200273 -1.6625e+006 -7.3293e+006 -2.5935e+006 171668 200172,200224,200198
 6.4000e+001 200250 -1.1504e+006 -6.5413e+006 -1.9738e+006 171668 200146,200224,200172
 6.4000e+001 200474  2.8405e+005 -4.4064e+006 -6.8138e+005 171264 200350,200402,200376
 6.4000e+001 200451 -1.8670e+005 -4.8362e+006 -9.5085e+005 171264 200324,200402,200350
 6.4000e+001 200428 -3.3509e+005 -3.2104e+006  1.0370e+006 171264 200298,200402,200324
 6.4000e+001 200626 -8.7507e+005 -4.9474e+006 -7.7107e+005 170832 200525,200577,200551
 6.4000e+001 200603 -2.8032e+005 -2.8262e+006 -2.5701e+005 170832 200499,200577,200525
 6.4000e+001 200827 -1.7517e+005 -5.0279e+005  1.3230e+005 170492 200677,200729,200703
 6.4000e+001 200804 -7.3669e+005 -2.7428e+005 -3.9865e+004 170492 200651,200729,200677
 6.4000e+001 200781  7.7594e+004 -1.5817e+006 -6.8313e+005 170492 200651,200755,200729
 6.4000e+001 201077  1.4032e+005 -2.6935e+005  4.3930e+003 170088 200878,200956,200904
 6.4000e+001 201054 -1.8252e+005 -6.0623e+005 -3.1816e+005 170088 200852,200956,200878
 6.4000e+001 201031  7.0036e+004 -2.8148e+005  3.3747e+005 170088 200904,200956,200930
 6.4000e+001 201008  7.5857e+005 -1.8704e+006  5.6454e+005 170088 200852,200982,200956
 6.4000e+001 201278 -3.4824e+005 -3.4831e+006 -1.5248e+006 169798 201102,201154,201128
 6.4000e+001 201255 -1.0646e+006 -5.0770e+006 -2.1500e+006 169798 201102,201206,201154
 6.4000e+001 201232 -9.7573e+005 -1.0746e+006 -2.0400e+005 169798 201154,201206,201180
 6.4000e+001 201430 -4.7622e+005 -8.3211e+005 -2.5971e+005 169337 201303,201355,201329
 6.4000e+001 201407 -4.0718e+005 -9.1337e+005 -3.5663e+005 169337 201303,201381,201355
 6.4000e+001 201631 -3.7864e+005 -1.2045e+006  1.0267e+005 168883 201481,201559,201507
 6.4000e+001 201608 -4.6707e+005 -1.3831e+006 -1.3132e+004 168883 201455,201559,201481
 6.4000e+001 201585 -2.7075e+005 -5.3458e+005  1.9944e+005 168883 201507,201559,201533
 6.4000e+001 201832  2.1789e+005 -8.1787e+006  2.5257e+005 168479 201682,201734,201708
 6.4000e+001 201809 -2.2115e+006 -5.9033e+006 -1.7519e+006 168479 201656,201734,201682
 6.4000e+001 201786 -1.6916e+006 -3.8060e+006  2.8418e+005 168479 201656,201760,201734
 6.4000e+001 202033 -2.0944e+005 -2.3990e+006  1.9304e+005 167825 201883,201935,201909
 6.4000e+001 202010 -1.2618e+006 -3.3356e+006 -1.4521e+006 167825 201857,201935,201883
 6.4000e+001 201987  3.5828e+005 -9.4830e+006 -6.0756e+005 167825 201857,201961,201935
 6.4000e+001 202234 -2.0662e+006 -3.0265e+006 -1.8151e+006 167435 202058,202136,202084
 6.4000e+001 202211 -1.0479e+006 -4.7702e+006  2.0542e+005 167435 202058,202162,202136
 6.4000e+001 202188 -1.1383e+006 -1.4084e+006 -5.7288e+005 167435 202084,202136,202110
 6.4000e+001 202386 -2.0784e+004 -4.4234e+005  1.6193e+005 167002 202285,202337,202311
 6.4000e+001 202363 -1.5062e+005 -1.7426e+005  1.4429e+005 167002 202259,202337,202285
 6.4000e+001 202538 -1.2935e+006 -4.4506e+006 -2.7734e+006 166662 202411,202463,202437
 6.4000e+001 202515 -1.5261e+006 -3.2456e+006 -2.6405e+006 166662 202411,202489,202463
 6.4000e+001 202690 -4.9930e+004 -1.2652e+006 -5.5998e+005 166322 202589,202641,202615
 6.4000e+001 202667 -7.9584e+004 -5.9666e+005 -9.0264e+004 166322 202563,202641,202589
 6.4000e+001 202891 -5.8847e+005 -4.6453e+005 -2.2183e+005 165918 202715,202767,202741
 6.4000e+001 202868 -7.8479e+005 -1.6011e+006 -9.2865e+005 165918 202715,202793,202767
 6.4000e+001 202845 -1.1134e+006 -2.3144e+006 -5.3044e+005 165918 202715,202819,202793
 6.4000e+001 203092  1.7490e+005 -1.9122e+006 -3.2015e+005 165628 202916,202968,202942
 6.4000e+001 203069 -4.2850e+005 -4.6861e+005 -3.8007e+005 165628 202916,202994,202968
 6.4000e+001 203046 -8.5848e+004 -5.8662e+005 -2.2389e+005 165628 202916,203020,202994
 6.4000e+001 203293 -4.4117e+006 -2.8730e+006 -2.9817e+006 165266 203143,203195,203169
 6.4000e+001 203270 -1.4863e+006 -6.2584e+006 -8.8712e+005 165266 203143,203221,203195
 6.4000e+001 203247 -9.7536e+005 -6.1499e+006 -8.3416e+005 165266 203117,203221,203143
 6.4000e+001 203445 -2.0093e+005 -3.4475e+005  1.7496e+005 164826 203318,203370,203344
 6.4000e+001 203422 -2.6283e+004 -1.8901e+005  4.1991e+002 164826 203318,203396,203370
 6.4000e+001 203597 -2.6085e+005 -3.2038e+006  3.7308e+004 164386 203470,203522,203496
 6.4000e+001 203574 -4.3512e+005 -3.0226e+006 -5.7983e+005 164386 203470,203548,203522
 6.4000e+001 203798 -8.0287e+004 -1.7080e+006  7.1775e+004 163996 203622,203674,203648
 6.4000e+001 203775 -9.2967e+005 -1.7899e+005 -1.0870e+005 163996 203622,203726,203674
 6.4000e+001 203752 -1.0527e+006 -5.3739e+005  1.0097e+005 163996 203674,203726,203700
 6.4000e+001 203901 -3.6753e+005 -2.4893e+006 -3.9392e+005 163770 203823,203875,203849
 6.4000e+001 204053 -1.4959e+006 -4.1684e+006 -1.4936e+006 163474 203952,204004,203978
 6.4000e+001 204030 -1.4808e+006 -3.8183e+006 -8.8901e+005 163474 203926,204004,203952
 6.4000e+001 204205  2.3992e+005 -1.1222e+006 -6.2897e+005 163034 204104,204156,204130
 6.4000e+001 204182 -1.5764e+005 -6.9710e+005 -1.0911e+005 163034 204078,204156,204104
 6.4000e+001 204357 -4.9772e+004 -1.4489e+006  9.0448e+004 162624 204256,204308,204282
 6.4000e+001 204334  1.6152e+005 -3.5047e+005  9.3740e+004 162624 204230,204308,204256
 6.4000e+001 204509 -1.2904e+005 -3.7895e+004  6.0806e+004 162200 204382,204434,204408
 6.4000e+001 204486 -1.0420e+005 -1.0070e+005  1.2723e+005 162200 204382,204460,204434
 6.4000e+001 204710 -6.9393e+004 -1.1972e+004  4.0282e+004 161810 204560,204638,204586
 6.4000e+001 204687 -1.6690e+003 -2.3535e+004  6.7359e+003 161810 204534,204638,204560
 6.4000e+001 204664 -8.0186e+004 -1.0571e+004  2.8089e+004 161810 204586,204638,204612
 6.4000e+001 204862 -1.2878e+006 -1.5293e+006 -6.9338e+005 161406 204735,204787,204761
 6.4000e+001 204839 -2.6540e+006 -9.3069e+004 -1.1140e+006 161406 204735,204813,204787
 6.4000e+001 205014  9.6459e-002  2.5486e-001  1.5679e-001 161180 204887,204939,204913
 6.4000e+001 204991 -2.0051e-001 -5.2979e-001 -3.2593e-001 161180 204887,204965,204939
 6.4000e+001 205215 -6.9591e+005 -2.1687e+006 -1.5035e+006 160726 205039,205091,205065
 6.4000e+001 205192 -1.2513e+006 -4.5071e+006 -1.2076e+006 160726 205039,205143,205091
 6.4000e+001 205169 -1.5420e+006 -1.9200e+006 -1.3578e+006 160726 205091,205143,205117
 6.4000e+001 205416 -6.8655e+005 -3.4421e+005  5.0152e+005 160272 205292,205344,205318
 6.4000e+001 205393 -6.2207e+005 -2.1946e+005  5.4972e+005 160272 205240,205344,205292
 6.4000e+001 205370 -4.8030e+005 -2.1151e+005 -2.3702e+005 160272 205240,205292,205266
 6.4000e+001 205568 -2.7785e+000 -3.8017e-001 -1.0278e+000 159932 205441,205493,205467
 6.4000e+001 205545  7.5229e-001  1.0293e-001  2.7827e-001 159932 205441,205519,205493
 6.4000e+001 205720 -3.4690e+004 -4.6839e+004  5.2255e+004 159542 205593,205645,205619
 6.4000e+001 205697 -1.0119e+005 -1.3370e+005  1.0388e+005 159542 205593,205671,205645
 6.4000e+001 205872 -1.5471e+000 -2.2230e-003 -5.8644e-002 159252 205745,205797,205771
 6.4000e+001 205849  1.2940e+000  1.8593e-003  4.9051e-002 159252 205745,205823,205797
 6.4000e+001 206024 -4.0503e+005 -6.0186e+004 -6.8210e+004 159004 205923,205975,205949
 6.4000e+001 206001 -2.2748e+005 -8.8509e+004  1.4838e+005 159004 205897,205975,205923
 6.4000e+001 206127 -4.9145e+006 -4.1510e+006  2.0061e+003 158364 206049,206101,206075
 6.4000e+001 206328 -9.3584e+004 -3.0297e+004  6.5792e+004 157960 206178,206256,206204
 6.4000e+001 206305 -5.4103e+004 -4.6096e+004  4.5430e+004 157960 206152,206256,206178
 6.4000e+001 206282 -1.0119e+005 -3.6581e+004  6.0713e+004 157960 206204,206256,206230
 6.4000e+001 206529 -1.7457e+006 -7.9525e+006  1.1844e+006 157648 206405,206457,206431
 6.4000e+001 206506 -3.8940e+006 -4.0928e+006  5.4203e+005 157648 206379,206457,206405
 6.4000e+001 206483 -3.1610e+006 -3.2034e+006  1.4878e+006 157648 206353,206457,206379
 6.4000e+001 206730 -6.9821e+005 -3.8592e+005  4.9162e+005 157208 206554,206606,206580
 6.4000e+001 206707 -3.6778e+005 -2.2402e+005  2.8074e+005 157208 206554,206632,206606
 6.4000e+001 206684 -5.9503e+005 -2.6956e+005  2.1372e+005 157208 206554,206658,206632
 6.4000e+001 206882 -5.2097e-001 -1.1421e+000 -7.7135e-001 157010 206755,206807,206781
 6.4000e+001 206859  2.9999e-001  6.5764e-001  4.4417e-001 157010 206755,206833,206807
 6.4000e+001 207034  1.9300e+001 -8.7216e+002  1.1396e+001 156620 206907,206959,206933
 6.4000e+001 207011 -1.3060e+001 -4.8836e+002 -9.0305e+000 156620 206907,206985,206959
 6.4000e+001 207186 -1.9477e+003 -1.4801e+006  5.4907e+004 156330 207085,207137,207111
 6.4000e+001 207163 -1.2381e+005 -1.5596e+006 -4.7564e+005 156330 207059,207137,207085
 6.4000e+001 207387 -7.7407e+005 -2.7663e+006  2.1402e+005 155890 207211,207289,207237
 6.4000e+001 207364 -1.7074e+006 -3.0976e+006 -1.4129e+006 155890 207211,207315,207289
 6.4000e+001 207341 -6.7067e+005 -2.2525e+006  5.3778e+005 155890 207237,207289,207263
 6.4000e+001 207588 -4.9439e+005 -2.4206e+007  8.6707e+006 155436 207438,207490,207464
 6.4000e+001 207565 -1.4250e+006 -1.7471e+007 -1.1028e+006 155436 207412,207490,207438
 6.4000e+001 207542 -2.7995e+006 -9.8435e+006 -1.3580e+006 155436 207412,207516,207490
 6.4000e+001 207789  1.9730e+006 -3.5918e+007 -2.2691e+006 155260 207639,207691,207665
 6.4000e+001 207766 -4.3316e+006 -1.1909e+007  5.2321e+006 155260 207613,207691,207639
 6.4000e+001 207743 -1.1417e+006 -9.1238e+006  1.2197e+004 155260 207613,207717,207691
 6.4000e+001 207990 -6.2407e-003  6.3695e-001 -1.4867e-001 154920 207840,207918,207892
 6.4000e+001 207967 -1.4094e-002 -5.9734e-001  9.1753e-002 154920 207814,207918,207840
 6.4000e+001 207944  4.7398e-002  1.4485e-001  8.2858e-002 154920 207840,207892,207866
 6.4000e+001 208191 -9.9205e+004 -2.4821e+005  1.0431e+005 154630 208015,208093,208041
 6.4000e+001 208168 -2.1277e+004 -1.5775e+005  2.0953e+004 154630 208015,208119,208093
 6.4000e+001 208145 -1.1349e+004 -1.8998e+004 -1.5228e+004 154630 208041,208093,208067
 6.4000e+001 208343 -3.9350e+002 -2.8670e+003  9.5971e+002 154240 208216,208268,208242
 6.4000e+001 208320 -4.0010e+002 -3.1138e+003 -1.9402e+002 154240 208216,208294,208268
 6.4000e+001 208495  8.0530e+005 -1.0393e+007 -9.4930e+005 153950 208394,208446,208420
 6.4000e+001 208472 -1.2444e+006 -5.7617e+006  2.2735e+006 153950 208368,208446,208394
 6.4000e+001 208647 -2.1964e+006 -2.7953e+006  4.6094e+006 153603 208520,208572,208546
 6.4000e+001 208624 -2.3732e+006 -3.0189e+006 -1.5790e+006 153603 208520,208598,208572
 6.4000e+001 208848 -6.9055e+005  1.0404e+003  3.5250e+005 153149 208698,208776,208724
 6.4000e+001 208825 -2.0330e+005 -2.5487e+005  1.9549e+005 153149 208672,208776,208698
 6.4000e+001 208802 -4.8266e+005 -3.0696e+005  3.8431e+005 153149 208724,208776,208750
 6.4000e+001 209000 -7.7247e+005 -2.9291e+006 -3.2757e+004 152859 208873,208925,208899
 6.4000e+001 208977  1.1113e+005 -7.6453e+006  7.1590e+005 152859 208873,208951,208925
 6.4000e+001 209152  3.6833e+005 -4.7199e+006  3.3454e+005 152569 209051,209103,209077
 6.4000e+001 209129  6.0801e+005 -6.9276e+006 -8.8927e+005 152569 209025,209103,209051
 6.4000e+001 209304 -1.2163e+002 -1.0761e+003 -5.4001e+002 152065 209177,209229,209203
 6.4000e+001 209281  1.2697e+002 -1.6539e+003 -3.8332e+002 152065 209177,209255,209229
 6.4000e+001 209456 -1.6134e+006 -3.5224e+006 -4.5482e+005 151775 209355,209407,209381
 6.4000e+001 209433 -8.4786e+005 -9.6315e+006 -4.9662e+005 151775 209329,209407,209355
 6.4000e+001 209608 -8.6081e+005 -7.0430e+006 -1.6445e+006 151371 209481,209533,209507
 6.4000e+001 209585  1.0276e+006 -1.2163e+007 -1.6535e+005 151371 209481,209559,209533
 6.4000e+001 209760 -2.2569e+005 -4.3430e+004  6.4581e+004 150981 209659,209711,209685
 6.4000e+001 209737 -1.4123e+005 -6.7921e+004 -3.5518e+004 150981 209633,209711,209659
 6.4000e+001 209912  2.6114e+006 -3.6554e+007 -3.1652e+006 150619 209811,209863,209837
 6.4000e+001 209889 -3.3110e+006 -1.5656e+007  4.0134e+006 150619 209785,209863,209811
 6.4000e+001 210064 -4.2804e+003 -2.3018e+005  8.6008e+004 150279 209937,209989,209963
 6.4000e+001 210041 -6.4716e+004 -3.3343e+005  1.3294e+005 150279 209937,210015,209989
 6.4000e+001 210265 -2.5554e+006 -8.6086e+006 -2.9685e+005 149989 210115,210167,210141
 6.4000e+001 210242 -2.4897e+005 -8.9994e+006 -1.0048e+006 149989 210115,210193,210167
 6.4000e+001 210219 -2.7719e+005 -1.0312e+007 -1.0615e+006 149989 210089,210193,210115
 6.4000e+001 210417 -2.1239e+005 -1.3358e+005  1.4290e+005 149599 210316,210368,210342
 6.4000e+001 210394  1.9358e+004 -5.3667e+005  1.5276e+005 149599 210290,210368,210316
 6.4000e+001 210618 -2.1500e+006 -1.5365e+007  4.0800e+006 149095 210468,210520,210494
 6.4000e+001 210595 -3.0666e+006 -1.5542e+007  3.4854e+006 149095 210442,210520,210468
 6.4000e+001 210572 -1.2803e+006 -1.9507e+007  3.4456e+006 149095 210442,210546,210520
 6.4000e+001 210819 -1.7678e-001 -4.7640e-002  1.6532e-001 148748 210695,210747,210721
 6.4000e+001 210796  7.7867e-001  1.0492e+000 -9.8911e-001 148748 210669,210747,210695
 6.4000e+001 210773 -1.1640e+000 -4.7621e+000  2.5303e+000 148748 210643,210747,210669
 6.4000e+001 210971 -2.8376e+000 -4.0329e+001 -6.4553e+000 148408 210870,210922,210896
 6.4000e+001 210948  1.4550e+002 -2.0533e+002  1.4733e+002 148408 210844,210922,210870
 6.4000e+001 211123 -5.1247e+005 -4.5590e+006  9.2945e+005 148118 210996,211048,211022
 6.4000e+001 211100 -2.2434e+006 -4.9404e+006  2.9469e+006 148118 210996,211074,211048
 6.4000e+001 211275 -9.5662e+005 -3.6439e+006  1.1894e+006 147778 211148,211200,211174
 6.4000e+001 211252 -2.5027e+006 -7.7596e+006  4.1296e+006 147778 211148,211226,211200
 6.4000e+001 211427 -6.5106e+005 -2.9668e+006  1.0748e+006 147324 211326,211378,211352
 6.4000e+001 211404 -5.3650e+005 -2.6738e+006  1.2075e+006 147324 211300,211378,211326
 6.4000e+001 211628 -5.8661e+005 -6.3238e+005  2.4219e+005 147012 211452,211504,211478
 6.4000e+001 211605 -5.7549e+005 -3.0079e+004  3.4900e+005 147012 211452,211556,211504
 6.4000e+001 211582 -4.1388e+005 -7.2993e+005  8.1841e+005 147012 211504,211556,211530
 6.4000e+001 211829 -2.1675e+006 -2.7222e+006  1.2136e+006 146636 211679,211757,211731
 6.4000e+001 211806  1.2279e+006 -5.6652e+006  9.5780e+005 146636 211653,211757,211679
 6.4000e+001 211783 -2.1443e+005 -3.7709e+006  3.0025e+006 146636 211679,211731,211705
 6.4000e+001 211981 -1.6524e+002  2.9739e+001 -1.0884e+001 146246 211880,211932,211906
 6.4000e+001 211958 -1.4803e+002 -3.9647e+000  1.5953e+000 146246 211854,211932,211880
 6.4000e+001 212133 -3.5116e+002 -7.5653e+002  6.3096e+002 145956 212006,212058,212032
 6.4000e+001 212110 -3.7760e+002 -9.7915e+001  2.9844e+002 145956 212006,212084,212058
 6.4000e+001 212285 -2.7059e+002  8.1594e+001 -4.7306e+001 145544 212184,212236,212210
 6.4000e+001 212262 -2.0716e+002 -6.0932e+000  1.5316e+001 145544 212158,212236,212184
 6.4000e+001 212486 -1.4199e+006 -1.6074e+007  4.7072e+006 144990 212362,212414,212388
 6.4000e+001 212463  2.3685e+005 -1.4026e+007  6.0017e+006 144990 212310,212414,212362
 6.4000e+001 212440 -4.3888e+006 -2.7544e+006  2.8418e+006 144990 212310,212362,212336
 6.4000e+001 212638 -1.0962e+005 -3.4812e+005  8.9790e+004 144600 212537,212589,212563
 6.4000e+001 212615 -1.0924e+005 -3.1076e+005  1.2529e+005 144600 212511,212589,212537
 6.4000e+001 212839 -5.2477e+005 -2.3590e+006  8.6678e+005 144210 212689,212741,212715
 6.4000e+001 212816 -5.0206e+005 -2.2936e+006  7.8411e+005 144210 212663,212741,212689
 6.4000e+001 212793 -5.7024e+005 -2.6865e+006  1.0212e+006 144210 212663,212767,212741
 6.4000e+001 212991 -5.5320e+001 -2.9789e+002 -2.4065e+002 143920 212890,212942,212916
 6.4000e+001 212968  9.7846e+001 -3.1160e+003 -4.2427e+002 143920 212864,212942,212890
 6.4000e+001 213143 -2.7882e+002 -8.9254e+001  2.9280e+001 143480 213016,213068,213042
 6.4000e+001 213120 -7.9944e+001 -2.5749e+001 -1.0973e+001 143480 213016,213094,213068
 6.4000e+001 213295 -5.1107e+005 -4.7278e+006  1.9041e+006 142990 213194,213246,213220
 6.4000e+001 213272 -1.5938e+004 -2.0483e+006  1.5481e+006 142990 213168,213246,213194
 6.4000e+001 213447  2.1593e+005 -2.1373e+006  1.0025e+006 142600 213320,213372,213346
 6.4000e+001 213424 -2.3506e+005 -1.3154e+006  3.1961e+005 142600 213320,213398,213372
 6.4000e+001 213599 -2.1384e+004 -3.6947e+005  3.8462e+004 142260 213472,213524,213498
 6.4000e+001 213576 -9.7594e+004 -4.2295e+005  2.4320e+005 142260 213472,213550,213524
 6.4000e+001 213751 -2.1266e+005 -2.8489e+005 -1.6009e+005 141870 213624,213676,213650
 6.4000e+001 213728 -9.8081e+005 -3.1473e+005 -3.5187e+005 141870 213624,213702,213676
 6.4000e+001 213903 -8.0390e+005 -8.8071e+005 -8.5033e+005 141530 213776,213828,213802
 6.4000e+001 213880 -2.2641e+005 -1.0546e+006 -4.3499e+005 141530 213776,213854,213828
 6.4000e+001 214055 -1.3097e+006 -4.1906e+004  1.5437e+005 141218 213928,213980,213954
 6.4000e+001 214032 -8.0171e+005 -1.6842e+005  4.1085e+004 141218 213928,214006,213980
 6.4000e+001 214207 -5.4258e+002 -2.0352e+003  2.2140e+003 140928 214080,214132,214106
 6.4000e+001 214184 -2.5067e+002 -1.5382e+003  2.0321e+002 140928 214080,214158,214132
 6.4000e+001 214359 -3.4082e+004 -1.6523e+005  2.0377e+003 140538 214232,214284,214258
 6.4000e+001 214336 -7.6673e+004 -6.3172e+005  3.2002e+005 140538 214232,214310,214284
 6.4000e+001 214560 -3.9995e+005 -4.7788e+006  1.1836e+006 140248 214384,214462,214410
 6.4000e+001 214537 -6.8173e+004 -2.7904e+006  7.5464e+005 140248 214384,214488,214462
 6.4000e+001 214514 -3.8775e+005 -2.7282e+006 -5.7619e+004 140248 214410,214462,214436
 6.4000e+001 214712 -1.0097e+006 -2.6832e+006  6.7498e+005 140000 214611,214663,214637
 6.4000e+001 214689 -5.6174e+005 -2.5989e+006  1.1760e+006 140000 214585,214663,214611
 6.4000e+001 214913 -6.9832e+004 -9.5026e+005 -3.3918e+005 139596 214737,214815,214763
 6.4000e+001 214890  4.4017e+004 -3.1137e+005 -2.2862e+005 139596 214737,214841,214815
 6.4000e+001 214867  5.1564e+005 -3.3817e+006  2.8342e+005 139596 214763,214815,214789
 6.4000e+001 215016 -1.5009e+002 -8.5098e+002  4.3305e+002 139420 214938,214990,214964
 6.4000e+001 215168 -4.3905e+006 -1.0599e+007  6.9157e+006 139130 215067,215119,215093
 6.4000e+001 215145 -1.6526e+006 -1.2333e+007  2.7820e+006 139130 215041,215119,215067
 6.4000e+001 215320 -2.1672e+006 -6.2677e+006  3.8818e+006 138790 215219,215271,215245
 6.4000e+001 215297 -2.0119e+006 -1.0786e+007  5.3660e+006 138790 215193,215271,215219
 6.4000e+001 215472 -1.2585e+004 -1.3446e+005  4.6180e+004 138514 215345,215397,215371
 6.4000e+001 215449  1.7270e+004 -1.1071e+005  2.7901e+004 138514 215345,215423,215397
 6.4000e+001 215624 -2.3229e+005 -8.2185e+006  2.1357e+006 138174 215497,215549,215523
 6.4000e+001 215601 -2.9367e+005 -6.0920e+006  1.7723e+006 138174 215497,215575,215549
 6.4000e+001 215776  2.0511e-001  1.4264e+000 -1.3747e-001 137734 215649,215701,215675
 6.4000e+001 215753  2.4169e-001 -7.3622e-001 -5.1730e-001 137734 215649,215727,215701
 6.4000e+001 215977  1.3411e+006 -1.4927e+007  2.7396e+006 137344 215801,215879,215827
 6.4000e+001 215954 -1.8494e+006 -5.8904e+006 -2.7955e+006 137344 215801,215905,215879
 6.4000e+001 215931 -1.5048e+005 -1.8171e+007 -1.8143e+005 137344 215827,215879,215853
 6.4000e+001 216129 -4.9122e+005 -1.9355e+006  3.3523e+005 136940 216028,216080,216054
 6.4000e+001 216106 -4.6105e+005 -2.6587e+006  6.8086e+005 136940 216002,216080,216028
 6.4000e+001 216330 -2.5360e+006 -8.3879e+006  1.8427e+006 136600 216180,216232,216206
 6.4000e+001 216307 -1.0057e+006 -8.1153e+006  3.0827e+006 136600 216154,216232,216180
 6.4000e+001 216284 -2.6430e+006 -3.9290e+006  7.6150e+005 136600 216154,216258,216232
 6.4000e+001 216482 -1.2101e+005 -5.1380e+006  1.3731e+006 136260 216381,216433,216407
 6.4000e+001 216459 -3.5269e+005 -4.1764e+006  1.3886e+006 136260 216355,216433,216381
 6.4000e+001 216634 -1.0135e+006 -2.4839e+006  1.3289e+006 135970 216533,216585,216559
 6.4000e+001 216611 -4.9923e+005 -4.5772e+006  1.9567e+006 135970 216507,216585,216533
 6.4000e+001 216835 -1.5493e+005 -1.8032e+006 -1.0873e+005 135608 216685,216763,216711
 6.4000e+001 216812 -3.0047e+005 -1.6647e+006  1.2794e+005 135608 216659,216763,216685
 6.4000e+001 216789 -5.9636e+004 -1.8896e+006  1.9688e+004 135608 216711,216763,216737
 6.4000e+001 217036 -4.1391e+005 -1.2490e+006  6.5497e+005 135312 216912,216964,216938
 6.4000e+001 217013 -4.2553e+005 -2.7220e+006  1.2383e+006 135312 216886,216964,216912
 6.4000e+001 216990  3.1379e+005 -4.6040e+006  8.2236e+005 135312 216860,216964,216886
 6.4000e+001 217237 -7.5563e+004 -5.8596e+005  2.0960e+005 134908 217061,217139,217113
 6.4000e+001 217214 -1.4597e+005 -6.2169e+005  2.9102e+005 134908 217061,217165,217139
 6.4000e+001 217191 -7.9930e+004 -7.9999e+005  3.0038e+005 134908 217061,217113,217087
 6.4000e+001 217438 -1.5304e+006 -1.7098e+007 -1.2174e+005 134568 217288,217366,217314
 6.4000e+001 217415  1.1967e+006 -2.6302e+007 -1.3966e+006 134568 217262,217366,217288
 6.4000e+001 217392 -8.2144e+005 -2.2388e+007 -2.2106e+006 134568 217314,217366,217340
 6.4000e+001 217590  1.2690e+004 -1.3955e+005  4.7480e+004 134106 217463,217515,217489
 6.4000e+001 217567 -1.6354e+004 -1.4879e+005  5.3321e+004 134106 217463,217541,217515
 6.4000e+001 217791 -2.1562e+006 -1.9297e+007 -6.5665e+006 133816 217641,217693,217667
 6.4000e+001 217768  4.7976e+006 -2.1966e+007 -1.4318e+005 133816 217641,217719,217693
 6.4000e+001 217745 -1.4833e+007 -8.0677e+006  1.0939e+007 133816 217615,217719,217641
 6.4000e+001 217992 -4.5107e+006 -4.9634e+006  4.9311e+006 133355 217842,217920,217894
 6.4000e+001 217969 -3.9458e+005 -1.0813e+007  2.8967e+006 133355 217816,217920,217842
 6.4000e+001 217946 -1.3263e+006 -2.8204e+006  1.2522e+006 133355 217842,217894,217868
 6.4000e+001 218193 -2.9590e+005 -7.6723e+006  7.1179e+005 132851 218017,218095,218069
 6.4000e+001 218170 -4.7451e+006 -8.2800e+006  6.9420e+006 132851 218017,218121,218095
 6.4000e+001 218147 -1.6447e+006 -3.0391e+006 -6.4787e+005 132851 218017,218069,218043
 6.4000e+001 218345 -3.3371e+004 -1.7562e+005  5.4265e+004 132511 218244,218296,218270
 6.4000e+001 218322 -2.0397e+004 -4.5766e+005  1.1471e+005 132511 218218,218296,218244
 6.4000e+001 218497  2.3729e+006 -2.9079e+007  1.3190e+003 132235 218396,218448,218422
 6.4000e+001 218474 -2.6649e+005 -1.0398e+007  9.5933e+005 132235 218370,218448,218396
 6.4000e+001 218698  4.4016e+005 -1.1745e+007 -2.8849e+006 131945 218574,218626,218600
 6.4000e+001 218675 -6.9988e+005 -2.0022e+007 -8.7290e+005 131945 218522,218626,218574
 6.4000e+001 218652 -2.6609e+006 -9.1116e+006 -3.1663e+006 131945 218522,218574,218548
 6.4000e+001 218850 -3.7079e+005 -1.7882e+007  8.6683e+005 131655 218723,218775,218749
 6.4000e+001 218827  5.2522e+005 -1.2821e+007  3.7015e+005 131655 218723,218801,218775
 6.4000e+001 218953  2.1940e-001 -5.2779e-004 -3.6761e-001 131215 218875,218927,218901
 6.4000e+001 219105 -6.3947e+004 -1.7274e+006 -3.8482e+005 130875 218978,219030,219004
 6.4000e+001 219082 -1.2820e+005 -5.5399e+005 -9.4678e+004 130875 218978,219056,219030
 6.4000e+001 219306 -2.5027e+005 -1.2341e+006  4.3015e+004 130429 219156,219234,219208
 6.4000e+001 219283 -3.5467e+005 -6.2432e+005  1.5624e+005 130429 219130,219234,219156
 6.4000e+001 219260 -1.1192e+006 -1.4837e+006  5.3694e+005 130429 219156,219208,219182
 6.4000e+001 219507 -2.3290e+005 -8.2447e+005  3.1269e+005 130025 219383,219435,219409
 6.4000e+001 219484 -2.0358e+005 -1.1190e+006  4.4714e+005 130025 219331,219435,219383
 6.4000e+001 219461 -2.4672e+005 -5.9891e+005  2.1778e+005 130025 219331,219383,219357
 6.4000e+001 219659 -2.4409e+005 -3.0194e+006  1.4898e+005 129685 219558,219610,219584
 6.4000e+001 219636  2.5684e+005 -4.1797e+006 -2.0538e+006 129685 219532,219610,219558
 6.4000e+001 219860 -1.2344e+005 -8.0491e+005  4.4309e+005 129395 219710,219788,219762
 6.4000e+001 219837 -2.0525e+005 -9.1483e+005  3.8536e+005 129395 219684,219788,219710
 6.4000e+001 219814  2.8620e+004 -1.2142e+006  1.4587e+005 129395 219710,219762,219736
 6.4000e+001 220061  3.3612e+004 -3.6352e+005  9.7415e+004 128991 219937,219989,219963
 6.4000e+001 220038  2.2924e+004 -5.0785e+005  6.5584e+004 128991 219885,219989,219937
 6.4000e+001 220015 -1.4983e+004 -7.2345e+005  1.4048e+005 128991 219885,219937,219911
 6.4000e+001 220262 -1.1838e+005 -1.6867e+005  2.5289e+004 128701 220086,220164,220112
 6.4000e+001 220239 -1.7898e+004 -4.7047e+005  1.4844e+005 128701 220086,220190,220164
 6.4000e+001 220216 -2.3110e+003 -2.0918e+005 -7.0951e+004 128701 220112,220164,220138
 6.4000e+001 220463 -4.3726e+006 -9.0346e+006  4.5029e+006 128297 220339,220391,220365
 6.4000e+001 220440  2.8273e+005 -1.4033e+007  3.5389e+006 128297 220313,220391,220339
 6.4000e+001 220417 -1.2435e+006 -2.0739e+007 -9.4139e+006 128297 220287,220391,220313
 6.4000e+001 220615 -4.1111e+005 -1.0399e+006 -5.5766e+005 128007 220488,220540,220514
 6.4000e+001 220592  4.7188e+005 -4.8598e+006 -3.2378e+005 128007 220488,220566,220540
 6.4000e+001 220767  7.9457e+004 -4.9027e+006 -6.7072e+004 127567 220640,220692,220666
 6.4000e+001 220744 -4.9885e+005 -1.4939e+006 -2.2939e+005 127567 220640,220718,220692
 6.4000e+001 220919 -1.7949e+006 -1.6280e+007 -2.3206e+006 127163 220792,220844,220818
 6.4000e+001 220896  1.3408e+005 -1.9971e+007  2.6196e+006 127163 220792,220870,220844
 6.4000e+001 221071 -2.4740e+006 -5.0890e+006  3.0983e+006 126915 220970,221022,220996
 6.4000e+001 221048 -2.7421e+006 -5.0585e+006  3.0340e+006 126915 220944,221022,220970
 6.4000e+001 221272 -1.7409e+006 -4.0939e+006  3.1237e+006 126461 221122,221174,221148
 6.4000e+001 221249 -7.2659e+005 -4.8325e+006  1.5382e+005 126461 221122,221200,221174
 6.4000e+001 221226 -3.3220e+005 -6.3301e+006 -5.6719e+005 126461 221096,221200,221122
 6.4000e+001 221375  3.7472e-002 -3.0158e+002  3.9374e-002 126213 221297,221349,221323
 6.4000e+001 221478 -1.3758e-313 -8.3530e-313  3.7645e-313 125766 221400,221452,221426
 6.4000e+001 221679 -3.3740e+004 -2.5396e+005  5.3800e+004 125212 221503,221555,221529
 6.4000e+001 221656 -2.4347e+004 -2.9419e+005  1.6600e+004 125212 221503,221581,221555
 6.4000e+001 221633  3.9446e+004 -9.3852e+005  3.3445e+005 125212 221503,221607,221581
 6.4000e+001 221929 -8.0835e+002 -2.7978e+002 -7.5875e+001 124872 221782,221834,221808
 6.4000e+001 221906 -2.6147e+003 -1.1491e+003  1.6598e+003 124872 221756,221834,221782
 6.4000e+001 221883 -6.0201e+003 -6.7161e+002 -3.5337e+003 124872 221704,221834,221756
 6.4000e+001 221860 -7.0625e+003 -4.2845e+003 -2.9687e+003 124872 221704,221756,221730
 6.4000e+001 222130 -7.3084e+005 -7.9090e+006  1.4818e+005 124582 221980,222058,222006
 6.4000e+001 222107 -2.2535e+006 -7.7453e+006  3.2167e+005 124582 221954,222058,221980
 6.4000e+001 222084 -2.4282e+006 -7.4461e+006 -4.8762e+005 124582 222006,222058,222032
 6.4000e+001 222282 -1.8647e+006 -7.3734e+006 -2.4536e+006 124192 222181,222233,222207
 6.4000e+001 222259 -1.1867e+006 -5.8952e+006 -1.0733e+006 124192 222155,222233,222181
 6.4000e+001 222483 -4.1474e+005 -1.9474e+006 -1.2940e+006 123702 222333,222385,222359
 6.4000e+001 222460 -1.4964e+005 -9.3244e+005 -2.0534e+005 123702 222333,222411,222385
 6.4000e+001 222437 -1.8512e+005 -7.4878e+005 -3.1630e+005 123702 222307,222411,222333
 6.4000e+001 222635 -9.1543e+004 -8.2086e+005  3.2965e+005 123312 222508,222560,222534
 6.4000e+001 222612 -2.0180e+005 -1.0277e+006  4.1319e+005 123312 222508,222586,222560
 6.4000e+001 222787 -6.6613e+003 -1.7611e+005 -2.2066e+004 122858 222686,222738,222712
 6.4000e+001 222764 -4.5815e+003 -1.5921e+005 -2.6248e+004 122858 222660,222738,222686
 6.4000e+001 222939 -1.4036e+004 -3.4692e+005 -1.6152e+003 122568 222812,222864,222838
 6.4000e+001 222916  2.1857e+004 -2.0382e+005 -8.4770e+003 122568 222812,222890,222864
 6.4000e+001 223091 -6.8485e+005 -1.1342e+006 -6.0729e+004 122392 222964,223016,222990
 6.4000e+001 223068 -4.5768e+005 -9.4691e+005 -2.3738e+005 122392 222964,223042,223016
 6.4000e+001 223292 -8.4283e+005 -2.4023e+006 -3.2701e+005 121852 223142,223220,223194
 6.4000e+001 223269 -4.1654e+006 -7.4657e+005  1.8626e+005 121852 223116,223220,223142
 6.4000e+001 223246 -5.1859e+006 -2.4155e+006 -4.4556e+006 121852 223142,223194,223168
 6.4000e+001 223493 -3.0481e+005 -6.9440e+005  4.7880e+005 121406 223343,223395,223369
 6.4000e+001 223470 -9.6137e+005 -5.5080e+005  2.5719e+005 121406 223343,223421,223395
 6.4000e+001 223447 -2.9349e+005 -4.4668e+005  2.4161e+005 121406 223317,223421,223343
 6.4000e+001 223645  3.4993e+005 -1.1483e+007  1.6140e+006 121002 223544,223596,223570
 6.4000e+001 223622 -1.2557e+006 -7.0675e+006  1.7595e+006 121002 223518,223596,223544
 6.4000e+001 223846 -1.1250e+005 -4.5155e+005 -8.4322e+004 120662 223670,223748,223696
 6.4000e+001 223823 -1.3649e+005 -2.0972e+005  8.0007e+004 120662 223670,223774,223748
 6.4000e+001 223800 -5.5625e+005 -1.5782e+005 -1.3383e+005 120662 223696,223748,223722
 6.4000e+001 224047 -5.1602e+003 -2.3670e+005  2.7497e+004 120222 223897,223949,223923
 6.4000e+001 224024  1.3890e+005 -2.8735e+005 -2.2183e+004 120222 223871,223949,223897
 6.4000e+001 224001 -3.6760e+004 -1.7009e+005 -4.6024e+004 120222 223871,223975,223949
 6.4000e+001 224248 -4.8235e+004 -1.2883e+005 -1.6732e+005 119875 224124,224176,224150
 6.4000e+001 224225 -1.9548e+005 -4.1305e+005 -2.7861e+005 119875 224098,224176,224124
 6.4000e+001 224202 -2.5910e+004 -9.1006e+004 -2.0049e+003 119875 224072,224176,224098
 6.4000e+001 224449 -1.3652e+004 -2.6335e+005 -5.6672e+003 119677 224325,224377,224351
 6.4000e+001 224426 -1.8639e+004 -2.8293e+005  6.7762e+003 119677 224299,224377,224325
 6.4000e+001 224403 -1.1023e+004 -7.1946e+004  7.3668e+003 119677 224273,224377,224299
 6.4000e+001 224552  3.6140e+004 -1.3365e+004  3.0752e+004 119273 224474,224526,224500
 6.4000e+001 224704  2.8062e+004 -5.6293e+005  4.6944e+004 118983 224603,224655,224629
 6.4000e+001 224681 -1.5306e+005 -3.5579e+005  1.3572e+005 118983 224577,224655,224603
 6.4000e+001 224856 -4.7539e+005 -2.5623e+005  2.5123e+004 118529 224755,224807,224781
 6.4000e+001 224833 -2.0043e+004 -6.2210e+005  1.0412e+005 118529 224729,224807,224755
 6.4000e+001 225008 -4.7620e+004 -6.1823e+005  6.0187e+003 118353 224881,224933,224907
 6.4000e+001 224985 -3.2363e+004  4.3197e+004  1.0764e+004 118353 224881,224959,224933
 6.4000e+001 225209 -4.6759e+005 -5.3883e+006 -1.0340e+006 117949 225059,225137,225111
 6.4000e+001 225186 -3.3958e+005 -4.4591e+006  5.2228e+005 117949 225033,225137,225059
 6.4000e+001 225163  3.5238e+003 -7.1725e+006 -1.5123e+005 117949 225059,225111,225085
 6.4000e+001 225410 -1.5447e+004 -7.0608e+006  8.4365e+005 117559 225260,225338,225312
 6.4000e+001 225387 -1.3065e+006 -7.4589e+006  5.5373e+005 117559 225234,225338,225260
 6.4000e+001 225364 -5.7277e+005 -4.9207e+006 -1.6800e+006 117559 225260,225312,225286
 6.4000e+001 225611 -1.2523e+006 -9.1419e+006 -3.2160e+006 117361 225461,225513,225487
 6.4000e+001 225588 -1.1390e+006 -9.8886e+006  1.3218e+006 117361 225461,225539,225513
 6.4000e+001 225565 -9.0774e+005 -9.4422e+006  1.6271e+006 117361 225435,225539,225461
 6.4000e+001 225812  2.8440e+005 -6.8666e+006 -6.8955e+005 116900 225636,225714,225662
 6.4000e+001 225789 -1.4728e+006 -3.6014e+006 -9.3378e+005 116900 225636,225740,225714
 6.4000e+001 225766 -2.2892e+003 -6.9636e+006 -1.2637e+005 116900 225662,225714,225688
 6.4000e+001 225964 -2.1720e+005 -4.1386e+006 -1.1363e+005 116560 225837,225889,225863
 6.4000e+001 225941  1.2207e+005 -6.0438e+006  3.0560e+005 116560 225837,225915,225889
 6.4000e+001 226165 -3.3426e+004 -3.3385e+005 -1.6883e+005 116106 226015,226093,226041
 6.4000e+001 226142 -2.5071e+005 -3.0021e+005 -2.9150e+005 116106 225989,226093,226015
 6.4000e+001 226119 -2.4685e+004 -1.9472e+005  2.7358e+004 116106 226041,226093,226067
 6.4000e+001 226268 -1.0663e+006 -4.7187e+006  6.5984e+005 115716 226190,226242,226216
 6.4000e+001 226420  1.1479e+005 -9.5513e+006  2.0298e+006 115376 226293,226345,226319
 6.4000e+001 226397 -1.3649e+005 -9.7779e+006  2.3426e+006 115376 226293,226371,226345
 6.4000e+001 226621 -6.7916e+005 -1.8708e+006  4.4873e+005 114972 226497,226549,226523
 6.4000e+001 226598 -4.9617e+005 -9.6077e+006 -3.7288e+005 114972 226445,226549,226497
 6.4000e+001 226575  1.2519e+004 -5.1072e+006  8.9384e+005 114972 226445,226497,226471
 6.4000e+001 226773 -1.4215e+006 -2.4668e+006 -1.0907e+006 114670 226646,226698,226672
 6.4000e+001 226750  4.9048e+005 -6.5682e+006  7.9100e+005 114670 226646,226724,226698
 6.4000e+001 226974  3.9810e+004 -2.1338e+006 -3.2293e+005 114082 226798,226850,226824
 6.4000e+001 226951  1.2127e+005 -2.8304e+006 -7.7949e+004 114082 226798,226902,226850
 6.4000e+001 226928  1.2254e+004 -3.9465e+006 -3.3234e+005 114082 226850,226902,226876
 6.4000e+001 227175 -6.2027e+005 -4.4276e+006 -1.9979e+006 113678 226999,227051,227025
 6.4000e+001 227152 -1.9804e+006 -8.3007e+006 -3.5909e+006 113678 226999,227077,227051
 6.4000e+001 227129 -2.6862e+006 -5.4205e+006 -3.1629e+006 113678 226999,227103,227077
 6.4000e+001 227425 -4.1462e+006 -8.7175e+006 -9.4966e+006 113274 227226,227278,227252
 6.4000e+001 227402 -9.0676e+005 -8.2863e+006 -2.3579e+006 113274 227226,227330,227278
 6.4000e+001 227379 -4.7415e+006 -5.4324e+006 -2.7900e+006 113274 227200,227330,227226
 6.4000e+001 227356 -2.0566e+006 -1.8927e+006 -2.1948e+006 113274 227278,227330,227304
 6.4000e+001 227626 -1.9967e+005 -3.1290e+006 -1.8824e+006 112934 227502,227554,227528
 6.4000e+001 227603  6.2460e+005 -2.1241e+006  2.1732e+005 112934 227450,227554,227502
 6.4000e+001 227580 -1.3838e+006 -1.2092e+004  6.3833e+005 112934 227450,227502,227476
 6.4000e+001 227876 -1.5107e+005 -1.5714e+006 -8.2450e+004 112437 227677,227755,227703
 6.4000e+001 227853 -1.0621e+006 -1.9716e+006  1.3629e+006 112437 227677,227781,227755
 6.4000e+001 227830 -2.1375e+005 -8.4289e+005  3.4345e+005 112437 227703,227755,227729
 6.4000e+001 227807 -4.2598e+005 -5.9015e+006 -9.1458e+003 112437 227651,227781,227677
 6.4000e+001 228126 -1.9548e+005 -3.4626e+006 -1.5470e+005 112041 227927,228005,227953
 6.4000e+001 228103 -4.1535e+005 -3.9762e+006 -4.7310e+005 112041 227927,228031,228005
 6.4000e+001 228080 -2.2451e+005 -4.2206e+006 -1.9128e+005 112041 227953,228005,227979
 6.4000e+001 228057 -4.4937e+005 -3.0182e+006 -4.7774e+005 112041 227901,228031,227927
 6.4000e+001 228327 -1.5922e+006 -2.9938e+006 -5.9313e+004 111693 228151,228203,228177
 6.4000e+001 228304 -2.2508e+005 -2.0045e+006 -9.6026e+005 111693 228151,228229,228203
 6.4000e+001 228281  4.9068e+005 -4.3704e+006  7.7870e+005 111693 228151,228255,228229
 6.4000e+001 228479 -4.2035e+006 -2.5376e+006 -4.2563e+006 111253 228352,228404,228378
 6.4000e+001 228456 -2.6193e+006 -4.5641e+005 -1.1032e+005 111253 228352,228430,228404
 6.4000e+001 228582 -2.9399e+002 -5.7622e+003 -6.7252e+001 110906 228504,228556,228530
 6.4000e+001 228783 -3.2429e+004 -1.8481e+006  1.4528e+004 110416 228633,228711,228659
 6.4000e+001 228760  7.1920e+004 -1.3902e+006  1.4018e+004 110416 228607,228711,228633
 6.4000e+001 228737  2.5071e+004 -1.7990e+006 -2.9571e+004 110416 228659,228711,228685
 6.4000e+001 228935  4.6790e+004 -2.8448e+006 -5.7780e+005 110012 228808,228860,228834
 6.4000e+001 228912 -5.4532e+005 -4.9206e+006 -9.0081e+005 110012 228808,228886,228860
 6.4000e+001 229087 -8.1888e+005 -1.9431e+006 -1.0943e+006 109672 228960,229012,228986
 6.4000e+001 229064  3.0363e+005 -4.5061e+006 -3.4331e+005 109672 228960,229038,229012
 6.4000e+001 229190 -1.1026e+003 -1.2787e+005  1.2169e+004 109332 229112,229164,229138
 6.4000e+001 229391 -2.9145e+005 -1.4096e+005  1.2384e+005 109156 229267,229319,229293
 6.4000e+001 229368 -2.7798e+005 -9.4665e+005  2.7776e+005 109156 229215,229319,229267
 6.4000e+001 229345 -1.6476e+005 -4.2842e+005  2.9936e+005 109156 229215,229267,229241
 6.4000e+001 229543  8.0478e+005 -9.9905e+006  1.4479e+006 108752 229416,229468,229442
 6.4000e+001 229520 -7.9418e+005 -3.7775e+006 -6.4420e+005 108752 229416,229494,229468
 6.4000e+001 229744 -7.9104e+004 -5.6915e+006  2.9368e+005 108198 229594,229646,229620
 6.4000e+001 229721  2.5556e+005 -5.5708e+006 -2.6523e+005 108198 229594,229672,229646
 6.4000e+001 229698 -3.3779e+005 -5.0622e+006 -2.9464e+004 108198 229568,229672,229594
 6.4000e+001 229847 -1.0524e+005 -1.4993e+006 -3.3545e+005 107758 229769,229821,229795
 6.4000e+001 230048 -8.0258e+005 -2.0012e+006 -2.0763e+005 107468 229898,229950,229924
 6.4000e+001 230025 -6.1486e+005 -1.6888e+006  3.4538e+005 107468 229872,229950,229898
 6.4000e+001 230002 -1.1175e+006 -1.9506e+006  5.4750e+005 107468 229872,229976,229950
 6.4000e+001 230298  3.9727e+004 -1.0838e+006  2.2941e+005 107121 230099,230203,230177
 6.4000e+001 230275 -9.5073e+004 -1.7342e+006  1.2235e+005 107121 230073,230203,230099
 6.4000e+001 230252  2.8199e+005 -1.1759e+006 -6.6824e+004 107121 230099,230177,230151
 6.4000e+001 230229 -1.3443e+005 -9.3897e+005 -3.5562e+005 107121 230099,230151,230125
 6.4000e+001 230450  1.0159e+005 -1.7455e+006 -7.9556e+004 106823 230349,230401,230375
 6.4000e+001 230427 -5.8827e+004 -1.0766e+006  5.6515e+004 106823 230323,230401,230349
 6.4000e+001 230602 -3.5031e+006 -1.1942e+007 -9.1210e+006 106533 230501,230553,230527
 6.4000e+001 230579 -2.5267e+004 -1.3489e+007  2.1657e+006 106533 230475,230553,230501
 6.4000e+001 230803 -8.3744e+004 -2.1917e+006  6.0246e+003 106029 230679,230731,230705
 6.4000e+001 230780  7.9442e+004 -1.5366e+006  1.8558e+004 106029 230653,230731,230679
 6.4000e+001 230757  1.4252e+004 -1.8191e+006 -5.3271e+004 106029 230627,230731,230653
 6.4000e+001 231004 -1.2569e+005 -1.4341e+006  1.3351e+005 105689 230854,230906,230880
 6.4000e+001 230981  1.2030e+004 -1.7650e+006 -2.3233e+005 105689 230828,230906,230854
 6.4000e+001 230958 -5.0887e+005 -1.5580e+006 -4.0516e+005 105689 230828,230932,230906
 6.4000e+001 231156  4.5990e+005 -7.9451e+006 -4.9648e+005 105377 231055,231107,231081
 6.4000e+001 231133 -1.8771e+005 -4.3212e+006  5.6189e+005 105377 231029,231107,231055
 6.4000e+001 231406 -4.3901e+005 -9.2956e+006 -1.9164e+006 104858 231207,231259,231233
 6.4000e+001 231383 -1.3042e+006 -9.3833e+006 -2.0104e+006 104858 231207,231311,231259
 6.4000e+001 231360 -5.9623e+005 -1.1045e+007 -2.6902e+006 104858 231259,231311,231285
 6.4000e+001 231337 -3.5347e+005 -1.1449e+007 -2.4407e+006 104858 231181,231311,231207
 6.4000e+001 231558 -1.6258e+006 -1.6461e+007  4.1335e+006 104418 231457,231509,231483
 6.4000e+001 231535 -3.4458e+006 -1.6186e+007 -8.4628e+006 104418 231431,231509,231457
 6.4000e+001 231710 -1.7781e+006 -1.3633e+006 -4.5836e+005 103978 231583,231635,231609
 6.4000e+001 231687 -1.0061e+006 -1.4864e+006 -8.8732e+005 103978 231583,231661,231635
 6.4000e+001 231862 -1.0589e+005 -3.3038e+006  1.5154e+005 103588 231761,231813,231787
 6.4000e+001 231839  2.8920e+004 -2.5963e+006  3.0111e+004 103588 231735,231813,231761
 6.4000e+001 232014 -2.4542e+006 -9.9628e+006 -3.4756e+006 103248 231887,231939,231913
 6.4000e+001 231991 -2.9239e+006 -1.9955e+007 -8.2487e+006 103248 231887,231965,231939
 6.4000e+001 232215 -2.2737e+002 -1.6562e+003 -1.0094e+003 102844 232039,232117,232065
 6.4000e+001 232192 -3.3326e+002 -1.6322e+002 -2.0468e+002 102844 232039,232143,232117
 6.4000e+001 232169 -8.0188e+002 -1.7254e+003 -9.4792e+002 102844 232065,232117,232091
 6.4000e+001 232416 -4.3348e+006 -1.1056e+007 -5.4096e+006 102554 232240,232318,232292
 6.4000e+001 232393  1.2874e+006 -1.8260e+007 -1.0293e+006 102554 232240,232344,232318
 6.4000e+001 232370 -6.0656e+006 -3.8522e+006 -1.2491e+006 102554 232240,232292,232266
 6.4000e+001 232568 -5.8137e+004 -1.6880e+006  7.2596e+004 102100 232441,232493,232467
 6.4000e+001 232545 -3.2978e+005 -1.8704e+006  4.4286e+005 102100 232441,232519,232493
 6.4000e+001 232769 -6.5123e+004 -7.8772e+005  1.3923e+005 101596 232645,232697,232671
 6.4000e+001 232746  2.5515e+004 -4.3327e+005  7.6912e+004 101596 232593,232697,232645
 6.4000e+001 232723 -2.3254e+004 -7.6148e+005  1.3482e+005 101596 232593,232645,232619
 6.4000e+001 232921 -4.5785e+003 -1.6978e+004 -1.4490e+003 101420 232794,232846,232820
 6.4000e+001 232898 -7.6109e+003 -1.0480e+005 -1.3450e+004 101420 232794,232872,232846
 6.4000e+001 233073 -9.3721e+005 -1.0905e+006 -1.1116e+005 101023 232946,232998,232972
 6.4000e+001 233050 -6.4300e+004 -2.4884e+006  9.4561e+005 101023 232946,233024,232998
 6.4000e+001 233225  5.7536e+002 -2.8961e+003 -2.9699e+002 100661 233098,233150,233124
 6.4000e+001 233202 -4.6883e+002  1.8075e+003 -5.5174e+002 100661 233098,233176,233150
 6.4000e+001 233426 -1.9967e+006 -8.3467e+006 -2.9461e+006 100265 233276,233328,233302
 6.4000e+001 233403 -1.0552e+006 -7.2666e+006 -5.4680e+005 100265 233276,233354,233328
 6.4000e+001 233380 -1.7742e+006 -8.9495e+006 -1.1888e+006 100265 233250,233354,233276
 6.4000e+001 233578 -1.7312e+003 -7.4977e+005  3.5757e+004 100032 233451,233503,233477
 6.4000e+001 233555 -4.1088e+004 -7.4209e+005  1.7945e+005 100032 233451,233529,233503
 6.4000e+001 233681 -6.5025e+005 -2.2978e+004 -1.4725e+005 99742 233603,233655,233629
 6.4000e+001 233784 -8.3357e+005 -2.8558e+006 -6.6978e+004 99402 233706,233758,233732
 6.4000e+001 233936 -6.7420e+005 -1.9661e+006  4.6992e+005 99062 233835,233887,233861
 6.4000e+001 233913 -6.4148e+005 -1.8231e+006  4.2136e+005 99062 233809,233887,233835
 6.4000e+001 234088 -8.4789e+005 -3.6272e+006  1.2814e+006 98772 233987,234039,234013
 6.4000e+001 234065 -3.7537e+005 -3.5799e+006  1.0792e+006 98772 233961,234039,233987
 6.4000e+001 234240 -1.4137e+004 -6.1154e+004  2.0361e+004 98160 234139,234191,234165
 6.4000e+001 234217 -1.5916e+004 -7.8138e+004 -4.1174e+003 98160 234113,234191,234139
 6.4000e+001 234441 -1.6379e+001 -4.6366e+002 -2.0593e+002 97820 234317,234369,234343
 6.4000e+001 234418 -1.2116e+002 -9.2951e+002 -2.8731e+002 97820 234291,234369,234317
 6.4000e+001 234395  5.4675e+001 -3.7392e+003 -5.7522e+002 97820 234265,234369,234291
 6.4000e+001 234593 -3.2430e+005 -1.5678e+006 -2.3283e+005 97366 234466,234518,234492
 6.4000e+001 234570  1.6745e+005 -3.6700e+006 -3.0653e+005 97366 234466,234544,234518
 6.4000e+001 234794 -7.7697e+005 -1.2332e+006 -7.9602e+005 96976 234618,234670,234644
 6.4000e+001 234771 -1.3614e+005 -2.5667e+006 -6.3675e+005 96976 234618,234722,234670
 6.4000e+001 234748 -3.5190e+005 -2.2459e+006 -1.0863e+006 96976 234670,234722,234696
 6.4000e+001 234946 -7.9173e+005 -1.2838e+006  3.2025e+005 96568 234845,234897,234871
 6.4000e+001 234923 -4.8675e+005 -8.0203e+005  9.6833e+005 96568 234819,234897,234845
 6.4000e+001 235196 -1.7825e+005 -7.9337e+005 -2.3020e+005 96216 234997,235075,235049
 6.4000e+001 235173  7.4234e+004 -3.8102e+006  1.1244e+006 96216 234997,235101,235075
 6.4000e+001 235150 -4.1146e+005 -9.4831e+005  9.4926e+004 96216 234997,235049,235023
 6.4000e+001 235127 -1.9663e+005 -3.9986e+006  8.8678e+005 96216 234971,235101,234997
 6.4000e+001 235348 -1.2482e+006 -1.9248e+006 -1.5133e+006 95863 235247,235299,235273
 6.4000e+001 235325 -9.0926e+005 -1.5224e+006 -1.1023e+006 95863 235221,235299,235247
 6.4000e+001 235500 -8.6098e+005 -2.3682e+006 -1.2069e+006 95339 235373,235425,235399
 6.4000e+001 235477 -5.6462e+005 -3.8973e+006  2.9692e+006 95339 235373,235451,235425
 6.4000e+001 235701  6.9978e+004 -3.4727e+006  7.6741e+005 95023 235525,235577,235551
 6.4000e+001 235678 -1.5945e+005 -3.4014e+006  7.0505e+005 95023 235525,235629,235577
 6.4000e+001 235655 -1.9247e+005 -5.9344e+006  1.2472e+006 95023 235577,235629,235603
 6.4000e+001 235853  3.2277e+005 -1.5076e+007 -1.0277e+005 94671 235726,235778,235752
 6.4000e+001 235830  1.3093e+005 -1.5562e+007  2.6176e+005 94671 235726,235804,235778
 6.4000e+001 236005 -1.4494e+006 -8.6682e+006  3.3256e+005 94261 235904,235956,235930
 6.4000e+001 235982 -4.2214e+005 -1.3352e+007 -4.3246e+006 94261 235878,235956,235904
 6.4000e+001 236206 -8.1257e+005 -8.4328e+005  1.0815e+006 93853 236056,236134,236082
 6.4000e+001 236183 -1.3919e+006 -1.0115e+006  5.8393e+005 93853 236030,236134,236056
 6.4000e+001 236160 -1.1327e+006 -9.8859e+005  9.3190e+005 93853 236082,236134,236108
 6.4000e+001 236407 -1.8549e+006 -4.9081e+006  5.4337e+005 93557 236257,236309,236283
 6.4000e+001 236384 -3.3157e+006 -5.9260e+006 -2.6602e+006 93557 236231,236309,236257
 6.4000e+001 236361  1.3244e+006 -2.0906e+007  2.0646e+006 93557 236231,236335,236309
 6.4000e+001 236559 -1.0422e+003 -3.4470e+004  1.0887e+004 93149 236432,236484,236458
 6.4000e+001 236536  1.3080e+004 -6.0377e+003  3.1329e+004 93149 236432,236510,236484
 6.4000e+001 236711 -1.9834e+005 -2.4443e+005  1.6694e+005 92853 236584,236636,236610
 6.4000e+001 236688 -8.9966e+004 -5.9365e+005  2.0078e+005 92853 236584,236662,236636
 6.4000e+001 236912 -1.4620e+005 -2.3880e+006  7.3042e+005 92501 236736,236788,236762
 6.4000e+001 236889 -4.8052e+005 -1.4975e+006  2.5545e+005 92501 236736,236840,236788
 6.4000e+001 236866 -5.4302e+005 -2.0255e+006  9.1835e+004 92501 236788,236840,236814
 6.4000e+001 237113 -1.1023e+005 -5.2319e+006  1.9696e+005 92291 236963,237041,237015
 6.4000e+001 237090  1.9249e+005 -2.9661e+006  9.3995e+004 92291 236937,237041,236963
 6.4000e+001 237067 -2.4146e+005 -4.7600e+006  1.0714e+006 92291 236963,237015,236989
 6.4000e+001 237265  1.1087e+005 -1.0707e+006 -4.9183e+005 91871 237138,237190,237164
 6.4000e+001 237242 -6.7214e+005 -2.7501e+006 -1.1144e+006 91871 237138,237216,237190
 6.4000e+001 237368  2.0512e+001 -1.8765e+006 -1.0922e+001 91581 237290,237342,237316
 6.4000e+001 237520 -2.1008e+004 -1.4153e+005  4.2979e+004 91184 237419,237471,237445
 6.4000e+001 237497 -8.2317e+004 -2.3783e+005 -3.8515e+004 91184 237393,237471,237419
 6.4000e+001 237672 -4.3959e+005 -1.3482e+006 -2.4351e+005 90894 237545,237597,237571
 6.4000e+001 237649 -2.1417e+005 -4.9044e+006  1.3798e+006 90894 237545,237623,237597
 6.4000e+001 237873 -7.7663e+005 -3.2230e+006  7.6248e+005 90490 237749,237801,237775
 6.4000e+001 237850 -4.3518e+005 -3.3646e+006  1.0774e+006 90490 237723,237801,237749
 6.4000e+001 237827 -1.1221e+006 -3.5217e+006 -7.5949e+005 90490 237697,237801,237723
 6.4000e+001 238074 -5.1846e+005 -6.5031e+006  2.8723e+005 90100 237898,237976,237950
 6.4000e+001 238051 -2.0679e+006 -6.3818e+006 -3.3731e+005 90100 237898,238002,237976
 6.4000e+001 238028 -5.0801e+005 -3.6597e+006  3.2501e+005 90100 237898,237950,237924
 6.4000e+001 238275  5.1140e+004 -1.1690e+006  6.6310e+005 89696 238125,238177,238151
 6.4000e+001 238252 -5.2032e+005 -5.5272e+005 -6.9120e+005 89696 238099,238177,238125
 6.4000e+001 238229 -5.5802e+005 -2.6934e+006 -5.1769e+005 89696 238099,238203,238177
 6.4000e+001 238427  1.3545e+004 -4.3146e+004 -1.7861e+004 89206 238326,238378,238352
 6.4000e+001 238404 -1.4969e+004 -2.5139e+005 -4.6067e+004 89206 238300,238378,238326
 6.4000e+001 238579 -6.4300e+005 -2.9678e+006  7.6553e+005 88908 238452,238504,238478
 6.4000e+001 238556 -1.0091e+005 -2.6540e+006  3.4833e+005 88908 238452,238530,238504
 6.4000e+001 238682 -1.0311e+002 -7.9642e+001 -1.2655e+002 88568 238604,238656,238630
 6.4000e+001 238883  1.5814e+005 -4.6806e+006  1.5459e+006 88278 238733,238811,238785
 6.4000e+001 238860 -7.0299e+005 -2.1977e+006  1.3755e+006 88278 238707,238811,238733
 6.4000e+001 238837 -1.6696e+005 -5.0402e+006  9.1678e+005 88278 238733,238785,238759
 6.4000e+001 239035 -1.6358e+006 -4.6206e+006 -4.7894e+005 87988 238908,238960,238934
 6.4000e+001 239012 -1.8856e+006 -2.3014e+006  3.7529e+005 87988 238908,238986,238960
 6.4000e+001 239138  7.1969e+004 -5.2200e+005  2.1067e+005 87648 239060,239112,239086
 6.4000e+001 239339 -1.6426e+006 -3.4096e+006 -2.4451e+006 87358 239163,239215,239189
 6.4000e+001 239316 -1.6313e+006 -1.8206e+006 -4.3821e+005 87358 239163,239241,239215
 6.4000e+001 239293 -1.0735e+006 -1.2663e+006 -7.7577e+005 87358 239163,239267,239241
 6.4000e+001 239589  2.4154e+002 -1.9124e+004  2.2214e+003 86961 239390,239468,239416
 6.4000e+001 239566 -2.5117e+004 -1.2445e+004  2.1262e+004 86961 239390,239494,239468
 6.4000e+001 239543 -7.1104e+002 -1.6277e+003  9.0783e+002 86961 239416,239468,239442
 6.4000e+001 239520 -3.6769e+004 -5.3743e+004  5.5860e+003 86961 239364,239494,239390
 6.4000e+001 239741 -1.3515e+006 -1.8956e+006 -1.6380e+005 86621 239640,239692,239666
 6.4000e+001 239718 -3.1752e+005 -4.2196e+006 -1.7829e+006 86621 239614,239692,239640
 6.4000e+001 239893 -6.0635e+005 -4.0226e+006  1.2096e+006 86217 239792,239844,239818
 6.4000e+001 239870 -6.7730e+005 -3.4946e+006  9.3724e+005 86217 239766,239844,239792
 6.4000e+001 240045 -5.6535e+005 -3.6070e+006  4.5652e+005 85827 239918,239970,239944
 6.4000e+001 240022 -1.6903e+005 -3.4980e+006  2.1727e+005 85827 239918,239996,239970
 6.4000e+001 240197 -6.3630e+005 -6.1617e+006  8.6472e+005 85437 240096,240148,240122
 6.4000e+001 240174 -1.4025e+006 -4.4154e+005 -4.1232e+005 85437 240070,240148,240096
 6.4000e+001 240349  2.0943e+004 -9.3542e+005  1.9927e+005 85147 240222,240274,240248
 6.4000e+001 240326 -5.5149e+004 -6.3553e+005 -1.0900e+005 85147 240222,240300,240274
 6.4000e+001 240501 -1.2414e+005 -9.1627e+005  3.7424e+005 84807 240374,240426,240400
 6.4000e+001 240478 -1.4650e+006 -2.3330e+006  1.6877e+006 84807 240374,240452,240426
 6.4000e+001 240653  1.8271e+002 -5.1698e+002 -7.5393e+001 84303 240552,240604,240578
 6.4000e+001 240630 -8.9059e+001 -2.2840e+003  1.2291e+002 84303 240526,240604,240552
 6.4000e+001 240854 -3.2020e+005 -9.4378e+006 -4.7100e+006 83929 240704,240756,240730
 6.4000e+001 240831  1.3997e+006 -7.4603e+006  2.1901e+006 83929 240704,240782,240756
 6.4000e+001 240808 -2.9160e+006  1.7770e+006  2.4190e+006 83929 240678,240782,240704
 6.4000e+001 241055  7.7896e+002 -1.3837e+004 -3.0566e+003 83539 240879,240957,240931
 6.4000e+001 241032  1.2173e+003 -1.3968e+004 -2.7063e+003 83539 240879,240983,240957
 6.4000e+001 241009 -3.5311e+003 -2.1537e+003 -3.3777e+003 83539 240879,240931,240905
 6.4000e+001 241207 -2.8380e+004 -7.3013e+005  8.6332e+004 83079 241106,241158,241132
 6.4000e+001 241184 -1.7725e+004 -9.5412e+005  5.9913e+004 83079 241080,241158,241106
 6.4000e+001 241408 -2.8768e+005 -1.6716e+006 -1.1032e+006 82665 241232,241284,241258
 6.4000e+001 241385 -6.6261e+005 -1.6144e+006 -3.6591e+006 82665 241232,241336,241284
 6.4000e+001 241362 -3.7406e+006 -1.0832e+007  6.3258e+006 82665 241284,241336,241310
 6.4000e+001 241658 -2.2127e+005 -3.7998e+006  5.2443e+005 82375 241485,241563,241511
 6.4000e+001 241635 -8.8238e+003 -2.1208e+006  1.9463e+005 82375 241433,241563,241485
 6.4000e+001 241612 -1.0306e+005 -2.5324e+006  1.7974e+005 82375 241433,241485,241459
 6.4000e+001 241589 -6.0711e+005 -4.1935e+006  7.5902e+005 82375 241511,241563,241537
 6.4000e+001 241810 -9.6698e+005 -2.5782e+006 -4.7603e+005 82035 241683,241735,241709
 6.4000e+001 241787 -1.5158e+006 -3.7989e+006  1.0876e+006 82035 241683,241761,241735
 6.4000e+001 241962 -1.0005e+006 -2.4782e+006  7.2396e+005 81695 241861,241913,241887
 6.4000e+001 241939 -2.5839e+005 -3.3383e+006 -9.7665e+005 81695 241835,241913,241861
 6.4000e+001 242114 -1.0889e+006 -5.2474e+006  1.9470e+006 81355 242013,242065,242039
 6.4000e+001 242091 -2.1869e+005 -2.5610e+006  7.6592e+005 81355 241987,242065,242013
 6.4000e+001 242266  1.1522e+004 -5.2807e+005  3.2152e+004 80951 242139,242191,242165
 6.4000e+001 242243 -9.6549e+004 -9.4390e+005 -4.2882e+004 80951 242139,242217,242191
 6.4000e+001 242467 -4.1003e+005 -4.7309e+006  5.2453e+005 80311 242291,242369,242343
 6.4000e+001 242444  1.4559e+005 -2.3535e+006  4.0798e+005 80311 242291,242395,242369
 6.4000e+001 242421 -1.5812e+005 -1.1718e+006  2.0067e+005 80311 242291,242343,242317
 6.4000e+001 242619 -1.3691e+006 -2.5275e+006  4.5886e+005 80021 242492,242544,242518
 6.4000e+001 242596 -1.3166e+006 -2.3773e+006  1.4549e+006 80021 242492,242570,242544
 6.4000e+001 242869 -2.0281e+005 -5.7839e+004 -7.2434e+004 79631 242644,242722,242696
 6.4000e+001 242846 -5.3095e+003 -1.1382e+006  1.8078e+005 79631 242644,242774,242722
 6.4000e+001 242823  1.9671e+005 -3.8910e+005  9.6474e+004 79631 242722,242774,242748
 6.4000e+001 242800 -1.6612e+005 -1.4229e+005  1.9268e+005 79631 242644,242696,242670
 6.4000e+001 243070 -2.1626e+005 -1.4188e+007  3.6237e+006 79341 242920,242972,242946
 6.4000e+001 243047 -8.2854e+005 -6.4460e+006 -3.6148e+005 79341 242920,242998,242972
 6.4000e+001 243024 -7.6307e+005 -4.0262e+006  1.7532e+006 79341 242894,242998,242920
 6.4000e+001 243222 -4.4148e+005 -3.2467e+006  1.4262e+006 78801 243121,243173,243147
 6.4000e+001 243199 -3.6711e+005 -3.1310e+006  1.1919e+006 78801 243095,243173,243121
 6.4000e+001 243423 -9.9081e+005 -4.8515e+006 -1.9719e+004 78511 243273,243325,243299
 6.4000e+001 243400  4.2876e+005 -8.7067e+006  1.9547e+006 78511 243273,243351,243325
 6.4000e+001 243377 -4.1224e+003 -8.9108e+006  1.9566e+005 78511 243247,243351,243273
 6.4000e+001 243624 -4.7063e+005 -3.8154e+006 -1.4305e+006 78107 243474,243552,243526
 6.4000e+001 243601 -6.7448e+005 -4.9611e+006 -1.4282e+006 78107 243448,243552,243474
 6.4000e+001 243578 -1.9959e+005 -3.5521e+006 -1.2052e+006 78107 243474,243526,243500
 6.4000e+001 243776 -8.4694e+005 -4.5906e+006 -1.2088e+006 77653 243649,243701,243675
 6.4000e+001 243753 -1.6735e+006 -6.3324e+006 -4.4898e+005 77653 243649,243727,243701
 6.4000e+001 243977 -3.7253e+005 -5.4991e+006  2.7644e+004 77093 243801,243853,243827
 6.4000e+001 243954 -7.6878e+004 -4.6260e+006  6.6707e+005 77093 243801,243879,243853
 6.4000e+001 243931 -3.8323e+005 -1.7403e+006 -2.0111e+005 77093 243801,243905,243879
 6.4000e+001 244080 -6.6720e+005 -7.2876e+006  3.6667e+005 76791 244002,244054,244028
 6.4000e+001 244232 -4.0688e+005 -4.0897e+006  1.5687e+005 76311 244131,244183,244157
 6.4000e+001 244209 -1.7273e+005 -8.9446e+006  8.5432e+005 76311 244105,244183,244131
 6.4000e+001 244433 -6.0170e+005 -1.6483e+007  4.7260e+006 75903 244283,244335,244309
 6.4000e+001 244410 -1.4411e+006 -9.1920e+006 -7.7562e+005 75903 244283,244361,244335
 6.4000e+001 244387 -1.9288e+006 -8.2181e+006 -8.5877e+004 75903 244257,244361,244283
 6.4000e+001 244585  3.8980e+005 -1.6178e+007  1.4697e+006 75419 244458,244510,244484
 6.4000e+001 244562 -8.6861e+005 -7.7000e+006 -4.5762e+005 75419 244458,244536,244510
 6.4000e+001 244737 -3.5697e+005 -3.4831e+005 -1.6027e+005 75215 244636,244688,244662
 6.4000e+001 244714 -1.5757e+005 -4.3393e+006 -1.4273e+005 75215 244610,244688,244636
 6.4000e+001 244889 -8.3274e+005 -4.9170e+006 -4.5121e+005 74857 244788,244840,244814
 6.4000e+001 244866 -6.4738e+004 -1.9500e+006 -2.2436e+005 74857 244762,244840,244788
 6.4000e+001 245041 -2.6034e+005 -1.2597e+006 -6.4308e+005 74653 244940,244992,244966
 6.4000e+001 245018 -2.2390e+005 -2.9584e+005  5.8826e+005 74653 244914,244992,244940
 6.4000e+001 245144 -1.6482e+006 -5.0693e+006 -1.2928e+006 74359 245066,245118,245092
 6.4000e+001 245296 -4.7046e+004 -7.3938e+005 -2.2601e+005 74007 245169,245221,245195
 6.4000e+001 245273 -2.6385e+005 -1.2677e+006 -3.9007e+005 74007 245169,245247,245221
 6.4000e+001 245448 -1.3912e+006 -6.1453e+006  1.0719e+006 73711 245321,245373,245347
 6.4000e+001 245425 -5.9189e+005 -5.9099e+006 -1.4191e+006 73711 245321,245399,245373
 6.4000e+001 245600  7.6172e+005 -1.1900e+007 -8.8485e+005 73301 245499,245551,245525
 6.4000e+001 245577 -1.3429e+006 -8.1515e+006  2.0206e+006 73301 245473,245551,245499
 6.4000e+001 245752 -1.7760e+006 -2.6182e+006 -1.6304e+006 72995 245625,245677,245651
 6.4000e+001 245729  3.1077e+005 -1.0065e+007 -1.1617e+006 72995 245625,245703,245677
 6.4000e+001 245953 -1.6627e+006 -8.6615e+006  6.7282e+005 72585 245777,245829,245803
 6.4000e+001 245930 -7.7660e+005 -1.4221e+007  3.1472e+006 72585 245777,245855,245829
 6.4000e+001 245907 -6.7367e+005 -5.3477e+006  1.6349e+005 72585 245777,245881,245855
 6.4000e+001 246154 -4.0109e+005 -6.5955e+006  1.1896e+006 72127 246030,246082,246056
 6.4000e+001 246131 -8.5950e+005 -7.6541e+006  7.0333e+005 72127 245978,246082,246030
 6.4000e+001 246108 -1.1005e+005 -7.8489e+006  3.2486e+005 72127 245978,246030,246004
 6.4000e+001 246257 -1.9093e+006 -2.6329e+005  3.3724e+004 71737 246179,246231,246205
 6.4000e+001 246360  1.5697e+005 -2.9658e+006  4.8573e+005 71447 246282,246334,246308
 6.4000e+001 246512 -5.9227e+004 -2.5484e+006  9.3188e+005 71157 246385,246437,246411
 6.4000e+001 246489 -7.0467e+004 -1.9994e+006 -1.1024e+005 71157 246385,246463,246437
 6.4000e+001 246664 -1.5137e+005 -2.1260e+006 -3.1861e+005 70753 246537,246589,246563
 6.4000e+001 246641 -5.5206e+005 -1.1934e+006 -1.3700e+005 70753 246537,246615,246589
 6.4000e+001 246865 -1.8743e+006 -8.8322e+006  6.0343e+006 70249 246715,246767,246741
 6.4000e+001 246842 -1.7034e+006 -8.0176e+006 -7.3648e+005 70249 246715,246793,246767
 6.4000e+001 246819 -1.4437e+004 -1.0581e+007 -2.1461e+006 70249 246689,246793,246715
 6.4000e+001 247066 -4.5534e+004 -1.8297e+006  2.9135e+005 70023 246916,246994,246942
 6.4000e+001 247043 -1.3851e+004 -1.8726e+006  2.7585e+005 70023 246890,246994,246916
 6.4000e+001 247020 -1.0097e+004 -1.6767e+006  2.8667e+005 70023 246942,246994,246968
 6.4000e+001 247267 -2.4968e+005 -3.3099e+006 -1.5918e+005 69633 247091,247143,247117
 6.4000e+001 247244 -4.1792e+004 -2.2194e+006 -4.4423e+004 69633 247091,247169,247143
 6.4000e+001 247221  4.6489e+004 -2.5688e+006 -2.1846e+005 69633 247091,247195,247169
 6.4000e+001 247419 -1.0620e+006 -4.9387e+006  6.6596e+005 69457 247318,247370,247344
 6.4000e+001 247396 -1.1004e+006 -2.8068e+006  9.1960e+005 69457 247292,247370,247318
 6.4000e+001 247522  5.4247e-001 -5.3202e+002  4.1436e-002 69209 247444,247496,247470
 6.4000e+001 247625 -1.5837e+006 -2.0636e+006 -1.2948e+006 68919 247547,247599,247573
 6.4000e+001 247777  1.4367e+005 -6.6018e+006 -2.4049e+005 68579 247650,247702,247676
 6.4000e+001 247754 -1.4788e+005 -1.7859e+006 -1.5020e+005 68579 247650,247728,247702
 6.4000e+001 247929 -1.4746e+005 -2.9979e+006  9.9661e+005 68289 247802,247854,247828
 6.4000e+001 247906 -2.8389e+005 -1.4104e+006 -4.2037e+005 68289 247802,247880,247854
 6.4000e+001 248081 -5.5907e+005 -4.5600e+006  1.4581e+006 67949 247980,248032,248006
 6.4000e+001 248058 -6.6294e+005 -5.5216e+005  3.0181e+005 67949 247954,248032,247980
 6.4000e+001 248233 -2.1433e+006 -4.9151e+006 -6.6292e+005 67616 248132,248184,248158
 6.4000e+001 248210 -5.7572e+005 -5.6871e+006 -2.9249e+005 67616 248106,248184,248132
 6.4000e+001 248434 -1.2902e+005 -4.2146e+006 -2.1132e+005 67212 248284,248336,248310
 6.4000e+001 248411 -1.5439e+005 -4.2350e+006 -2.6117e+005 67212 248258,248336,248284
 6.4000e+001 248388 -1.5441e+006 -2.0220e+006 -6.3404e+005 67212 248258,248362,248336
 6.4000e+001 248586  1.4923e+002 -5.0611e+006  1.0061e+006 66872 248485,248537,248511
 6.4000e+001 248563 -5.5119e+005 -6.5166e+005  1.6792e+005 66872 248459,248537,248485
 6.4000e+001 248738 -2.6054e+005 -4.6049e+006  1.1314e+005 66510 248637,248689,248663
 6.4000e+001 248715 -3.6060e+005 -7.3703e+006  1.7986e+005 66510 248611,248689,248637
 6.4000e+001 248890 -1.8153e+004 -4.7350e+005  9.2002e+004 66220 248789,248841,248815
 6.4000e+001 248867 -4.0949e+004 -6.0847e+005 -1.7192e+005 66220 248763,248841,248789
 6.4000e+001 249091 -1.3068e+006 -9.9441e+006  1.7908e+006 65759 248915,248967,248941
 6.4000e+001 249068 -9.7613e+005 -6.9121e+006  2.4294e+006 65759 248915,248993,248967
 6.4000e+001 249045 -5.9086e+005 -4.8409e+006  3.4089e+005 65759 248915,249019,248993
 6.4000e+001 249243 -1.6248e+005 -7.5847e+006  1.6875e+006 65419 249142,249194,249168
 6.4000e+001 249220  1.5992e+005 -2.4564e+006  6.9091e+005 65419 249116,249194,249142
 6.4000e+001 249395 -2.1387e+005 -1.5409e+006 -3.3597e+004 65079 249268,249320,249294
 6.4000e+001 249372 -2.4234e+005 -3.3731e+006 -5.4430e+005 65079 249268,249346,249320
 6.4000e+001 249547 -1.3089e+006 -2.7323e+006  1.2036e+006 64739 249420,249472,249446
 6.4000e+001 249524  4.0739e+005 -1.7662e+006 -1.7451e+005 64739 249420,249498,249472
 6.4000e+001 249650 -1.3118e+006 -3.1658e+006 -1.8168e+006 64342 249572,249624,249598
 6.4000e+001 249851 -2.2097e+005 -2.4671e+006 -1.4901e+005 63938 249701,249779,249753
 6.4000e+001 249828 -2.6161e+005 -2.5477e+006  2.7203e+005 63938 249675,249779,249701
 6.4000e+001 249805 -2.6942e+005 -1.8633e+006 -1.5832e+005 63938 249701,249753,249727
 6.4000e+001 250052 -3.2796e+005 -4.2245e+006 -1.9622e+005 63341 249876,249954,249902
 6.4000e+001 250029 -4.6077e+003 -6.2018e+006 -8.5004e+005 63341 249876,249980,249954
 6.4000e+001 250006 -1.5443e+005 -3.6282e+006 -6.6968e+005 63341 249902,249954,249928
 6.4000e+001 250253 -6.5845e+005 -9.8002e+005 -2.2459e+005 63058 250077,250129,250103
 6.4000e+001 250230 -2.0625e+006 -1.5218e+006  1.0086e+006 63058 250077,250155,250129
 6.4000e+001 250207 -3.3540e+005 -7.4099e+005  2.6606e+005 63058 250077,250181,250155
 6.4000e+001 250454 -7.2674e+005 -6.3292e+006  9.4022e+005 62832 250304,250382,250330
 6.4000e+001 250431  1.2297e+005 -7.8398e+006 -2.0606e+006 62832 250278,250382,250304
 6.4000e+001 250408 -1.5943e+006 -4.3240e+006  2.8504e+005 62832 250330,250382,250356
 6.4000e+001 250606 -4.3773e+005 -1.2249e+007 -1.6080e+006 62428 250479,250531,250505
 6.4000e+001 250583 -7.6631e+005 -1.2843e+007 -1.3572e+006 62428 250479,250557,250531
 6.4000e+001 250758 -3.8337e+005 -7.0489e+006  7.9761e+005 62202 250631,250683,250657
 6.4000e+001 250735 -6.2022e+005 -6.9912e+006  6.4864e+005 62202 250631,250709,250683
 6.4000e+001 250861  3.3837e+005 -2.8327e+006 -2.4167e+005 61954 250783,250835,250809
 6.4000e+001 251062 -2.0591e+006 -9.7435e+006 -3.5689e+005 61557 250912,250990,250938
 6.4000e+001 251039  3.1453e+005 -1.3794e+007 -1.3723e+006 61557 250886,250990,250912
 6.4000e+001 251016 -1.2894e+006 -1.2220e+007 -3.0599e+006 61557 250938,250990,250964
 6.4000e+001 251263 -4.2743e+005 -6.0462e+006 -3.7973e+003 61167 251113,251165,251139
 6.4000e+001 251240 -2.2906e+005 -5.7714e+006 -1.4062e+005 61167 251113,251191,251165
 6.4000e+001 251217 -1.0831e+006 -5.6979e+006  1.4604e+006 61167 251087,251191,251113
 6.4000e+001 251415 -7.3593e+005 -7.6858e+006  2.3557e+006 60827 251288,251340,251314
 6.4000e+001 251392 -6.0976e+005 -2.9266e+006 -7.1874e+005 60827 251288,251366,251340
 6.4000e+001 251567  4.4159e+004 -2.3367e+006 -2.5095e+005 60487 251466,251518,251492
 6.4000e+001 251544 -2.0446e+005 -3.6739e+006 -2.2029e+005 60487 251440,251518,251466
 6.4000e+001 251719 -5.1471e+005 -7.7290e+006 -1.0535e+006 59983 251592,251644,251618
 6.4000e+001 251696 -1.4494e+006 -7.7041e+006 -5.7554e+005 59983 251592,251670,251644
 6.4000e+001 251920  3.9902e+004 -1.1114e+006 -1.2703e+004 59807 251770,251848,251796
 6.4000e+001 251897  3.5946e+004 -1.1925e+006  2.8438e+003 59807 251744,251848,251770
 6.4000e+001 251874 -4.5800e+004 -1.4774e+006 -7.9609e+003 59807 251796,251848,251822
 6.4000e+001 252023  1.1544e+005 -4.1243e+006 -2.2702e+004 59517 251945,251997,251971
 6.4000e+001 252175  1.6746e+006 -1.4457e+007 -2.9394e+005 59269 252074,252126,252100
 6.4000e+001 252152 -1.7981e+005 -9.1079e+006  1.5164e+005 59269 252048,252126,252074
 6.4000e+001 252278 -5.7582e+005 -1.0354e+007  1.8448e+006 58979 252200,252252,252226
 6.4000e+001 252381 -2.0464e+006 -2.0765e+006  1.7555e+006 58689 252303,252355,252329
 6.4000e+001 252533 -2.8585e+005 -2.6796e+006 -1.0310e+006 58249 252432,252484,252458
 6.4000e+001 252510 -1.0048e+006 -5.6903e+006 -1.0128e+006 58249 252406,252484,252432
 6.4000e+001 252734 -2.8666e+005 -1.7450e+006  4.0180e+005 57902 252584,252662,252610
 6.4000e+001 252711  7.9667e+004 -4.1522e+006 -8.0055e+005 57902 252558,252662,252584
 6.4000e+001 252688 -2.7715e+005 -9.0245e+005 -1.0608e+005 57902 252610,252662,252636
 6.4000e+001 252886 -1.1016e+004 -4.4150e+006  1.0802e+004 57540 252785,252837,252811
 6.4000e+001 252863 -5.2214e+004 -4.3765e+006  9.8278e+003 57540 252759,252837,252785
 6.4000e+001 253038 -9.8960e+005 -5.7348e+006  1.4880e+006 57086 252937,252989,252963
 6.4000e+001 253015 -3.3100e+005 -1.3716e+006  6.3056e+005 57086 252911,252989,252937
 6.4000e+001 253239 -1.4935e+006 -7.9230e+006 -1.5779e+006 56796 253063,253141,253115
 6.4000e+001 253216  1.9020e+005 -9.1535e+006  8.8720e+005 56796 253063,253167,253141
 6.4000e+001 253193 -4.7686e+006 -4.4724e+006 -2.9264e+005 56796 253063,253115,253089
 6.4000e+001 253342 -7.8555e+005 -1.8469e+007 -1.0319e+005 56349 253264,253316,253290
 6.4000e+001 253543 -2.2681e+005 -2.6564e+006 -1.2455e+006 56009 253367,253419,253393
 6.4000e+001 253520 -3.6517e+005 -1.0609e+006 -7.7542e+005 56009 253367,253445,253419
 6.4000e+001 253497 -4.7255e+005 -1.1533e+006 -7.1436e+005 56009 253367,253471,253445
 6.4000e+001 253695 -5.7825e+005 -7.6797e+005  6.1295e+005 55733 253594,253646,253620
 6.4000e+001 253672 -7.9142e+005 -4.1666e+005  5.6584e+005 55733 253568,253646,253594
 6.4000e+001 253798 -5.7387e+005 -1.5536e+006  1.1115e+004 55557 253720,253772,253746
 6.4000e+001 253950 -5.6321e+005 -3.0849e+006  3.3547e+005 55153 253849,253901,253875
 6.4000e+001 253927  1.5003e+004 -3.5805e+006 -2.7010e+005 55153 253823,253901,253849
 6.4000e+001 254151 -9.4882e+005 -3.7675e+006  6.5948e+005 54863 253975,254053,254001
 6.4000e+001 254128 -5.7358e+005 -3.5518e+006  2.4573e+005 54863 253975,254079,254053
 6.4000e+001 254105 -7.0682e+005 -4.0882e+006  7.6488e+005 54863 254001,254053,254027
 6.4000e+001 254303 -9.5742e+004 -2.6452e+005  1.5794e+005 54373 254176,254228,254202
 6.4000e+001 254280 -9.6913e+004 -2.6354e+005  1.5825e+005 54373 254176,254254,254228
 6.4000e+001 254455 -2.8127e+004 -3.4328e+006 -3.7341e+005 53975 254354,254406,254380
 6.4000e+001 254432 -1.7836e+005 -7.4212e+005  8.7831e+004 53975 254328,254406,254354
 6.4000e+001 254607 -4.9149e+005 -4.4003e+006 -1.1567e+005 53585 254480,254532,254506
 6.4000e+001 254584 -1.5407e+005 -4.2628e+006 -2.8412e+005 53585 254480,254558,254532
 6.4000e+001 254808 -1.2404e+006 -3.1250e+006  3.1404e+005 53245 254658,254736,254684
 6.4000e+001 254785 -1.0180e+006 -9.0461e+005  2.6257e+005 53245 254632,254736,254658
 6.4000e+001 254762 -6.5188e+005 -2.0769e+006 -3.2553e+005 53245 254684,254736,254710
 6.4000e+001 254911 -8.5883e+004 -6.8766e+005 -2.1515e+005 52955 254833,254885,254859
 6.4000e+001 255063 -5.6807e+005 -6.2519e+006  5.0912e+004 52551 254962,255014,254988
 6.4000e+001 255040 -6.6690e+005 -6.7028e+006 -1.6181e+005 52551 254936,255014,254962
 6.4000e+001 255264 -7.4736e+005 -4.4319e+005 -2.4368e+005 52261 255114,255166,255140
 6.4000e+001 255241 -9.3647e+005 -9.3450e+005 -4.0741e+004 52261 255114,255192,255166
 6.4000e+001 255218 -3.6396e+006  2.9802e+005  1.1653e+006 52261 255088,255192,255114
 6.4000e+001 255416 -1.0003e+006 -5.2788e+006  2.2382e+006 51971 255289,255341,255315
 6.4000e+001 255393 -6.3517e+005 -4.5801e+006 -6.0801e+005 51971 255289,255367,255341
 6.4000e+001 255568 -5.1652e+005 -5.8525e+005 -5.8117e+005 51681 255441,255493,255467
 6.4000e+001 255545 -1.6993e+005 -1.0655e+006 -5.9206e+005 51681 255441,255519,255493
 6.4000e+001 255769 -2.4167e+005 -2.7746e+006  4.1553e+004 51291 255619,255697,255671
 6.4000e+001 255746 -2.1883e+005 -2.4224e+006 -2.5598e+005 51291 255593,255697,255619
 6.4000e+001 255723 -2.2998e+005 -5.0420e+006 -5.0561e+005 51291 255619,255671,255645
 6.4000e+001 255921 -5.6717e+005 -3.1682e+006  9.3468e+005 50951 255820,255872,255846
 6.4000e+001 255898 -1.3191e+005 -1.7246e+006  1.0022e+005 50951 255794,255872,255820
 6.4000e+001 256171 -1.0403e+006 -4.4466e+006  3.7198e+005 50547 256024,256076,256050
 6.4000e+001 256148 -8.7160e+005 -3.7406e+006  4.3192e+005 50547 255972,256076,256024
 6.4000e+001 256125 -1.9910e+005 -4.3464e+006 -1.2240e+004 50547 255946,256076,255972
 6.4000e+001 256102 -7.5629e+005 -3.5095e+006  3.2545e+005 50547 255972,256024,255998
 6.4000e+001 256323  1.4802e+005 -3.3168e+006  1.3831e+005 50093 256196,256248,256222
 6.4000e+001 256300 -8.7821e+005 -2.3414e+006 -6.4225e+005 50093 256196,256274,256248
 6.4000e+001 256426  1.3003e+000 -8.1736e+002  3.0518e-001 49845 256348,256400,256374
 6.4000e+001 256627 -2.0870e+004 -4.9566e+006  1.9616e+005 49555 256477,256555,256503
 6.4000e+001 256604 -1.7061e+005 -3.1474e+006  2.4665e+005 49555 256451,256555,256477
 6.4000e+001 256581 -4.4994e+005 -4.2933e+006  4.5755e+005 49555 256503,256555,256529
 6.4000e+001 256828 -7.1306e+005 -2.3120e+006 -4.0173e+005 49056 256652,256730,256678
 6.4000e+001 256805 -4.9533e+005 -2.4936e+006 -5.5488e+005 49056 256652,256756,256730
 6.4000e+001 256782 -4.5531e+005 -2.7736e+006 -9.5585e+004 49056 256678,256730,256704
 6.4000e+001 256931 -5.9930e+004 -4.8619e+004  5.5026e+004 48766 256853,256905,256879
 6.4000e+001 257083 -1.3397e+006 -4.5302e+006 -6.1448e+005 48568 256982,257034,257008
 6.4000e+001 257060 -6.0832e+005 -1.6555e+006 -1.3798e+005 48568 256956,257034,256982
 6.4000e+001 257186 -4.6502e+003 -1.5121e+006  2.6321e+003 48228 257108,257160,257134
 6.4000e+001 257338 -1.0331e+006 -2.4033e+005  1.4045e+005 47888 257237,257289,257263
 6.4000e+001 257315 -6.6587e+005 -1.3534e+006  1.1284e+006 47888 257211,257289,257237
 6.4000e+001 257539 -4.0937e+005 -2.5393e+006  9.8504e+003 47548 257363,257441,257415
 6.4000e+001 257516 -8.2276e+005 -2.3846e+006 -3.4776e+005 47548 257363,257467,257441
 6.4000e+001 257493 -8.7768e+005 -1.4929e+006 -1.9034e+005 47548 257363,257415,257389
 6.4000e+001 257740 -2.3964e+005 -4.0333e+006  3.7460e+005 46994 257564,257642,257616
 6.4000e+001 257717 -4.1303e+005 -3.1826e+006  5.0638e+004 46994 257564,257668,257642
 6.4000e+001 257694 -7.3809e+005 -4.1032e+006 -2.8158e+004 46994 257564,257616,257590
 6.4000e+001 257843 -4.6185e+005 -7.6658e+005 -5.9979e+005 46654 257765,257817,257791
 6.4000e+001 257995 -6.4025e+005 -1.9452e+006  4.1964e+005 46364 257894,257946,257920
 6.4000e+001 257972 -5.9852e+005 -2.1749e+006  2.9380e+005 46364 257868,257946,257894
 6.4000e+001 258147 -1.1458e+005 -2.5815e+006  1.2148e+005 46024 258046,258098,258072
 6.4000e+001 258124 -3.1981e+005 -1.9484e+006  3.3193e+005 46024 258020,258098,258046
 6.4000e+001 258250 -8.3802e+005 -9.7408e+005  6.6165e+005 45741 258172,258224,258198
 6.4000e+001 258402 -4.7731e+005 -1.6356e+006  3.3870e+005 45401 258301,258353,258327
 6.4000e+001 258379 -5.3293e+005 -8.8155e+005  4.1970e+005 45401 258275,258353,258301
 6.4000e+001 258603 -6.5830e+005 -1.3105e+006 -8.6398e+003 45071 258427,258505,258479
 6.4000e+001 258580 -2.8878e+005 -3.1512e+006  1.5351e+005 45071 258427,258531,258505
 6.4000e+001 258557 -3.2485e+005 -2.0944e+006  1.3517e+005 45071 258427,258479,258453
 6.4000e+001 258755 -2.5561e+005 -3.0272e+006 -4.7801e+005 44681 258654,258706,258680
 6.4000e+001 258732 -2.6127e+005 -2.7980e+006 -4.6087e+005 44681 258628,258706,258654
 6.4000e+001 258907 -5.9551e+005 -2.0009e+006 -1.0988e+005 44157 258806,258858,258832
 6.4000e+001 258884 -3.9979e+005 -1.9057e+006 -2.4833e+004 44157 258780,258858,258806
 6.4000e+001 259010 -6.1777e+005 -1.5866e+006 -9.3812e+004 43705 258932,258984,258958
 6.4000e+001 259113 -4.0808e+005 -2.1193e+006  2.3332e+005 43284 259035,259087,259061
 6.4000e+001 259216 -5.1413e+005 -3.6734e+006 -1.8195e+005 42954 259138,259190,259164
 6.4000e+001 259319 -5.7863e+005 -8.0906e+005 -9.0464e+004 42116 259241,259293,259267
 6.4000e+001 259422 -1.6596e+005 -2.6575e+006 -1.5470e+004 41804 259344,259396,259370
 6.4000e+001 259525 -5.6240e+005 -4.9775e+006  7.0239e+005 41219 259447,259499,259473
 6.4000e+001 259628 -7.5216e+005 -1.6557e+006 -5.2919e+005 385 259550,259602,259576
 6.6000e+001 190120 -2.9669e+005 -1.6250e+006 -2.7567e+005 189630 189993,190045,190019
 6.6000e+001 190097 -6.1611e+005 -1.2377e+006 -1.8038e+005 189630 189993,190071,190045
 6.6000e+001 190319 -1.0859e+006 -5.4541e+006 -1.3314e+006 189312 190169,190221,190195
 6.6000e+001 190296 -4.1795e+005 -5.8722e+006 -8.4548e+005 189312 190169,190247,190221
 6.6000e+001 190273 -9.0716e+005 -5.3845e+006  1.5818e+005 189312 190143,190247,190169
 6.6000e+001 190518 -4.7715e+005  4.8827e+004  1.5980e+004 189124 190368,190446,190420
 6.6000e+001 190495 -5.6215e+005  2.1614e+004 -4.2943e+003 189124 190342,190446,190368
 6.6000e+001 190472 -9.8840e+005 -5.2806e+004 -4.9143e+004 189124 190368,190420,190394
 6.6000e+001 190619 -4.5034e+005 -4.6133e+004 -6.1576e+003 188926 190541,190593,190567
 6.6000e+001 190771 -4.7759e+005 -8.1379e+004  2.5686e+004 188614 190670,190722,190696
 6.6000e+001 190748 -5.6540e+005  1.5870e+005  6.0928e+004 188614 190644,190722,190670
 6.6000e+001 190972 -5.1459e+005 -4.8464e+005 -4.5624e+005 188324 190848,190900,190874
 6.6000e+001 190949 -4.1971e+005 -4.2624e+005 -4.1401e+005 188324 190796,190900,190848
 6.6000e+001 190926 -2.1949e+005 -1.6172e+005 -2.7496e+005 188324 190796,190848,190822
 6.6000e+001 191124 -7.0472e+005 -5.8758e+005 -1.2896e+005 188034 191023,191075,191049
 6.6000e+001 191101 -1.4050e+005 -7.2972e+005 -7.6670e+004 188034 190997,191075,191023
 6.6000e+001 191276 -1.0358e+005 -2.5812e+006 -1.8305e+005 187836 191149,191201,191175
 6.6000e+001 191253 -4.5426e+005 -1.3447e+006  4.5631e+005 187836 191149,191227,191201
 6.6000e+001 191379 -5.0037e+005 -1.3285e+006 -1.5598e+005 187546 191301,191353,191327
 6.6000e+001 191531 -3.7866e+005 -5.5334e+006  4.6533e+005 187256 191430,191482,191456
 6.6000e+001 191508 -1.2759e+006 -8.1025e+006 -2.7134e+006 187256 191404,191482,191430
 6.6000e+001 191634 -7.4176e+005  2.4611e+004 -1.8798e+004 187058 191556,191608,191582
 6.6000e+001 191835 -5.1198e+005  2.0460e+004 -2.2861e+004 186860 191659,191711,191685
 6.6000e+001 191812 -3.3291e+005 -1.0337e+005  8.4507e+003 186860 191659,191737,191711
 6.6000e+001 191789 -2.9068e+005 -6.5153e+003 -4.3797e+004 186860 191659,191763,191737
 6.6000e+001 191987 -2.0949e+005 -7.3137e+005 -2.3701e+005 186662 191886,191938,191912
 6.6000e+001 191964  1.1979e+004 -1.8189e+006  4.8586e+005 186662 191860,191938,191886
 6.6000e+001 192090 -5.5742e+005 -2.1049e+006 -3.5196e+005 186486 192012,192064,192038
 6.6000e+001 192242 -1.4605e+004 -1.2501e+007 -4.3211e+005 186288 192115,192167,192141
 6.6000e+001 192219 -1.0665e+006 -7.6631e+006  3.6487e+005 186288 192115,192193,192167
 6.6000e+001 192394  5.0428e+005 -1.0407e+007 -1.2770e+005 185935 192293,192345,192319
 6.6000e+001 192371 -7.4395e+005 -6.7679e+006 -9.5669e+005 185935 192267,192345,192293
 6.6000e+001 192546 -5.6486e+005 -2.7766e+006 -7.6845e+005 185675 192419,192471,192445
 6.6000e+001 192523 -9.6815e+005 -1.4954e+006 -8.2713e+005 185675 192419,192497,192471
 6.6000e+001 192649 -6.8401e+005 -2.4740e+006 -3.8585e+005 185499 192571,192623,192597
 6.6000e+001 192801 -2.7619e+005 -9.6943e+005  1.5946e+005 185301 192674,192726,192700
 6.6000e+001 192778 -2.7139e+005 -1.1245e+006  6.0205e+005 185301 192674,192752,192726
 6.6000e+001 193002 -1.0026e+005 -9.6744e+005 -4.9094e+005 185046 192852,192930,192878
 6.6000e+001 192979 -4.6299e+005 -2.2691e+006 -3.0531e+005 185046 192826,192930,192852
 6.6000e+001 192956  5.7856e+005 -2.9510e+006  7.7188e+004 185046 192878,192930,192904
 6.6000e+001 193203  4.0485e+005 -8.9480e+006 -1.1554e+006 184798 193079,193131,193105
 6.6000e+001 193180 -1.0093e+006 -5.1358e+006 -6.3833e+005 184798 193027,193131,193079
 6.6000e+001 193157 -6.7629e+005 -5.0931e+006  4.2186e+004 184798 193027,193079,193053
 6.6000e+001 193404 -2.7509e+005 -6.0222e+006 -1.7613e+006 184600 193254,193306,193280
 6.6000e+001 193381 -8.0849e+005 -1.8960e+006 -3.3229e+005 184600 193254,193332,193306
 6.6000e+001 193358 -1.0886e+006 -6.5063e+005 -6.3734e+005 184600 193228,193332,193254
 6.6000e+001 193556 -9.7621e+005 -2.0173e+005 -3.2085e+005 184402 193429,193481,193455
 6.6000e+001 193533 -4.6117e+005 -2.5970e+005 -2.7370e+005 184402 193429,193507,193481
 6.6000e+001 193708 -3.8407e+005 -2.1191e+006 -1.6139e+005 184204 193607,193659,193633
 6.6000e+001 193685 -4.2605e+005 -9.2537e+006 -1.8310e+006 184204 193581,193659,193607
 6.6000e+001 193860 -4.3176e+005 -5.3953e+005  2.8690e+005 183908 193759,193811,193785
 6.6000e+001 193837 -1.7514e+004 -1.1183e+006  3.4372e+005 183908 193733,193811,193759
 6.6000e+001 194061 -2.8131e+005 -3.2417e+005  1.9632e+005 183710 193911,193989,193937
 6.6000e+001 194038 -6.2067e+005 -1.0269e+006  5.1250e+005 183710 193885,193989,193911
 6.6000e+001 194015 -4.2140e+005 -1.2777e+006  4.2542e+005 183710 193937,193989,193963
 6.6000e+001 194262 -6.1234e+004 -3.0074e+006 -5.6564e+005 183420 194086,194164,194112
 6.6000e+001 194239 -2.3500e+004 -3.3713e+006 -1.3052e+006 183420 194086,194190,194164
 6.6000e+001 194216  7.6153e+005 -5.2815e+006  5.1589e+005 183420 194112,194164,194138
 6.6000e+001 194414 -7.3739e+005 -6.1369e+006 -8.8410e+005 183222 194287,194339,194313
 6.6000e+001 194391 -1.2899e+005 -3.2498e+006 -5.9756e+005 183222 194287,194365,194339
 6.6000e+001 194517 -8.8820e+005 -1.6240e+006 -2.6313e+005 183024 194439,194491,194465
 6.6000e+001 194718  2.1297e+006 -1.6027e+007  6.8334e+005 182734 194568,194620,194594
 6.6000e+001 194695 -1.3503e+006 -5.1022e+006 -4.0254e+006 182734 194542,194620,194568
 6.6000e+001 194672 -3.9765e+006 -2.4874e+006 -2.0723e+006 182734 194542,194646,194620
 6.6000e+001 194870 -6.7624e+005 -3.5306e+005  3.8688e+005 182444 194769,194821,194795
 6.6000e+001 194847 -6.8627e+005 -5.5722e+005  5.3252e+005 182444 194743,194821,194769
 6.6000e+001 195071 -2.4017e+005 -8.8218e+005  5.8202e+005 182154 194895,194947,194921
 6.6000e+001 195048 -2.6434e+005 -1.9312e+005  9.3113e+004 182154 194895,194999,194947
 6.6000e+001 195025 -2.1502e+005 -8.4688e+004  1.3116e+005 182154 194947,194999,194973
 6.6000e+001 195223 -3.4848e+005 -1.9837e+005 -1.6806e+005 181814 195096,195148,195122
 6.6000e+001 195200 -5.5606e+005 -1.6481e+006 -1.2834e+006 181814 195096,195174,195148
 6.6000e+001 195375 -4.6012e+003 -7.2525e+003 -4.2915e+003 181524 195248,195300,195274
 6.6000e+001 195352  3.0064e+003 -3.5797e+004 -6.1805e+002 181524 195248,195326,195300
 6.6000e+001 195527 -2.3214e+005 -2.0330e+004  3.5323e+005 181326 195426,195478,195452
 6.6000e+001 195504 -1.2637e+006 -8.1241e+005  1.0529e+006 181326 195400,195478,195426
 6.6000e+001 195679 -2.7469e+005 -8.8988e+006 -1.1026e+006 180936 195578,195630,195604
 6.6000e+001 195656 -3.0881e+005 -4.5891e+006 -7.5924e+005 180936 195552,195630,195578
 6.6000e+001 195831 -4.6069e+005 -3.7796e+005 -1.7927e+005 180646 195704,195756,195730
 6.6000e+001 195808 -7.3426e+005 -2.4702e+004  1.4783e+004 180646 195704,195782,195756
 6.6000e+001 196032 -1.7699e+005 -1.8490e+006  2.0191e+005 180306 195882,195960,195934
 6.6000e+001 196009 -1.2883e+005 -8.2725e+005 -1.2962e+005 180306 195856,195960,195882
 6.6000e+001 195986  1.3615e+003 -1.9020e+006  1.2575e+005 180306 195882,195934,195908
 6.6000e+001 196233 -5.6296e+005 -5.2776e+003 -9.8394e+005 179944 196057,196109,196083
 6.6000e+001 196210 -6.0762e+005 -4.8613e+005 -2.2296e+005 179944 196057,196135,196109
 6.6000e+001 196187 -1.4101e+006  2.9044e+006 -9.2743e+005 179944 196057,196161,196135
 6.6000e+001 196385 -6.6552e+005 -5.9893e+005 -6.6049e+005 179604 196258,196310,196284
 6.6000e+001 196362 -5.1910e+005 -1.9217e+005 -4.8391e+005 179604 196258,196336,196310
 6.6000e+001 196586 -9.0730e+005 -5.8054e+005 -7.3560e+005 179114 196410,196488,196436
 6.6000e+001 196563 -8.4633e+005 -1.6647e+006 -6.5283e+005 179114 196410,196514,196488
 6.6000e+001 196540 -4.3786e+003 -5.2705e+005 -5.0022e+004 179114 196436,196488,196462
 6.6000e+001 196738 -7.9909e+005 -1.6685e+006 -8.3823e+005 178674 196611,196663,196637
 6.6000e+001 196715  5.8052e+004 -3.8927e+006 -2.4570e+005 178674 196611,196689,196663
 6.6000e+001 196939  2.7347e+006 -9.8987e+006 -1.6008e+006 178334 196789,196867,196841
 6.6000e+001 196916 -2.1304e+006 -1.0967e+007  1.3467e+005 178334 196763,196867,196789
 6.6000e+001 196893 -5.4334e+006 -3.5059e+006 -6.8441e+006 178334 196789,196841,196815
 6.6000e+001 197091 -4.1225e+005 -3.6582e+006 -6.8507e+005 177930 196990,197042,197016
 6.6000e+001 197068 -3.9923e+005 -3.3968e+006 -3.0053e+005 177930 196964,197042,196990
 6.6000e+001 197194 -4.4251e+002 -1.3296e+005 -6.5747e+002 177732 197116,197168,197142
 6.6000e+001 197346 -3.6568e+005 -4.2375e+006 -1.9076e+005 177534 197219,197271,197245
 6.6000e+001 197323  1.1842e+005 -5.8593e+006  6.7737e+005 177534 197219,197297,197271
 6.6000e+001 197547 -1.0980e+006 -5.5659e+006 -2.2285e+006 177130 197397,197449,197423
 6.6000e+001 197524 -2.6966e+006 -5.5471e+006 -2.8121e+006 177130 197397,197475,197449
 6.6000e+001 197501 -2.1792e+006 -1.1501e+007 -4.0899e+006 177130 197371,197475,197397
 6.6000e+001 197748 -2.7599e+005 -4.5596e+006  1.5367e+005 176790 197598,197676,197624
 6.6000e+001 197725 -8.0474e+004 -3.9495e+006  3.1441e+005 176790 197572,197676,197598
 6.6000e+001 197702 -1.9589e+005 -4.2359e+006  1.1356e+005 176790 197624,197676,197650
 6.6000e+001 197900 -3.0600e+005 -2.5426e+006 -4.0844e+005 176300 197773,197825,197799
 6.6000e+001 197877  2.0637e+004 -4.1139e+006 -2.9767e+005 176300 197773,197851,197825
 6.6000e+001 198052 -6.9282e+005 -5.3321e+006 -9.0524e+005 176010 197925,197977,197951
 6.6000e+001 198029 -3.4995e+005 -4.5359e+006 -1.1610e+006 176010 197925,198003,197977
 6.6000e+001 198204 -1.2645e+006 -3.3641e+006 -1.5217e+006 175670 198103,198155,198129
 6.6000e+001 198181 -1.2716e+006 -1.1440e+006 -4.7747e+005 175670 198077,198155,198103
 6.6000e+001 198405 -1.1970e+005 -3.7263e+006 -5.9874e+005 175266 198255,198307,198281
 6.6000e+001 198382  2.1216e+004 -4.3858e+006 -1.1458e+006 175266 198229,198307,198255
 6.6000e+001 198359 -8.8268e+005 -3.5572e+006 -1.7715e+006 175266 198229,198333,198307
 6.6000e+001 198606 -7.7269e+003 -4.3576e+004 -8.3205e+003 174876 198430,198508,198482
 6.6000e+001 198583 -8.5012e+004 -5.5799e+004 -7.9693e+004 174876 198430,198534,198508
 6.6000e+001 198560 -1.3936e+004 -1.9010e+004 -1.6175e+004 174876 198430,198482,198456
 6.6000e+001 198758 -7.7443e+002 -8.1098e+002  1.0201e+002 174536 198657,198709,198683
 6.6000e+001 198735 -4.9022e+002  9.6013e+001 -1.2571e+002 174536 198631,198709,198657
 6.6000e+001 199008 -8.2460e+005 -4.8506e+006 -2.2085e+005 174132 198835,198913,198887
 6.6000e+001 198985 -7.7537e+005 -1.7848e+006 -9.1147e+004 174132 198809,198913,198835
 6.6000e+001 198962 -6.8996e+005 -1.9393e+006 -1.1764e+006 174132 198783,198913,198809
 6.6000e+001 198939 -1.2931e+005 -5.7982e+006 -3.3945e+005 174132 198835,198887,198861
 6.6000e+001 199160 -5.8799e+005 -6.5554e+005 -3.2203e+005 173842 199059,199111,199085
 6.6000e+001 199137 -7.8774e+005 -8.5377e+005 -5.2120e+005 173842 199033,199111,199059
 6.6000e+001 199361 -7.0254e+005 -1.6647e+006  5.8347e+005 173438 199237,199289,199263
 6.6000e+001 199338  6.5211e+004 -2.7688e+006  6.4095e+005 173438 199211,199289,199237
 6.6000e+001 199315  2.5465e+005 -4.9242e+006 -1.1630e+006 173438 199185,199289,199211
 6.6000e+001 199513 -6.0471e+005 -3.5708e+006 -8.1833e+005 173190 199386,199438,199412
 6.6000e+001 199490 -1.6126e+006 -4.4152e+006 -1.9941e+005 173190 199386,199464,199438
 6.6000e+001 199665 -1.1196e+006 -1.5975e+006  2.9256e+005 172750 199564,199616,199590
 6.6000e+001 199642 -1.5869e+006 -1.0553e+006 -1.3665e+004 172750 199538,199616,199564
 6.6000e+001 199817 -5.9806e+004 -1.5778e+006 -4.9204e+005 172524 199690,199742,199716
 6.6000e+001 199794 -6.3668e+004 -1.0234e+006 -5.5050e+005 172524 199690,199768,199742
 6.6000e+001 199969 -3.0552e+003 -4.9746e+006 -1.3181e+005 172348 199842,199894,199868
 6.6000e+001 199946 -7.8439e+005 -5.1730e+006 -8.2836e+004 172348 199842,199920,199894
 6.6000e+001 200121  4.0464e+004 -1.1335e+006 -2.6321e+005 172008 199994,200046,200020
 6.6000e+001 200098 -1.3248e+005 -4.4627e+005 -1.7342e+005 172008 199994,200072,200046
 6.6000e+001 200273 -1.6366e+006 -6.9820e+006 -2.5243e+006 171668 200172,200224,200198
 6.6000e+001 200250 -1.1341e+006 -6.2141e+006 -1.9124e+006 171668 200146,200224,200172
 6.6000e+001 200474  1.9145e+005 -3.9242e+006 -6.1848e+005 171264 200350,200402,200376
 6.6000e+001 200451 -1.7653e+005 -4.3300e+006 -8.5170e+005 171264 200324,200402,200350
 6.6000e+001 200428 -3.8153e+005 -2.9408e+006  8.5319e+005 171264 200298,200402,200324
 6.6000e+001 200626 -1.0526e+006 -4.4825e+006 -8.5191e+005 170832 200525,200577,200551
 6.6000e+001 200603 -2.7719e+005 -2.5915e+006 -2.4456e+005 170832 200499,200577,200525
 6.6000e+001 200827 -1.0669e+005 -8.1044e+005  1.8911e+005 170492 200677,200729,200703
 6.6000e+001 200804 -7.6286e+005 -3.8031e+005 -1.2694e+005 170492 200651,200729,200677
 6.6000e+001 200781 -8.8259e+004 -1.4866e+006 -6.7315e+005 170492 200651,200755,200729
 6.6000e+001 201077  1.4500e+005 -2.7367e+005  2.6030e+003 170088 200878,200956,200904
 6.6000e+001 201054 -2.0380e+005 -6.3319e+005 -3.4665e+005 170088 200852,200956,200878
 6.6000e+001 201031  7.0720e+004 -2.9946e+005  3.3896e+005 170088 200904,200956,200930
 6.6000e+001 201008  6.0462e+005 -1.9215e+006  5.5565e+005 170088 200852,200982,200956
 6.6000e+001 201278 -1.9693e+005 -2.7326e+006 -1.2405e+006 169798 201102,201154,201128
 6.6000e+001 201255 -1.0208e+006 -4.5470e+006 -1.9572e+006 169798 201102,201206,201154
 6.6000e+001 201232 -8.3617e+005 -6.8176e+005 -3.8384e+004 169798 201154,201206,201180
 6.6000e+001 201430 -4.0675e+005 -1.3244e+006 -3.2149e+005 169337 201303,201355,201329
 6.6000e+001 201407 -3.3512e+005 -9.4132e+005 -3.3778e+005 169337 201303,201381,201355
 6.6000e+001 201631 -6.2614e+005 -1.4005e+006 -2.9706e+004 168883 201481,201559,201507
 6.6000e+001 201608 -5.6587e+005 -1.2739e+006  5.2192e+004 168883 201455,201559,201481
 6.6000e+001 201585 -2.8912e+005 -5.4600e+005  2.2895e+005 168883 201507,201559,201533
 6.6000e+001 201832  2.0448e+005 -7.8288e+006  2.1123e+005 168479 201682,201734,201708
 6.6000e+001 201809 -1.7726e+006 -5.4621e+006 -1.8607e+006 168479 201656,201734,201682
 6.6000e+001 201786 -1.0978e+006 -2.7105e+006  7.6820e+005 168479 201656,201760,201734
 6.6000e+001 202033 -2.0819e+005 -2.4006e+006  1.6150e+005 167825 201883,201935,201909
 6.6000e+001 202010 -1.0961e+006 -3.2906e+006 -1.4374e+006 167825 201857,201935,201883
 6.6000e+001 201987  1.6629e+005 -8.5465e+006 -6.5418e+005 167825 201857,201961,201935
 6.6000e+001 202234 -2.0374e+006 -2.5420e+006 -1.6404e+006 167435 202058,202136,202084
 6.6000e+001 202211 -9.2970e+005 -4.2871e+006  3.8103e+005 167435 202058,202162,202136
 6.6000e+001 202188 -1.0949e+006 -1.1726e+006 -5.8746e+005 167435 202084,202136,202110
 6.6000e+001 202386  1.7033e+003 -8.0481e+005  1.7489e+005 167002 202285,202337,202311
 6.6000e+001 202363 -1.8822e+005 -2.4927e+005  1.7894e+005 167002 202259,202337,202285
 6.6000e+001 202538 -1.7938e+006 -3.5582e+006 -2.5041e+006 166662 202411,202463,202437
 6.6000e+001 202515 -1.3654e+006 -3.4481e+006 -2.8050e+006 166662 202411,202489,202463
 6.6000e+001 202690 -4.0050e+004 -1.5320e+006 -6.8532e+005 166322 202589,202641,202615
 6.6000e+001 202667 -8.3652e+004 -6.7969e+005 -7.5849e+004 166322 202563,202641,202589
 6.6000e+001 202891 -5.9949e+005 -3.7332e+005 -1.8993e+005 165918 202715,202767,202741
 6.6000e+001 202868 -7.0392e+005 -1.1109e+006 -8.2276e+005 165918 202715,202793,202767
 6.6000e+001 202845 -6.5299e+005 -1.9868e+006 -3.9740e+005 165918 202715,202819,202793
 6.6000e+001 203092  2.1684e+005 -2.2746e+006 -3.5450e+005 165628 202916,202968,202942
 6.6000e+001 203069 -4.8539e+005 -5.3436e+005 -4.2115e+005 165628 202916,202994,202968
 6.6000e+001 203046 -1.0021e+005 -6.6083e+005 -2.5753e+005 165628 202916,203020,202994
 6.6000e+001 203293 -4.3179e+006 -2.7495e+006 -3.0613e+006 165266 203143,203195,203169
 6.6000e+001 203270 -1.3503e+006 -5.9316e+006 -1.1023e+006 165266 203143,203221,203195
 6.6000e+001 203247 -1.0518e+006 -4.8060e+006  9.9009e+003 165266 203117,203221,203143
 6.6000e+001 203445 -2.3003e+005 -5.8271e+005  2.2037e+005 164826 203318,203370,203344
 6.6000e+001 203422 -4.3249e+004 -3.7230e+005 -2.7866e+004 164826 203318,203396,203370
 6.6000e+001 203597 -2.5552e+005 -2.5395e+006 -6.0217e+004 164386 203470,203522,203496
 6.6000e+001 203574 -4.9298e+005 -2.7365e+006 -6.1043e+005 164386 203470,203548,203522
 6.6000e+001 203798 -2.3500e+004 -1.5317e+006  1.6568e+004 163996 203622,203674,203648
 6.6000e+001 203775 -7.6876e+005  5.0368e+003 -1.9985e+005 163996 203622,203726,203674
 6.6000e+001 203752 -9.1441e+005 -4.6122e+005 -1.5254e+004 163996 203674,203726,203700
 6.6000e+001 203901 -4.7750e+005 -2.0655e+006 -4.3491e+005 163770 203823,203875,203849
 6.6000e+001 204053 -1.8256e+006 -3.4871e+006 -1.4607e+006 163474 203952,204004,203978
 6.6000e+001 204030 -1.6351e+006 -3.2332e+006 -1.0890e+006 163474 203926,204004,203952
 6.6000e+001 204205  2.5510e+005 -1.3087e+006 -6.8156e+005 163034 204104,204156,204130
 6.6000e+001 204182 -1.5220e+005 -8.2378e+005 -8.7599e+004 163034 204078,204156,204104
 6.6000e+001 204357 -1.1442e+005 -1.2484e+006  2.8478e+004 162624 204256,204308,204282
 6.6000e+001 204334  1.1444e+005 -1.0052e+005  4.4042e+004 162624 204230,204308,204256
 6.6000e+001 204509 -7.6174e+004 -1.9243e+004  3.8859e+004 162200 204382,204434,204408
 6.6000e+001 204486 -6.4024e+004 -6.0611e+004  7.6585e+004 162200 204382,204460,204434
 6.6000e+001 204710 -1.7818e+005 -2.6217e+004  9.6764e+004 161810 204560,204638,204586
 6.6000e+001 204687 -5.6171e+003 -5.8505e+004  1.7831e+004 161810 204534,204638,204560
 6.6000e+001 204664 -2.0050e+005 -2.5342e+004  6.9782e+004 161810 204586,204638,204612
 6.6000e+001 204862 -1.2187e+006 -1.6013e+006 -6.3166e+005 161406 204735,204787,204761
 6.6000e+001 204839 -2.6774e+006 -1.0951e+004 -1.0960e+006 161406 204735,204813,204787
 6.6000e+001 205014  9.6459e-002  2.5486e-001  1.5679e-001 161180 204887,204939,204913
 6.6000e+001 204991 -2.0051e-001 -5.2979e-001 -3.2593e-001 161180 204887,204965,204939
 6.6000e+001 205215 -1.0211e+006 -1.9620e+006 -1.8698e+006 160726 205039,205091,205065
 6.6000e+001 205192 -1.3316e+006 -3.4750e+006 -1.0812e+006 160726 205039,205143,205091
 6.6000e+001 205169 -1.3147e+006 -1.5140e+006 -1.0317e+006 160726 205091,205143,205117
 6.6000e+001 205416 -3.0623e+005 -1.3964e+005  2.2115e+005 160272 205292,205344,205318
 6.6000e+001 205393 -3.3285e+005 -3.0126e+004  2.0276e+005 160272 205240,205344,205292
 6.6000e+001 205370 -2.9497e+005 -2.7885e+005 -2.9531e+005 160272 205240,205292,205266
 6.6000e+001 205568 -2.7785e+000 -3.8017e-001 -1.0278e+000 159932 205441,205493,205467
 6.6000e+001 205545  7.5229e-001  1.0293e-001  2.7827e-001 159932 205441,205519,205493
 6.6000e+001 205720 -2.1669e+004 -2.7038e+004  2.6956e+004 159542 205593,205645,205619
 6.6000e+001 205697 -5.3266e+004 -5.9556e+004  5.1082e+004 159542 205593,205671,205645
 6.6000e+001 205872 -1.5471e+000 -2.2230e-003 -5.8644e-002 159252 205745,205797,205771
 6.6000e+001 205849  1.2940e+000  1.8593e-003  4.9051e-002 159252 205745,205823,205797
 6.6000e+001 206024 -6.6048e+005 -8.8588e+004 -8.2809e+004 159004 205923,205975,205949
 6.6000e+001 206001 -3.5688e+005 -1.9521e+005  2.9863e+005 159004 205897,205975,205923
 6.6000e+001 206127 -5.0697e+006 -4.2869e+006  4.8785e+002 158364 206049,206101,206075
 6.6000e+001 206328 -5.6752e+004 -1.8369e+004  3.8887e+004 157960 206178,206256,206204
 6.6000e+001 206305 -3.4861e+004 -3.0842e+004  2.4278e+004 157960 206152,206256,206178
 6.6000e+001 206282 -6.1067e+004 -2.0951e+004  3.6049e+004 157960 206204,206256,206230
 6.6000e+001 206529 -1.7967e+006 -7.8341e+006  1.2188e+006 157648 206405,206457,206431
 6.6000e+001 206506 -3.8623e+006 -3.9916e+006  6.1733e+005 157648 206379,206457,206405
 6.6000e+001 206483 -3.2215e+006 -3.1404e+006  1.5335e+006 157648 206353,206457,206379
 6.6000e+001 206730 -8.9280e+005 -2.7390e+005  5.1204e+005 157208 206554,206606,206580
 6.6000e+001 206707 -4.1744e+005 -1.3682e+005  2.2739e+005 157208 206554,206632,206606
 6.6000e+001 206684 -7.8435e+005 -2.3800e+005  3.1814e+005 157208 206554,206658,206632
 6.6000e+001 206882 -5.2097e-001 -1.1421e+000 -7.7135e-001 157010 206755,206807,206781
 6.6000e+001 206859  2.9999e-001  6.5764e-001  4.4417e-001 157010 206755,206833,206807
 6.6000e+001 207034 -5.8540e+001 -1.9145e+002 -3.8605e+001 156620 206907,206959,206933
 6.6000e+001 207011 -2.8479e+001 -1.4028e+002 -6.1524e+001 156620 206907,206985,206959
 6.6000e+001 207186 -1.5526e+003 -1.3044e+006  4.9260e+004 156330 207085,207137,207111
 6.6000e+001 207163 -8.1898e+004 -1.3820e+006 -5.5949e+005 156330 207059,207137,207085
 6.6000e+001 207387 -8.6537e+005 -2.6982e+006  1.6756e+005 155890 207211,207289,207237
 6.6000e+001 207364 -1.7837e+006 -3.0324e+006 -1.5258e+006 155890 207211,207315,207289
 6.6000e+001 207341 -6.6379e+005 -2.2110e+006  4.8113e+005 155890 207237,207289,207263
 6.6000e+001 207588 -5.2210e+005 -2.4264e+007  8.6967e+006 155436 207438,207490,207464
 6.6000e+001 207565 -1.5129e+006 -1.7488e+007 -1.1627e+006 155436 207412,207490,207438
 6.6000e+001 207542 -2.8084e+006 -1.0005e+007 -1.4435e+006 155436 207412,207516,207490
 6.6000e+001 207789  2.0435e+006 -3.6152e+007 -2.3490e+006 155260 207639,207691,207665
 6.6000e+001 207766 -4.3262e+006 -1.1964e+007  5.1936e+006 155260 207613,207691,207639
 6.6000e+001 207743 -1.0423e+006 -9.1621e+006 -2.4686e+004 155260 207613,207717,207691
 6.6000e+001 207990 -6.2407e-003  6.3695e-001 -1.4867e-001 154920 207840,207918,207892
 6.6000e+001 207967 -1.4094e-002 -5.9734e-001  9.1753e-002 154920 207814,207918,207840
 6.6000e+001 207944  4.7398e-002  1.4485e-001  8.2858e-002 154920 207840,207892,207866
 6.6000e+001 208191 -5.3418e+004 -1.1517e+005  5.3967e+004 154630 208015,208093,208041
 6.6000e+001 208168 -1.3332e+004 -6.7489e+004  1.1206e+004 154630 208015,208119,208093
 6.6000e+001 208145 -3.3107e+003 -5.4392e+003 -4.5078e+003 154630 208041,208093,208067
 6.6000e+001 208343  1.9728e+003 -4.8857e+001  1.1366e+003 154240 208216,208268,208242
 6.6000e+001 208320  2.2914e+003  1.1614e+003  1.7437e+003 154240 208216,208294,208268
 6.6000e+001 208495  9.9950e+005 -9.8024e+006 -1.1950e+006 153950 208394,208446,208420
 6.6000e+001 208472 -1.0423e+006 -5.2015e+006  1.9921e+006 153950 208368,208446,208394
 6.6000e+001 208647 -2.0254e+006 -2.3980e+006  4.2678e+006 153603 208520,208572,208546
 6.6000e+001 208624 -2.2567e+006 -2.7987e+006 -1.6261e+006 153603 208520,208598,208572
 6.6000e+001 208848 -8.9498e+005  1.1849e+003  3.4270e+005 153149 208698,208776,208724
 6.6000e+001 208825 -3.7967e+005 -1.8489e+005  2.3621e+005 153149 208672,208776,208698
 6.6000e+001 208802 -5.4674e+005 -3.3918e+005  4.3067e+005 153149 208724,208776,208750
 6.6000e+001 209000 -8.1377e+005 -2.6409e+006  9.5581e+004 152859 208873,208925,208899
 6.6000e+001 208977  2.1142e+005 -7.8717e+006  9.1514e+005 152859 208873,208951,208925
 6.6000e+001 209152  4.4330e+005 -4.6441e+006  4.5437e+005 152569 209051,209103,209077
 6.6000e+001 209129  7.7947e+005 -6.8704e+006 -7.6686e+005 152569 209025,209103,209051
 6.6000e+001 209304 -6.4902e+002 -7.0870e+002 -3.6801e+002 152065 209177,209229,209203
 6.6000e+001 209281 -9.0255e+002  2.6972e+002 -6.5570e+002 152065 209177,209255,209229
 6.6000e+001 209456 -1.4898e+006 -3.4080e+006 -6.0672e+005 151775 209355,209407,209381
 6.6000e+001 209433 -1.1692e+006 -1.0117e+007 -9.5106e+005 151775 209329,209407,209355
 6.6000e+001 209608 -8.4504e+005 -6.9908e+006 -1.5807e+006 151371 209481,209533,209507
 6.6000e+001 209585  9.7653e+005 -1.1822e+007 -1.8419e+005 151371 209481,209559,209533
 6.6000e+001 209760 -9.4688e+004 -1.7212e+004  4.8434e+003 150981 209659,209711,209685
 6.6000e+001 209737 -9.0108e+004 -1.8142e+004  8.2487e+002 150981 209633,209711,209659
 6.6000e+001 209912  2.6298e+006 -3.6854e+007 -3.1876e+006 150619 209811,209863,209837
 6.6000e+001 209889 -3.3344e+006 -1.5809e+007  4.0416e+006 150619 209785,209863,209811
 6.6000e+001 210064 -1.0985e+005 -2.5920e+005  1.6569e+005 150279 209937,209989,209963
 6.6000e+001 210041 -1.0431e+005 -2.7102e+005  1.6075e+005 150279 209937,210015,209989
 6.6000e+001 210265 -2.5843e+006 -8.5210e+006 -2.6163e+005 149989 210115,210167,210141
 6.6000e+001 210242 -2.6267e+005 -8.8693e+006 -9.2481e+005 149989 210115,210193,210167
 6.6000e+001 210219 -3.2637e+005 -9.9991e+006 -1.0005e+006 149989 210089,210193,210115
 6.6000e+001 210417 -1.5572e+005 -7.3212e+004  1.4208e+005 149599 210316,210368,210342
 6.6000e+001 210394  7.7301e+004 -4.8314e+005  1.5254e+005 149599 210290,210368,210316
 6.6000e+001 210618 -2.1227e+006 -1.5397e+007  4.1080e+006 149095 210468,210520,210494
 6.6000e+001 210595 -3.0882e+006 -1.5589e+007  3.5403e+006 149095 210442,210520,210468
 6.6000e+001 210572 -1.2702e+006 -1.9443e+007  3.4683e+006 149095 210442,210546,210520
 6.6000e+001 210819 -8.9631e+001  3.5595e+002 -4.6119e+001 148748 210695,210747,210721
 6.6000e+001 210796 -1.2560e+002 -6.7872e+001  4.7766e+001 148748 210669,210747,210695
 6.6000e+001 210773 -9.5364e+001  3.7078e+002  3.5195e+002 148748 210643,210747,210669
 6.6000e+001 210971  3.3367e+002 -2.5052e+002 -5.0467e+002 148408 210870,210922,210896
 6.6000e+001 210948  8.6939e+002 -4.5317e+002  8.2328e-001 148408 210844,210922,210870
 6.6000e+001 211123 -4.6272e+005 -4.2152e+006  8.7432e+005 148118 210996,211048,211022
 6.6000e+001 211100 -2.0432e+006 -4.5153e+006  2.6042e+006 148118 210996,211074,211048
 6.6000e+001 211275 -1.0634e+006 -3.4821e+006  1.4963e+006 147778 211148,211200,211174
 6.6000e+001 211252 -2.1789e+006 -6.7714e+006  3.8533e+006 147778 211148,211226,211200
 6.6000e+001 211427 -9.0728e+005 -1.5149e+006  7.2506e+005 147324 211326,211378,211352
 6.6000e+001 211404 -1.9879e+005 -1.9435e+006  7.5046e+005 147324 211300,211378,211326
 6.6000e+001 211628 -8.0105e+005 -8.1071e+005  3.2163e+005 147012 211452,211504,211478
 6.6000e+001 211605 -7.6816e+005  1.3937e+005  4.7070e+005 147012 211452,211556,211504
 6.6000e+001 211582 -5.5392e+005 -8.0459e+005  1.0979e+006 147012 211504,211556,211530
 6.6000e+001 211829 -1.9040e+006 -2.7809e+006  9.4359e+005 146636 211679,211757,211731
 6.6000e+001 211806  1.0359e+006 -4.5332e+006  1.0227e+006 146636 211653,211757,211679
 6.6000e+001 211783 -2.5945e+005 -4.2315e+006  3.2143e+006 146636 211679,211731,211705
 6.6000e+001 211981  3.1807e+002  2.5150e+002  7.0685e+002 146246 211880,211932,211906
 6.6000e+001 211958 -8.1077e+002 -4.9869e+002 -1.4781e+002 146246 211854,211932,211880
 6.6000e+001 212133  7.1775e+002 -1.0062e+003 -4.9381e+002 145956 212006,212058,212032
 6.6000e+001 212110 -1.6669e+003 -2.9926e+002 -5.1951e+002 145956 212006,212084,212058
 6.6000e+001 212285 -6.0710e+002 -1.4641e+002  1.3379e+002 145544 212184,212236,212210
 6.6000e+001 212262 -6.8115e+002  4.4858e+001  4.8287e+001 145544 212158,212236,212184
 6.6000e+001 212486 -1.4611e+006 -1.6135e+007  4.7731e+006 144990 212362,212414,212388
 6.6000e+001 212463  2.4063e+005 -1.4105e+007  6.0629e+006 144990 212310,212414,212362
 6.6000e+001 212440 -4.4879e+006 -2.7534e+006  2.8271e+006 144990 212310,212362,212336
 6.6000e+001 212638 -9.0913e+004 -3.0220e+005  9.2879e+004 144600 212537,212589,212563
 6.6000e+001 212615 -8.8488e+004 -2.6592e+005  1.2308e+005 144600 212511,212589,212537
 6.6000e+001 212839 -5.6181e+005 -2.4220e+006  9.2314e+005 144210 212689,212741,212715
 6.6000e+001 212816 -5.3484e+005 -2.3421e+006  8.1994e+005 144210 212663,212741,212689
 6.6000e+001 212793 -6.0546e+005 -2.7389e+006  1.0762e+006 144210 212663,212767,212741
 6.6000e+001 212991 -2.3794e+002  1.1017e+002  6.6932e-001 143920 212890,212942,212916
 6.6000e+001 212968 -5.1557e+002 -3.4400e+002 -2.0106e+002 143920 212864,212942,212890
 6.6000e+001 213143  9.1701e+002 -4.4151e+002  4.6065e+002 143480 213016,213068,213042
 6.6000e+001 213120 -5.4843e+001 -1.2758e+002  7.9900e+001 143480 213016,213094,213068
 6.6000e+001 213295 -3.2710e+005 -2.9162e+006  1.1854e+006 142990 213194,213246,213220
 6.6000e+001 213272 -1.3390e+004 -1.2694e+006  9.6238e+005 142990 213168,213246,213194
 6.6000e+001 213447  1.3506e+005 -2.6527e+006  1.1697e+006 142600 213320,213372,213346
 6.6000e+001 213424 -4.7184e+005 -2.3335e+006  8.8939e+005 142600 213320,213398,213372
 6.6000e+001 213599 -1.9187e+004 -2.8378e+005  3.0575e+004 142260 213472,213524,213498
 6.6000e+001 213576 -9.3406e+004 -3.3686e+005  2.0484e+005 142260 213472,213550,213524
 6.6000e+001 213751 -1.8833e+005 -5.9349e+005 -2.8913e+005 141870 213624,213676,213650
 6.6000e+001 213728 -4.5885e+005 -5.3473e+005 -4.7021e+005 141870 213624,213702,213676
 6.6000e+001 213903 -7.6718e+005 -8.3690e+005 -8.1097e+005 141530 213776,213828,213802
 6.6000e+001 213880 -2.1624e+005 -1.0042e+006 -4.1480e+005 141530 213776,213854,213828
 6.6000e+001 214055 -1.7620e+006 -4.2850e+004  2.0750e+005 141218 213928,213980,213954
 6.6000e+001 214032 -1.0761e+006 -2.2099e+005  5.6778e+004 141218 213928,214006,213980
 6.6000e+001 214207 -1.1756e+003  1.1990e+002 -1.0592e+003 140928 214080,214132,214106
 6.6000e+001 214184 -2.9543e+002 -5.4625e+002  2.9404e+003 140928 214080,214158,214132
 6.6000e+001 214359 -2.7211e+004 -1.3464e+005  2.8040e+003 140538 214232,214284,214258
 6.6000e+001 214336 -7.6001e+004 -4.8912e+005  2.7074e+005 140538 214232,214310,214284
 6.6000e+001 214560 -4.2661e+005 -4.8628e+006  1.2463e+006 140248 214384,214462,214410
 6.6000e+001 214537 -8.8656e+004 -2.8718e+006  8.0538e+005 140248 214384,214488,214462
 6.6000e+001 214514 -3.9522e+005 -2.7767e+006 -3.7868e+004 140248 214410,214462,214436
 6.6000e+001 214712 -6.4808e+005 -1.6269e+006  4.1183e+005 140000 214611,214663,214637
 6.6000e+001 214689 -3.6487e+005 -1.5885e+006  7.4303e+005 140000 214585,214663,214611
 6.6000e+001 214913 -8.1324e+004 -8.9987e+005 -3.2655e+005 139596 214737,214815,214763
 6.6000e+001 214890  1.3942e+004 -3.0668e+005 -1.9163e+005 139596 214737,214841,214815
 6.6000e+001 214867  4.9193e+005 -3.2185e+006  2.6289e+005 139596 214763,214815,214789
 6.6000e+001 215016  1.2542e+003 -3.7275e+002  7.0736e+002 139420 214938,214990,214964
 6.6000e+001 215168 -4.4796e+006 -1.0571e+007  6.9787e+006 139130 215067,215119,215093
 6.6000e+001 215145 -1.7187e+006 -1.2351e+007  2.8859e+006 139130 215041,215119,215067
 6.6000e+001 215320 -2.2410e+006 -6.2378e+006  3.9125e+006 138790 215219,215271,215245
 6.6000e+001 215297 -2.0902e+006 -1.0794e+007  5.4600e+006 138790 215193,215271,215219
 6.6000e+001 215472 -1.5179e+004 -1.2071e+005  3.8777e+004 138514 215345,215397,215371
 6.6000e+001 215449  2.1021e+004 -1.2408e+005  4.2226e+004 138514 215345,215423,215397
 6.6000e+001 215624 -2.5360e+005 -7.9940e+006  2.1714e+006 138174 215497,215549,215523
 6.6000e+001 215601 -3.6725e+005 -6.0009e+006  1.8502e+006 138174 215497,215575,215549
 6.6000e+001 215776 -3.4092e+002 -5.4647e+002 -2.9548e+002 137734 215649,215701,215675
 6.6000e+001 215753  5.4136e+001 -4.5500e+002 -3.0613e+002 137734 215649,215727,215701
 6.6000e+001 215977  8.0690e+005 -1.4562e+007  2.6641e+006 137344 215801,215879,215827
 6.6000e+001 215954 -1.8306e+006 -5.5261e+006 -2.7650e+006 137344 215801,215905,215879
 6.6000e+001 215931  4.3380e+005 -1.9410e+007 -1.9597e+006 137344 215827,215879,215853
 6.6000e+001 216129 -6.5186e+005 -2.3473e+006  5.1378e+005 136940 216028,216080,216054
 6.6000e+001 216106 -5.3348e+005 -3.7579e+006  1.3094e+006 136940 216002,216080,216028
 6.6000e+001 216330 -2.6473e+006 -8.0791e+006  1.9271e+006 136600 216180,216232,216206
 6.6000e+001 216307 -6.9027e+005 -7.6564e+006  2.7249e+006 136600 216154,216232,216180
 6.6000e+001 216284 -2.4236e+006 -3.5626e+006  4.4560e+005 136600 216154,216258,216232
 6.6000e+001 216482  2.9933e+004 -4.8954e+006  1.3472e+006 136260 216381,216433,216407
 6.6000e+001 216459 -1.9273e+005 -3.9794e+006  1.3580e+006 136260 216355,216433,216381
 6.6000e+001 216634 -6.5551e+005 -1.4915e+006  8.3145e+005 135970 216533,216585,216559
 6.6000e+001 216611 -3.3521e+005 -2.8170e+006  1.2511e+006 135970 216507,216585,216533
 6.6000e+001 216835 -1.5110e+005 -1.7058e+006 -1.1680e+005 135608 216685,216763,216711
 6.6000e+001 216812 -2.4685e+005 -1.5699e+006  1.0326e+005 135608 216659,216763,216685
 6.6000e+001 216789 -5.3164e+004 -1.8047e+006  1.6950e+004 135608 216711,216763,216737
 6.6000e+001 217036 -8.7574e+005 -1.4924e+006  6.7504e+005 135312 216912,216964,216938
 6.6000e+001 217013 -7.0759e+005 -3.5826e+006  1.8638e+006 135312 216886,216964,216912
 6.6000e+001 216990  4.3053e+005 -6.3120e+006  1.2790e+006 135312 216860,216964,216886
 6.6000e+001 217237 -6.9784e+004 -5.4479e+005  1.9718e+005 134908 217061,217139,217113
 6.6000e+001 217214 -1.4065e+005 -5.7816e+005  2.6752e+005 134908 217061,217165,217139
 6.6000e+001 217191 -6.3381e+004 -7.5036e+005  2.8224e+005 134908 217061,217113,217087
 6.6000e+001 217438 -1.0015e+006 -1.8233e+007 -6.4006e+005 134568 217288,217366,217314
 6.6000e+001 217415  5.8823e+005 -2.4202e+007 -1.6538e+006 134568 217262,217366,217288
 6.6000e+001 217392 -7.8665e+005 -2.3453e+007 -2.2330e+006 134568 217314,217366,217340
 6.6000e+001 217590  6.0084e+003 -1.2390e+005  3.4089e+004 134106 217463,217515,217489
 6.6000e+001 217567 -2.0031e+004 -1.4676e+005  6.2245e+004 134106 217463,217541,217515
 6.6000e+001 217791 -1.9164e+006 -1.7757e+007 -6.6722e+006 133816 217641,217693,217667
 6.6000e+001 217768  5.4651e+006 -2.0306e+007 -5.5802e+005 133816 217641,217719,217693
 6.6000e+001 217745 -1.5900e+007 -8.4962e+006  1.1623e+007 133816 217615,217719,217641
 6.6000e+001 217992 -4.7071e+006 -4.8323e+006  4.9356e+006 133355 217842,217920,217894
 6.6000e+001 217969 -5.6345e+005 -1.0497e+007  3.0196e+006 133355 217816,217920,217842
 6.6000e+001 217946 -1.4502e+006 -2.7554e+006  1.4164e+006 133355 217842,217894,217868
 6.6000e+001 218193 -2.5417e+005 -7.5568e+006  9.3202e+005 132851 218017,218095,218069
 6.6000e+001 218170 -4.8603e+006 -8.1304e+006  6.9498e+006 132851 218017,218121,218095
 6.6000e+001 218147 -1.5736e+006 -2.8600e+006 -4.9532e+005 132851 218017,218069,218043
 6.6000e+001 218345 -3.2638e+004 -1.6575e+005  5.2987e+004 132511 218244,218296,218270
 6.6000e+001 218322 -2.1505e+004 -4.2837e+005  1.1265e+005 132511 218218,218296,218244
 6.6000e+001 218497  2.4183e+006 -2.8123e+007 -1.2688e+005 132235 218396,218448,218422
 6.6000e+001 218474 -7.0044e+004 -1.0005e+007  7.8599e+005 132235 218370,218448,218396
 6.6000e+001 218698  1.2948e+005 -1.1580e+007 -2.9430e+006 131945 218574,218626,218600
 6.6000e+001 218675 -1.2826e+006 -2.1769e+007 -6.2608e+005 131945 218522,218626,218574
 6.6000e+001 218652 -2.9113e+006 -9.4456e+006 -3.3332e+006 131945 218522,218574,218548
 6.6000e+001 218850 -4.9797e+005 -1.7486e+007  7.4699e+005 131655 218723,218775,218749
 6.6000e+001 218827  3.4804e+005 -1.2186e+007  2.9723e+005 131655 218723,218801,218775
 6.6000e+001 218953 -2.0773e+002 -8.8983e+001 -1.8219e+001 131215 218875,218927,218901
 6.6000e+001 219105 -5.7020e+004 -1.4093e+006 -2.2389e+005 130875 218978,219030,219004
 6.6000e+001 219082 -7.3319e+004 -5.2384e+005 -4.3257e+004 130875 218978,219056,219030
 6.6000e+001 219306 -2.2354e+005 -1.0805e+006  4.2736e+004 130429 219156,219234,219208
 6.6000e+001 219283 -2.9211e+005 -5.8415e+005  1.4096e+005 130429 219130,219234,219156
 6.6000e+001 219260 -9.0900e+005 -1.2958e+006  6.9728e+005 130429 219156,219208,219182
 6.6000e+001 219507 -2.1721e+005 -7.7153e+005  2.8408e+005 130025 219383,219435,219409
 6.6000e+001 219484 -1.8786e+005 -1.0710e+006  4.1982e+005 130025 219331,219435,219383
 6.6000e+001 219461 -2.3022e+005 -5.4904e+005  1.8965e+005 130025 219331,219383,219357
 6.6000e+001 219659 -2.4919e+005 -2.1200e+006 -3.2649e+004 129685 219558,219610,219584
 6.6000e+001 219636  3.3921e+004 -2.2546e+006 -3.9738e+005 129685 219532,219610,219558
 6.6000e+001 219860 -1.1816e+005 -7.3232e+005  4.1943e+005 129395 219710,219788,219762
 6.6000e+001 219837 -1.9474e+005 -8.7419e+005  3.6257e+005 129395 219684,219788,219710
 6.6000e+001 219814  4.1163e+004 -1.1465e+006  1.1843e+005 129395 219710,219762,219736
 6.6000e+001 220061  2.8816e+004 -3.4669e+005  9.2140e+004 128991 219937,219989,219963
 6.6000e+001 220038  2.0678e+004 -4.7918e+005  6.4794e+004 128991 219885,219989,219937
 6.6000e+001 220015 -1.8184e+004 -6.8672e+005  1.3593e+005 128991 219885,219937,219911
 6.6000e+001 220262 -1.1325e+005 -1.6145e+005  2.3941e+004 128701 220086,220164,220112
 6.6000e+001 220239 -2.1551e+004 -4.4101e+005  1.4289e+005 128701 220086,220190,220164
 6.6000e+001 220216 -5.7211e+003 -2.0725e+005 -7.2669e+004 128701 220112,220164,220138
 6.6000e+001 220463 -4.1482e+006 -9.4178e+006  4.6146e+006 128297 220339,220391,220365
 6.6000e+001 220440 -1.4426e+005 -1.3046e+007  4.0003e+006 128297 220313,220391,220339
 6.6000e+001 220417 -1.4140e+006 -1.9779e+007 -9.5768e+006 128297 220287,220391,220313
 6.6000e+001 220615  1.2957e+004 -7.6964e+005 -2.9278e+005 128007 220488,220540,220514
 6.6000e+001 220592  2.0958e+005 -2.7565e+006 -8.4333e+004 128007 220488,220566,220540
 6.6000e+001 220767  6.5167e+004 -4.8418e+006 -1.5107e+004 127567 220640,220692,220666
 6.6000e+001 220744 -4.5046e+005 -1.5567e+006 -2.0156e+005 127567 220640,220718,220692
 6.6000e+001 220919 -1.7125e+006 -1.5701e+007 -2.4311e+006 127163 220792,220844,220818
 6.6000e+001 220896  1.5844e+005 -1.9430e+007  2.5935e+006 127163 220792,220870,220844
 6.6000e+001 221071 -2.6196e+006 -5.0664e+006  3.0389e+006 126915 220970,221022,220996
 6.6000e+001 221048 -2.7254e+006 -5.1081e+006  2.9959e+006 126915 220944,221022,220970
 6.6000e+001 221272 -1.7982e+006 -4.1127e+006  3.4434e+006 126461 221122,221174,221148
 6.6000e+001 221249 -6.0333e+005 -5.0114e+006 -9.4529e+004 126461 221122,221200,221174
 6.6000e+001 221226 -3.8807e+005 -4.5011e+006  1.9508e+005 126461 221096,221200,221122
 6.6000e+001 221375  2.1477e+000 -6.5484e+000  1.8706e+000 126213 221297,221349,221323
 6.6000e+001 221478  1.2897e-312 -4.4928e-312 -1.5879e-313 125766 221400,221452,221426
 6.6000e+001 221679 -3.1943e+004 -2.4075e+005  5.1318e+004 125212 221503,221555,221529
 6.6000e+001 221656 -2.3041e+004 -2.7700e+005  1.6817e+004 125212 221503,221581,221555
 6.6000e+001 221633  3.5073e+004 -8.8977e+005  3.1912e+005 125212 221503,221607,221581
 6.6000e+001 221929 -2.9427e+003 -3.2622e+002 -1.2555e+003 124872 221782,221834,221808
 6.6000e+001 221906 -8.0658e+003  3.9275e+002  3.9483e+003 124872 221756,221834,221782
 6.6000e+001 221883 -8.8992e+003 -9.4375e+003  5.4486e+003 124872 221704,221834,221756
 6.6000e+001 221860 -3.2566e+004 -2.5230e+004  3.5050e+004 124872 221704,221756,221730
 6.6000e+001 222130 -8.2698e+005 -7.8838e+006  3.0298e+004 124582 221980,222058,222006
 6.6000e+001 222107 -1.8680e+006 -7.5813e+006  2.9789e+005 124582 221954,222058,221980
 6.6000e+001 222084 -2.5261e+006 -7.4988e+006 -6.2802e+005 124582 222006,222058,222032
 6.6000e+001 222282 -1.8027e+006 -6.9643e+006 -2.2489e+006 124192 222181,222233,222207
 6.6000e+001 222259 -1.1214e+006 -5.4877e+006 -8.8039e+005 124192 222155,222233,222181
 6.6000e+001 222483 -3.0560e+005 -1.5206e+006 -1.0151e+006 123702 222333,222385,222359
 6.6000e+001 222460 -1.2564e+005 -7.5871e+005 -2.0190e+005 123702 222333,222411,222385
 6.6000e+001 222437 -1.6244e+005 -6.6704e+005 -2.8851e+005 123702 222307,222411,222333
 6.6000e+001 222635 -9.5525e+004 -2.2820e+005  1.4177e+005 123312 222508,222560,222534
 6.6000e+001 222612 -9.5583e+004 -2.2954e+005  1.4198e+005 123312 222508,222586,222560
 6.6000e+001 222787 -7.8292e+003 -1.7621e+005 -2.6652e+004 122858 222686,222738,222712
 6.6000e+001 222764 -6.7833e+003 -1.5939e+005 -3.1753e+004 122858 222660,222738,222686
 6.6000e+001 222939 -1.3841e+004 -3.4747e+005 -1.5611e+003 122568 222812,222864,222838
 6.6000e+001 222916  2.2018e+004 -2.0447e+005 -8.4380e+003 122568 222812,222890,222864
 6.6000e+001 223091 -6.4396e+005 -8.0940e+005 -3.4064e+004 122392 222964,223016,222990
 6.6000e+001 223068 -3.0614e+005 -5.3831e+005 -2.8979e+005 122392 222964,223042,223016
 6.6000e+001 223292 -1.0615e+006 -2.0641e+006 -1.3067e+005 121852 223142,223220,223194
 6.6000e+001 223269 -4.0856e+006 -6.0857e+005  2.9543e+005 121852 223116,223220,223142
 6.6000e+001 223246 -5.1239e+006 -2.0606e+006 -4.1772e+006 121852 223142,223194,223168
 6.6000e+001 223493 -6.1879e+005 -3.3441e+005  4.7848e+005 121406 223343,223395,223369
 6.6000e+001 223470 -6.7777e+005 -3.3683e+005  4.7387e+005 121406 223343,223421,223395
 6.6000e+001 223447 -2.6166e+005 -4.1936e+005  2.6701e+005 121406 223317,223421,223343
 6.6000e+001 223645  3.3532e+005 -1.1427e+007  1.7816e+006 121002 223544,223596,223570
 6.6000e+001 223622 -1.1832e+006 -7.5120e+006  1.8651e+006 121002 223518,223596,223544
 6.6000e+001 223846 -9.6077e+002 -9.6134e+003 -1.9625e+003 120662 223670,223748,223696
 6.6000e+001 223823 -7.5170e+002 -6.9718e+003 -1.1541e+003 120662 223670,223774,223748
 6.6000e+001 223800 -2.0988e+002 -4.1980e+004  1.2001e+004 120662 223696,223748,223722
 6.6000e+001 224047 -6.9624e+003 -2.9138e+004  5.1480e+003 120222 223897,223949,223923
 6.6000e+001 224024  1.6512e+003 -2.5841e+004  7.5559e+003 120222 223871,223949,223897
 6.6000e+001 224001 -4.6459e+003 -2.5143e+003 -1.8906e+003 120222 223871,223975,223949
 6.6000e+001 224248  1.9194e+004 -1.3956e+004  7.6882e+003 119875 224124,224176,224150
 6.6000e+001 224225  2.0131e+003 -2.5005e+004 -2.5824e+003 119875 224098,224176,224124
 6.6000e+001 224202  1.5285e+004 -1.0979e+004  9.6514e+003 119875 224072,224176,224098
 6.6000e+001 224449 -5.6694e+002 -4.1817e+004  1.4572e+004 119677 224325,224377,224351
 6.6000e+001 224426  3.7042e+003 -2.4728e+004  1.0791e+004 119677 224299,224377,224325
 6.6000e+001 224403 -2.6488e+003 -7.2582e+003  5.3142e+003 119677 224273,224377,224299
 6.6000e+001 224552 -4.0598e+001 -5.2745e+003  3.1737e+003 119273 224474,224526,224500
 6.6000e+001 224704 -3.2236e+004 -1.3602e+005  6.8194e+004 118983 224603,224655,224629
 6.6000e+001 224681 -7.9818e+004 -1.0412e+005  7.9569e+004 118983 224577,224655,224603
 6.6000e+001 224856 -2.2450e+005  2.0436e+004  3.4857e+004 118529 224755,224807,224781
 6.6000e+001 224833  4.9374e+004 -2.5893e+005  7.1129e+004 118529 224729,224807,224755
 6.6000e+001 225008 -5.1277e+004 -9.4720e+004  1.2022e+004 118353 224881,224933,224907
 6.6000e+001 224985 -4.5586e+004  7.3013e+003  1.0062e+004 118353 224881,224959,224933
 6.6000e+001 225209 -5.8538e+005 -5.1169e+006 -1.0242e+006 117949 225059,225137,225111
 6.6000e+001 225186 -2.9878e+005 -4.1236e+006  5.6644e+005 117949 225033,225137,225059
 6.6000e+001 225163  1.5943e+005 -7.4587e+006  1.3103e+005 117949 225059,225111,225085
 6.6000e+001 225410  8.6630e+003 -6.9105e+006  7.6351e+005 117559 225260,225338,225312
 6.6000e+001 225387 -1.4831e+006 -7.3420e+006  5.1514e+005 117559 225234,225338,225260
 6.6000e+001 225364 -5.6209e+005 -4.8758e+006 -1.6552e+006 117559 225260,225312,225286
 6.6000e+001 225611 -1.2924e+006 -9.2809e+006 -3.2662e+006 117361 225461,225513,225487
 6.6000e+001 225588 -1.3663e+006 -1.0092e+007  1.3792e+006 117361 225461,225539,225513
 6.6000e+001 225565 -8.8008e+005 -9.8245e+006  1.5773e+006 117361 225435,225539,225461
 6.6000e+001 225812  2.6169e+005 -7.0227e+006 -6.5182e+005 116900 225636,225714,225662
 6.6000e+001 225789 -1.7483e+006 -3.3934e+006 -9.1898e+005 116900 225636,225740,225714
 6.6000e+001 225766 -1.8849e+003 -7.1094e+006 -1.0887e+005 116900 225662,225714,225688
 6.6000e+001 225964 -1.7752e+005 -4.4411e+006 -1.0948e+005 116560 225837,225889,225863
 6.6000e+001 225941  1.4707e+005 -6.0858e+006  2.4852e+005 116560 225837,225915,225889
 6.6000e+001 226165  2.6893e+004 -1.3926e+004  1.1237e+004 116106 226015,226093,226041
 6.6000e+001 226142 -3.9461e+003 -3.0029e+003 -1.3094e+004 116106 225989,226093,226015
 6.6000e+001 226119 -2.3008e+004 -1.5140e+004  2.4171e+004 116106 226041,226093,226067
 6.6000e+001 226268 -1.1045e+006 -4.8758e+006  5.7342e+005 115716 226190,226242,226216
 6.6000e+001 226420  1.1583e+005 -9.6488e+006  1.9606e+006 115376 226293,226345,226319
 6.6000e+001 226397 -2.2054e+005 -1.0068e+007  2.5884e+006 115376 226293,226371,226345
 6.6000e+001 226621 -6.9421e+005 -1.9241e+006  4.5973e+005 114972 226497,226549,226523
 6.6000e+001 226598 -4.6746e+005 -9.9134e+006 -3.6337e+005 114972 226445,226549,226497
 6.6000e+001 226575  1.1124e+005 -5.2243e+006  8.2709e+005 114972 226445,226497,226471
 6.6000e+001 226773 -1.3887e+006 -2.6411e+006 -1.1412e+006 114670 226646,226698,226672
 6.6000e+001 226750  4.9670e+005 -6.7718e+006  7.8379e+005 114670 226646,226724,226698
 6.6000e+001 226974  4.3246e+004 -2.2394e+006 -3.7701e+005 114082 226798,226850,226824
 6.6000e+001 226951  1.3192e+005 -3.0352e+006 -9.5893e+004 114082 226798,226902,226850
 6.6000e+001 226928  3.1938e+004 -4.1972e+006 -3.8694e+005 114082 226850,226902,226876
 6.6000e+001 227175 -6.4242e+005 -4.5631e+006 -2.0758e+006 113678 226999,227051,227025
 6.6000e+001 227152 -2.0111e+006 -8.5026e+006 -3.6747e+006 113678 226999,227077,227051
 6.6000e+001 227129 -2.7731e+006 -5.4760e+006 -3.2227e+006 113678 226999,227103,227077
 6.6000e+001 227425 -4.3595e+006 -8.6786e+006 -9.5672e+006 113274 227226,227278,227252
 6.6000e+001 227402 -8.8821e+005 -8.2578e+006 -2.2840e+006 113274 227226,227330,227278
 6.6000e+001 227379 -4.8251e+006 -5.2346e+006 -2.6785e+006 113274 227200,227330,227226
 6.6000e+001 227356 -2.0171e+006 -1.7958e+006 -2.1133e+006 113274 227278,227330,227304
 6.6000e+001 227626 -3.3052e+005 -3.4679e+006 -2.1812e+006 112934 227502,227554,227528
 6.6000e+001 227603  6.5991e+005 -2.4293e+006  1.9020e+005 112934 227450,227554,227502
 6.6000e+001 227580 -1.5522e+006 -9.3526e+004  7.4694e+005 112934 227450,227502,227476
 6.6000e+001 227876 -1.4379e+005 -1.6508e+006 -1.0819e+005 112437 227677,227755,227703
 6.6000e+001 227853 -1.0150e+006 -2.0340e+006  1.3013e+006 112437 227677,227781,227755
 6.6000e+001 227830 -2.1225e+005 -8.8458e+005  3.3854e+005 112437 227703,227755,227729
 6.6000e+001 227807 -3.9849e+005 -6.1229e+006 -1.3220e+005 112437 227651,227781,227677
 6.6000e+001 228126 -1.6661e+005 -3.7390e+006 -2.1147e+005 112041 227927,228005,227953
 6.6000e+001 228103 -2.2530e+005 -4.1920e+006 -4.8068e+005 112041 227927,228031,228005
 6.6000e+001 228080 -1.4349e+005 -4.4956e+006 -2.1141e+005 112041 227953,228005,227979
 6.6000e+001 228057 -3.6737e+005 -3.2214e+006 -5.6122e+005 112041 227901,228031,227927
 6.6000e+001 228327 -1.7319e+006 -3.0594e+006 -3.7855e+004 111693 228151,228203,228177
 6.6000e+001 228304 -1.9699e+005 -2.0184e+006 -1.0440e+006 111693 228151,228229,228203
 6.6000e+001 228281  5.6234e+005 -4.6332e+006  8.7894e+005 111693 228151,228255,228229
 6.6000e+001 228479 -4.0217e+006 -2.3747e+006 -4.0353e+006 111253 228352,228404,228378
 6.6000e+001 228456 -2.4975e+006 -4.3330e+005 -8.2435e+004 111253 228352,228430,228404
 6.6000e+001 228582 -1.0346e+003  2.1097e+002 -4.2761e+002 110906 228504,228556,228530
 6.6000e+001 228783 -4.7113e+004 -2.0423e+006  2.1704e+004 110416 228633,228711,228659
 6.6000e+001 228760  7.3988e+004 -1.4957e+006  1.0478e+004 110416 228607,228711,228633
 6.6000e+001 228737  1.2849e+004 -1.9022e+006 -2.3158e+004 110416 228659,228711,228685
 6.6000e+001 228935  1.9520e+004 -3.1695e+006 -7.3260e+005 110012 228808,228860,228834
 6.6000e+001 228912 -6.8821e+005 -5.5548e+006 -1.1605e+006 110012 228808,228886,228860
 6.6000e+001 229087 -9.7667e+005 -2.2648e+006 -1.3128e+006 109672 228960,229012,228986
 6.6000e+001 229064  3.6249e+005 -5.0642e+006 -5.1814e+005 109672 228960,229038,229012
 6.6000e+001 229190 -6.6146e+003 -8.1613e+004  1.9435e+004 109332 229112,229164,229138
 6.6000e+001 229391 -1.8615e+005 -1.4835e+005  1.0165e+005 109156 229267,229319,229293
 6.6000e+001 229368 -1.9188e+005 -1.0979e+006  2.6012e+005 109156 229215,229319,229267
 6.6000e+001 229345 -9.1525e+004 -4.5952e+005  3.9863e+005 109156 229215,229267,229241
 6.6000e+001 229543  8.1665e+005 -9.8146e+006  1.3753e+006 108752 229416,229468,229442
 6.6000e+001 229520 -7.1266e+005 -3.9069e+006 -6.1103e+005 108752 229416,229494,229468
 6.6000e+001 229744 -7.8490e+004 -5.6186e+006  2.4676e+005 108198 229594,229646,229620
 6.6000e+001 229721  1.9218e+005 -5.5204e+006 -2.0586e+005 108198 229594,229672,229646
 6.6000e+001 229698 -3.2395e+005 -5.1913e+006 -6.5190e+004 108198 229568,229672,229594
 6.6000e+001 229847 -1.0796e+005 -1.5704e+006 -3.6006e+005 107758 229769,229821,229795
 6.6000e+001 230048 -7.8707e+005 -2.0734e+006 -2.4175e+005 107468 229898,229950,229924
 6.6000e+001 230025 -5.8492e+005 -1.7246e+006  3.7881e+005 107468 229872,229950,229898
 6.6000e+001 230002 -1.0793e+006 -1.9099e+006  5.1320e+005 107468 229872,229976,229950
 6.6000e+001 230298  5.0840e+004 -1.2077e+006  2.7532e+005 107121 230099,230203,230177
 6.6000e+001 230275 -1.2914e+005 -1.8433e+006  1.3696e+005 107121 230073,230203,230099
 6.6000e+001 230252  3.2425e+005 -1.3254e+006 -8.0566e+004 107121 230099,230177,230151
 6.6000e+001 230229 -1.4993e+005 -1.0689e+006 -4.0048e+005 107121 230099,230151,230125
 6.6000e+001 230450  8.3430e+004 -1.6076e+006 -5.1860e+004 106823 230349,230401,230375
 6.6000e+001 230427 -4.7824e+004 -1.1076e+006  4.6221e+004 106823 230323,230401,230349
 6.6000e+001 230602 -3.7247e+006 -1.1669e+007 -9.2858e+006 106533 230501,230553,230527
 6.6000e+001 230579  1.8271e+005 -1.3763e+007  2.5895e+006 106533 230475,230553,230501
 6.6000e+001 230803 -8.6150e+004 -2.3753e+006  1.5786e+004 106029 230679,230731,230705
 6.6000e+001 230780  8.2335e+004 -1.6995e+006  2.1695e+004 106029 230653,230731,230679
 6.6000e+001 230757  1.8399e+004 -1.9343e+006 -4.2485e+004 106029 230627,230731,230653
 6.6000e+001 231004 -1.3921e+005 -1.5509e+006  1.5070e+005 105689 230854,230906,230880
 6.6000e+001 230981  6.1279e+003 -1.8785e+006 -2.1271e+005 105689 230828,230906,230854
 6.6000e+001 230958 -6.0361e+005 -1.6302e+006 -4.1976e+005 105689 230828,230932,230906
 6.6000e+001 231156  4.0605e+005 -7.7459e+006 -4.3896e+005 105377 231055,231107,231081
 6.6000e+001 231133 -2.1096e+005 -4.4678e+006  5.1025e+005 105377 231029,231107,231055
 6.6000e+001 231406 -4.3942e+005 -8.8988e+006 -1.8692e+006 104858 231207,231259,231233
 6.6000e+001 231383 -1.1874e+006 -8.9957e+006 -1.9199e+006 104858 231207,231311,231259
 6.6000e+001 231360 -5.4645e+005 -1.0514e+007 -2.5376e+006 104858 231259,231311,231285
 6.6000e+001 231337 -3.5651e+005 -1.0646e+007 -2.2458e+006 104858 231181,231311,231207
 6.6000e+001 231558 -1.7101e+006 -1.6965e+007  3.8704e+006 104418 231457,231509,231483
 6.6000e+001 231535 -3.6516e+006 -1.6626e+007 -8.5729e+006 104418 231431,231509,231457
 6.6000e+001 231710 -1.9235e+006 -1.2718e+006 -4.4409e+005 103978 231583,231635,231609
 6.6000e+001 231687 -1.0658e+006 -1.4126e+006 -9.2015e+005 103978 231583,231661,231635
 6.6000e+001 231862 -1.8412e+005 -3.8539e+006  9.7549e+004 103588 231761,231813,231787
 6.6000e+001 231839  4.2844e+004 -2.8464e+006  4.6297e+004 103588 231735,231813,231761
 6.6000e+001 232014 -2.3601e+006 -9.8776e+006 -3.4592e+006 103248 231887,231939,231913
 6.6000e+001 231991 -3.0175e+006 -1.9305e+007 -8.0565e+006 103248 231887,231965,231939
 6.6000e+001 232215  1.2690e+003 -2.3265e+003  7.4130e+002 102844 232039,232117,232065
 6.6000e+001 232192  2.4242e+003 -8.7560e+002 -8.9103e+002 102844 232039,232143,232117
 6.6000e+001 232169  8.0410e+002 -1.4407e+002 -7.6689e+002 102844 232065,232117,232091
 6.6000e+001 232416 -4.2503e+006 -1.0674e+007 -5.4328e+006 102554 232240,232318,232292
 6.6000e+001 232393  1.0547e+006 -1.7572e+007 -1.2408e+006 102554 232240,232344,232318
 6.6000e+001 232370 -5.8613e+006 -3.4278e+006 -1.4211e+006 102554 232240,232292,232266
 6.6000e+001 232568 -6.3417e+004 -1.9193e+006  9.0170e+004 102100 232441,232493,232467
 6.6000e+001 232545 -3.3429e+005 -2.1062e+006  4.8441e+005 102100 232441,232519,232493
 6.6000e+001 232769 -7.6143e+004 -9.0794e+005  1.6259e+005 101596 232645,232697,232671
 6.6000e+001 232746  2.9076e+004 -4.9856e+005  9.0085e+004 101596 232593,232697,232645
 6.6000e+001 232723 -2.7685e+004 -8.7406e+005  1.5766e+005 101596 232593,232645,232619
 6.6000e+001 232921 -9.6591e+003 -9.0630e+003 -2.9751e+003 101420 232794,232846,232820
 6.6000e+001 232898 -8.1397e+003 -8.3954e+004 -1.8132e+004 101420 232794,232872,232846
 6.6000e+001 233073 -8.9692e+005 -1.2227e+006 -6.5626e+004 101023 232946,232998,232972
 6.6000e+001 233050 -1.3155e+004 -2.7504e+006  1.0903e+006 101023 232946,233024,232998
 6.6000e+001 233225 -4.4236e+002 -1.0141e+003  1.9060e+002 100661 233098,233150,233124
 6.6000e+001 233202 -2.5778e+003  1.4104e+003  8.0973e+002 100661 233098,233176,233150
 6.6000e+001 233426 -1.8182e+006 -8.0453e+006 -2.7244e+006 100265 233276,233328,233302
 6.6000e+001 233403 -1.0139e+006 -7.1205e+006 -6.6522e+005 100265 233276,233354,233328
 6.6000e+001 233380 -1.5969e+006 -8.5194e+006 -1.1932e+006 100265 233250,233354,233276
 6.6000e+001 233578 -2.3486e+003 -8.7763e+005  4.5458e+004 100032 233451,233503,233477
 6.6000e+001 233555 -6.1570e+004 -8.7248e+005  1.9879e+005 100032 233451,233529,233503
 6.6000e+001 233681 -7.7779e+005  2.5116e+004 -1.3919e+005 99742 233603,233655,233629
 6.6000e+001 233784 -8.4393e+005 -2.7676e+006 -4.5536e+003 99402 233706,233758,233732
 6.6000e+001 233936 -6.6337e+005 -1.9715e+006  4.9969e+005 99062 233835,233887,233861
 6.6000e+001 233913 -6.3510e+005 -1.8387e+006  4.1995e+005 99062 233809,233887,233835
 6.6000e+001 234088 -1.0094e+006 -3.4389e+006  1.3111e+006 98772 233987,234039,234013
 6.6000e+001 234065 -3.9037e+005 -3.3832e+006  1.0498e+006 98772 233961,234039,233987
 6.6000e+001 234240 -1.5019e+004 -8.5651e+004  2.3849e+004 98160 234139,234191,234165
 6.6000e+001 234217 -1.1899e+004 -8.7636e+004 -2.1149e+003 98160 234113,234191,234139
 6.6000e+001 234441  1.1522e+002 -1.3677e+002 -5.1331e+001 97820 234317,234369,234343
 6.6000e+001 234418  1.8549e+002  4.8280e+001 -2.5057e+002 97820 234291,234369,234317
 6.6000e+001 234395 -4.7986e+002  6.0681e+002 -5.1063e+002 97820 234265,234369,234291
 6.6000e+001 234593 -2.8261e+005 -1.5480e+006 -2.1819e+005 97366 234466,234518,234492
 6.6000e+001 234570  1.5127e+005 -3.5382e+006 -2.7030e+005 97366 234466,234544,234518
 6.6000e+001 234794 -7.4148e+005 -1.1813e+006 -7.5614e+005 96976 234618,234670,234644
 6.6000e+001 234771 -1.3931e+005 -2.4210e+006 -6.0966e+005 96976 234618,234722,234670
 6.6000e+001 234748 -2.8328e+005 -2.0645e+006 -9.5475e+005 96976 234670,234722,234696
 6.6000e+001 234946 -6.9827e+005 -1.1667e+006  2.9684e+005 96568 234845,234897,234871
 6.6000e+001 234923 -4.0704e+005 -5.3698e+005  7.7946e+005 96568 234819,234897,234845
 6.6000e+001 235196 -1.6776e+005 -7.4592e+005 -2.1514e+005 96216 234997,235075,235049
 6.6000e+001 235173  6.8350e+004 -3.5858e+006  1.0582e+006 96216 234997,235101,235075
 6.6000e+001 235150 -3.8657e+005 -8.9288e+005  9.0077e+004 96216 234997,235049,235023
 6.6000e+001 235127 -1.8387e+005 -3.7638e+006  8.3204e+005 96216 234971,235101,234997
 6.6000e+001 235348 -1.5382e+006 -1.9317e+006 -1.6905e+006 95863 235247,235299,235273
 6.6000e+001 235325 -1.0604e+006 -1.4831e+006 -1.0762e+006 95863 235221,235299,235247
 6.6000e+001 235500 -9.6326e+005 -2.3208e+006 -1.0438e+006 95339 235373,235425,235399
 6.6000e+001 235477 -5.6210e+005 -3.6183e+006  2.8313e+006 95339 235373,235451,235425
 6.6000e+001 235701  6.5303e+004 -3.2604e+006  7.1882e+005 95023 235525,235577,235551
 6.6000e+001 235678 -1.4964e+005 -3.1982e+006  6.6422e+005 95023 235525,235629,235577
 6.6000e+001 235655 -1.8111e+005 -5.5907e+006  1.1755e+006 95023 235577,235629,235603
 6.6000e+001 235853  2.8828e+005 -1.4816e+007 -1.3916e+005 94671 235726,235778,235752
 6.6000e+001 235830  1.3959e+005 -1.5374e+007  2.7956e+005 94671 235726,235804,235778
 6.6000e+001 236005 -1.4590e+006 -8.2758e+006  6.1880e+005 94261 235904,235956,235930
 6.6000e+001 235982 -4.3292e+005 -1.3207e+007 -4.2821e+006 94261 235878,235956,235904
 6.6000e+001 236206 -8.6206e+005 -8.2216e+005  1.0745e+006 93853 236056,236134,236082
 6.6000e+001 236183 -1.4392e+006 -9.8761e+005  6.2545e+005 93853 236030,236134,236056
 6.6000e+001 236160 -1.1446e+006 -9.4398e+005  9.4408e+005 93853 236082,236134,236108
 6.6000e+001 236407 -1.8544e+006 -4.5652e+006  7.5071e+005 93557 236257,236309,236283
 6.6000e+001 236384 -3.1877e+006 -5.6130e+006 -2.7466e+006 93557 236231,236309,236257
 6.6000e+001 236361  1.3153e+006 -2.0654e+007  2.0328e+006 93557 236231,236335,236309
 6.6000e+001 236559  3.1345e+001 -3.7598e+004  1.0197e+004 93149 236432,236484,236458
 6.6000e+001 236536  1.2138e+004 -1.4453e+004  3.0420e+004 93149 236432,236510,236484
 6.6000e+001 236711 -1.8774e+005 -2.4158e+005  1.7307e+005 92853 236584,236636,236610
 6.6000e+001 236688 -1.0696e+005 -5.0586e+005  1.9916e+005 92853 236584,236662,236636
 6.6000e+001 236912 -1.1177e+005 -2.1808e+006  6.8932e+005 92501 236736,236788,236762
 6.6000e+001 236889 -3.8162e+005 -1.1883e+006  1.4995e+005 92501 236736,236840,236788
 6.6000e+001 236866 -5.0955e+005 -1.8360e+006  9.1102e+004 92501 236788,236840,236814
 6.6000e+001 237113 -1.0607e+005 -5.1085e+006  1.9515e+005 92291 236963,237041,237015
 6.6000e+001 237090  1.9183e+005 -2.9075e+006  1.0006e+005 92291 236937,237041,236963
 6.6000e+001 237067 -2.3601e+005 -4.6490e+006  1.0471e+006 92291 236963,237015,236989
 6.6000e+001 237265  1.0012e+005 -9.6568e+005 -4.8512e+005 91871 237138,237190,237164
 6.6000e+001 237242 -5.8357e+005 -2.5062e+006 -1.0180e+006 91871 237138,237216,237190
 6.6000e+001 237368  9.4030e+002 -1.8900e+006 -6.1962e+002 91581 237290,237342,237316
 6.6000e+001 237520 -1.5542e+004 -9.6961e+004  2.9014e+004 91184 237419,237471,237445
 6.6000e+001 237497 -8.1939e+004 -1.4589e+005 -1.0311e+004 91184 237393,237471,237419
 6.6000e+001 237672 -4.0514e+005 -1.2365e+006 -2.2314e+005 90894 237545,237597,237571
 6.6000e+001 237649 -1.9464e+005 -4.5927e+006  1.3074e+006 90894 237545,237623,237597
 6.6000e+001 237873 -7.6293e+005 -3.2472e+006  7.9962e+005 90490 237749,237801,237775
 6.6000e+001 237850 -4.4057e+005 -3.2980e+006  1.0917e+006 90490 237723,237801,237749
 6.6000e+001 237827 -1.0789e+006 -3.4435e+006 -7.2661e+005 90490 237697,237801,237723
 6.6000e+001 238074 -5.7011e+005 -6.5145e+006  2.9886e+005 90100 237898,237976,237950
 6.6000e+001 238051 -2.3916e+006 -6.3280e+006 -5.0232e+005 90100 237898,238002,237976
 6.6000e+001 238028 -5.7578e+005 -3.6586e+006  3.4938e+005 90100 237898,237950,237924
 6.6000e+001 238275  3.5591e+004 -9.6061e+005  5.0941e+005 89696 238125,238177,238151
 6.6000e+001 238252 -6.0766e+005 -4.6621e+005 -6.5199e+005 89696 238099,238177,238125
 6.6000e+001 238229 -3.7416e+005 -2.3517e+006 -6.6088e+005 89696 238099,238203,238177
 6.6000e+001 238427  6.7723e+003 -2.7927e+004 -8.5685e+003 89206 238326,238378,238352
 6.6000e+001 238404 -9.6345e+003 -1.4754e+005 -2.4760e+004 89206 238300,238378,238326
 6.6000e+001 238579 -6.8015e+005 -2.6005e+006  6.8278e+005 88908 238452,238504,238478
 6.6000e+001 238556 -4.4277e+004 -2.2051e+006  1.3434e+005 88908 238452,238530,238504
 6.6000e+001 238682 -1.4911e+002  1.8943e+001 -1.8310e+002 88568 238604,238656,238630
 6.6000e+001 238883  1.9452e+005 -4.7281e+006  1.5305e+006 88278 238733,238811,238785
 6.6000e+001 238860 -7.1928e+005 -2.1356e+006  1.3440e+006 88278 238707,238811,238733
 6.6000e+001 238837 -1.6861e+005 -5.0851e+006  9.2604e+005 88278 238733,238785,238759
 6.6000e+001 239035 -1.7265e+006 -4.6382e+006 -5.0583e+005 87988 238908,238960,238934
 6.6000e+001 239012 -1.9708e+006 -2.2967e+006  3.4616e+005 87988 238908,238986,238960
 6.6000e+001 239138  6.0841e+004 -4.9677e+005  1.9388e+005 87648 239060,239112,239086
 6.6000e+001 239339 -1.7612e+006 -3.4668e+006 -2.5423e+006 87358 239163,239215,239189
 6.6000e+001 239316 -1.7502e+006 -1.8155e+006 -4.5145e+005 87358 239163,239241,239215
 6.6000e+001 239293 -1.0986e+006 -1.2992e+006 -7.9546e+005 87358 239163,239267,239241
 6.6000e+001 239589  5.6185e+001 -1.2862e+004  3.2438e+003 86961 239390,239468,239416
 6.6000e+001 239566 -2.6870e+004 -6.5057e+003  2.2490e+004 86961 239390,239494,239468
 6.6000e+001 239543 -2.2648e+003 -2.9467e+002  1.0036e+003 86961 239416,239468,239442
 6.6000e+001 239520 -3.3319e+004 -8.6790e+003  1.9885e+004 86961 239364,239494,239390
 6.6000e+001 239741 -1.4352e+006 -1.9277e+006 -2.4351e+005 86621 239640,239692,239666
 6.6000e+001 239718 -4.6108e+005 -4.3329e+006 -1.9201e+006 86621 239614,239692,239640
 6.6000e+001 239893 -5.7277e+005 -4.0629e+006  1.2369e+006 86217 239792,239844,239818
 6.6000e+001 239870 -6.5303e+005 -3.3795e+006  9.0246e+005 86217 239766,239844,239792
 6.6000e+001 240045 -5.0284e+005 -3.5479e+006  2.9556e+005 85827 239918,239970,239944
 6.6000e+001 240022 -1.5168e+005 -3.4557e+006  1.8743e+005 85827 239918,239996,239970
 6.6000e+001 240197 -6.2478e+005 -6.1680e+006  8.3809e+005 85437 240096,240148,240122
 6.6000e+001 240174 -1.4141e+006 -4.4594e+005 -4.6372e+005 85437 240070,240148,240096
 6.6000e+001 240349  1.5474e+004 -7.3244e+005  1.5918e+005 85147 240222,240274,240248
 6.6000e+001 240326 -4.3363e+004 -4.9495e+005 -8.4860e+004 85147 240222,240300,240274
 6.6000e+001 240501 -1.0696e+005 -7.9374e+005  3.1387e+005 84807 240374,240426,240400
 6.6000e+001 240478 -1.3332e+006 -2.2026e+006  1.6320e+006 84807 240374,240452,240426
 6.6000e+001 240653  5.0783e+002 -2.0458e+001  1.1192e+002 84303 240552,240604,240578
 6.6000e+001 240630  1.7089e+002 -2.6689e+002 -4.4516e+002 84303 240526,240604,240552
 6.6000e+001 240854 -3.2673e+005 -9.6572e+006 -4.8704e+006 83929 240704,240756,240730
 6.6000e+001 240831  1.4356e+006 -7.6183e+006  2.2565e+006 83929 240704,240782,240756
 6.6000e+001 240808 -2.9988e+006  1.8517e+006  2.4872e+006 83929 240678,240782,240704
 6.6000e+001 241055  1.9154e+003 -8.9513e+003 -1.3154e+003 83539 240879,240957,240931
 6.6000e+001 241032  1.6921e+003 -9.6738e+003 -2.1128e+002 83539 240879,240983,240957
 6.6000e+001 241009 -7.6003e+002 -1.5570e+003 -1.5453e+003 83539 240879,240931,240905
 6.6000e+001 241207 -2.0151e+004 -5.7635e+005  6.9180e+004 83079 241106,241158,241132
 6.6000e+001 241184 -4.0083e+004 -7.4331e+005  3.5703e+004 83079 241080,241158,241106
 6.6000e+001 241408 -2.7915e+005 -1.5862e+006 -1.0914e+006 82665 241232,241284,241258
 6.6000e+001 241385 -5.7002e+005 -1.2644e+006 -3.5242e+006 82665 241232,241336,241284
 6.6000e+001 241362 -3.5983e+006 -1.1097e+007  6.0845e+006 82665 241284,241336,241310
 6.6000e+001 241658 -2.2304e+005 -3.8325e+006  5.2718e+005 82375 241485,241563,241511
 6.6000e+001 241635 -6.8649e+003 -2.1222e+006  1.9027e+005 82375 241433,241563,241485
 6.6000e+001 241612 -1.0205e+005 -2.5383e+006  1.7502e+005 82375 241433,241485,241459
 6.6000e+001 241589 -6.1857e+005 -4.1728e+006  7.5163e+005 82375 241511,241563,241537
 6.6000e+001 241810 -9.7359e+005 -2.4270e+006 -5.1645e+005 82035 241683,241735,241709
 6.6000e+001 241787 -1.4408e+006 -3.6205e+006  1.0272e+006 82035 241683,241761,241735
 6.6000e+001 241962 -1.0215e+006 -2.6063e+006  7.3876e+005 81695 241861,241913,241887
 6.6000e+001 241939 -2.8126e+005 -3.5016e+006 -1.0189e+006 81695 241835,241913,241861
 6.6000e+001 242114 -1.0894e+006 -5.2045e+006  1.9427e+006 81355 242013,242065,242039
 6.6000e+001 242091 -2.2148e+005 -2.5325e+006  7.5818e+005 81355 241987,242065,242013
 6.6000e+001 242266  1.8102e+004 -4.5490e+005  4.0271e+004 80951 242139,242191,242165
 6.6000e+001 242243 -5.2580e+004 -7.2565e+005 -1.4110e+004 80951 242139,242217,242191
 6.6000e+001 242467 -4.1312e+005 -4.7550e+006  5.2134e+005 80311 242291,242369,242343
 6.6000e+001 242444  1.4396e+005 -2.3603e+006  4.0858e+005 80311 242291,242395,242369
 6.6000e+001 242421 -1.5626e+005 -1.1766e+006  1.9937e+005 80311 242291,242343,242317
 6.6000e+001 242619 -1.3881e+006 -2.5254e+006  4.4758e+005 80021 242492,242544,242518
 6.6000e+001 242596 -1.3369e+006 -2.3806e+006  1.4685e+006 80021 242492,242570,242544
 6.6000e+001 242869 -1.4000e+005 -5.9071e+004 -4.8054e+004 79631 242644,242722,242696
 6.6000e+001 242846  1.1141e+004 -8.7592e+005  1.4302e+005 79631 242644,242774,242722
 6.6000e+001 242823  1.5960e+005 -2.9466e+005  1.0761e+005 79631 242722,242774,242748
 6.6000e+001 242800 -1.1476e+005 -1.1810e+005  1.3578e+005 79631 242644,242696,242670
 6.6000e+001 243070 -2.3307e+005 -1.4233e+007  3.6400e+006 79341 242920,242972,242946
 6.6000e+001 243047 -8.3604e+005 -6.4225e+006 -3.8611e+005 79341 242920,242998,242972
 6.6000e+001 243024 -7.5725e+005 -3.9888e+006  1.7381e+006 79341 242894,242998,242920
 6.6000e+001 243222 -4.4811e+005 -3.2258e+006  1.4276e+006 78801 243121,243173,243147
 6.6000e+001 243199 -3.6636e+005 -3.0951e+006  1.1750e+006 78801 243095,243173,243121
 6.6000e+001 243423 -1.0260e+006 -4.5636e+006 -1.7175e+005 78511 243273,243325,243299
 6.6000e+001 243400  5.2033e+005 -8.5077e+006  1.8376e+006 78511 243273,243351,243325
 6.6000e+001 243377 -4.1477e+003 -8.7283e+006  1.8973e+005 78511 243247,243351,243273
 6.6000e+001 243624 -4.7315e+005 -3.8912e+006 -1.4734e+006 78107 243474,243552,243526
 6.6000e+001 243601 -6.6283e+005 -5.0120e+006 -1.4570e+006 78107 243448,243552,243474
 6.6000e+001 243578 -1.9873e+005 -3.5007e+006 -1.1288e+006 78107 243474,243526,243500
 6.6000e+001 243776 -8.4879e+005 -4.7210e+006 -1.2311e+006 77653 243649,243701,243675
 6.6000e+001 243753 -1.6186e+006 -6.3792e+006 -5.3329e+005 77653 243649,243727,243701
 6.6000e+001 243977 -3.6812e+005 -5.5281e+006  2.4151e+004 77093 243801,243853,243827
 6.6000e+001 243954 -7.0337e+004 -4.6462e+006  6.6483e+005 77093 243801,243879,243853
 6.6000e+001 243931 -3.8538e+005 -1.7516e+006 -2.0441e+005 77093 243801,243905,243879
 6.6000e+001 244080 -6.6630e+005 -7.4304e+006  3.3511e+005 76791 244002,244054,244028
 6.6000e+001 244232 -3.5351e+005 -4.0332e+006  1.0178e+005 76311 244131,244183,244157
 6.6000e+001 244209 -1.8480e+005 -8.6281e+006  7.0852e+005 76311 244105,244183,244131
 6.6000e+001 244433 -4.8320e+005 -1.6475e+007  4.7437e+006 75903 244283,244335,244309
 6.6000e+001 244410 -1.4436e+006 -9.1176e+006 -8.1468e+005 75903 244283,244361,244335
 6.6000e+001 244387 -1.8344e+006 -8.3025e+006 -2.3791e+005 75903 244257,244361,244283
 6.6000e+001 244585  4.0113e+005 -1.6220e+007  1.4373e+006 75419 244458,244510,244484
 6.6000e+001 244562 -8.6064e+005 -7.6913e+006 -5.0654e+005 75419 244458,244536,244510
 6.6000e+001 244737 -3.7040e+005 -4.1257e+005 -1.6558e+005 75215 244636,244688,244662
 6.6000e+001 244714 -1.6970e+005 -4.4441e+006 -1.4835e+005 75215 244610,244688,244636
 6.6000e+001 244889 -8.6578e+005 -5.1024e+006 -4.6721e+005 74857 244788,244840,244814
 6.6000e+001 244866 -6.4523e+004 -2.0105e+006 -2.2539e+005 74857 244762,244840,244788
 6.6000e+001 245041 -1.6877e+005 -1.2479e+006 -6.8216e+005 74653 244940,244992,244966
 6.6000e+001 245018 -2.0829e+005 -2.8551e+005  5.6313e+005 74653 244914,244992,244940
 6.6000e+001 245144 -1.6374e+006 -5.3272e+006 -1.3402e+006 74359 245066,245118,245092
 6.6000e+001 245296 -4.5055e+004 -7.0169e+005 -2.1624e+005 74007 245169,245221,245195
 6.6000e+001 245273 -2.5516e+005 -1.2079e+006 -3.7613e+005 74007 245169,245247,245221
 6.6000e+001 245448 -1.4303e+006 -6.1533e+006  8.7544e+005 73711 245321,245373,245347
 6.6000e+001 245425 -7.0391e+005 -5.9379e+006 -1.4077e+006 73711 245321,245399,245373
 6.6000e+001 245600  7.7525e+005 -1.1962e+007 -9.0859e+005 73301 245499,245551,245525
 6.6000e+001 245577 -1.3461e+006 -8.1551e+006  2.0397e+006 73301 245473,245551,245499
 6.6000e+001 245752 -1.9384e+006 -2.8704e+006 -1.7825e+006 72995 245625,245677,245651
 6.6000e+001 245729  3.9250e+005 -1.0939e+007 -1.3162e+006 72995 245625,245703,245677
 6.6000e+001 245953 -1.4868e+006 -9.2140e+006  5.5556e+005 72585 245777,245829,245803
 6.6000e+001 245930 -6.6952e+005 -1.4099e+007  2.7892e+006 72585 245777,245855,245829
 6.6000e+001 245907 -8.4533e+005 -5.4888e+006 -3.7485e+004 72585 245777,245881,245855
 6.6000e+001 246154 -4.0011e+005 -6.6347e+006  1.2086e+006 72127 246030,246082,246056
 6.6000e+001 246131 -8.6320e+005 -7.6675e+006  7.0014e+005 72127 245978,246082,246030
 6.6000e+001 246108 -1.1050e+005 -7.9202e+006  3.2687e+005 72127 245978,246030,246004
 6.6000e+001 246257 -1.8524e+006 -2.8375e+005 -1.7166e+004 71737 246179,246231,246205
 6.6000e+001 246360  1.6360e+005 -2.9864e+006  4.8568e+005 71447 246282,246334,246308
 6.6000e+001 246512 -6.2118e+004 -2.6604e+006  9.7341e+005 71157 246385,246437,246411
 6.6000e+001 246489 -7.3567e+004 -2.0873e+006 -1.1478e+005 71157 246385,246463,246437
 6.6000e+001 246664 -1.5407e+005 -2.1988e+006 -3.2348e+005 70753 246537,246589,246563
 6.6000e+001 246641 -5.6721e+005 -1.2376e+006 -1.3642e+005 70753 246537,246615,246589
 6.6000e+001 246865 -1.6533e+006 -8.3930e+006  5.4184e+006 70249 246715,246767,246741
 6.6000e+001 246842 -1.9077e+006 -7.7469e+006 -6.8003e+005 70249 246715,246793,246767
 6.6000e+001 246819  2.5906e+004 -1.1106e+007 -2.5550e+006 70249 246689,246793,246715
 6.6000e+001 247066 -4.7227e+004 -1.9106e+006  3.0478e+005 70023 246916,246994,246942
 6.6000e+001 247043 -1.5249e+004 -1.9521e+006  2.9000e+005 70023 246890,246994,246916
 6.6000e+001 247020 -1.0068e+004 -1.7502e+006  2.9988e+005 70023 246942,246994,246968
 6.6000e+001 247267 -2.6120e+005 -3.3947e+006 -1.6093e+005 69633 247091,247143,247117
 6.6000e+001 247244 -5.0430e+004 -2.3497e+006 -4.0639e+004 69633 247091,247169,247143
 6.6000e+001 247221  4.4839e+004 -2.6345e+006 -2.1099e+005 69633 247091,247195,247169
 6.6000e+001 247419 -1.0763e+006 -5.1221e+006  6.5183e+005 69457 247318,247370,247344
 6.6000e+001 247396 -1.1458e+006 -2.8267e+006  9.1033e+005 69457 247292,247370,247318
 6.6000e+001 247522  1.7967e+001  1.5831e+002  9.9498e+001 69209 247444,247496,247470
 6.6000e+001 247625 -1.6350e+006 -2.1294e+006 -1.3382e+006 68919 247547,247599,247573
 6.6000e+001 247777  1.4162e+005 -6.7515e+006 -2.3176e+005 68579 247650,247702,247676
 6.6000e+001 247754 -1.5640e+005 -1.8513e+006 -1.4012e+005 68579 247650,247728,247702
 6.6000e+001 247929 -5.3148e+004 -3.0982e+006  9.9102e+005 68289 247802,247854,247828
 6.6000e+001 247906 -2.7604e+005 -1.4913e+006 -4.4843e+005 68289 247802,247880,247854
 6.6000e+001 248081 -5.6994e+005 -4.6610e+006  1.5142e+006 67949 247980,248032,248006
 6.6000e+001 248058 -6.9108e+005 -5.6749e+005  3.0643e+005 67949 247954,248032,247980
 6.6000e+001 248233 -2.1415e+006 -5.1471e+006 -6.9330e+005 67616 248132,248184,248158
 6.6000e+001 248210 -5.3030e+005 -5.8843e+006 -2.9868e+005 67616 248106,248184,248132
 6.6000e+001 248434 -1.3214e+005 -4.2993e+006 -2.0175e+005 67212 248284,248336,248310
 6.6000e+001 248411 -1.4658e+005 -4.3212e+006 -2.6578e+005 67212 248258,248336,248284
 6.6000e+001 248388 -1.5495e+006 -2.1279e+006 -6.2930e+005 67212 248258,248362,248336
 6.6000e+001 248586 -3.1842e+004 -5.1965e+006  9.8369e+005 66872 248485,248537,248511
 6.6000e+001 248563 -6.0042e+005 -7.2919e+005  1.2109e+005 66872 248459,248537,248485
 6.6000e+001 248738 -2.7269e+005 -4.8161e+006  1.1813e+005 66510 248637,248689,248663
 6.6000e+001 248715 -3.7783e+005 -7.6491e+006  1.8418e+005 66510 248611,248689,248637
 6.6000e+001 248890 -1.8438e+004 -5.1227e+005  9.9368e+004 66220 248789,248841,248815
 6.6000e+001 248867 -3.7118e+004 -6.6043e+005 -1.9321e+005 66220 248763,248841,248789
 6.6000e+001 249091 -1.2162e+006 -9.4603e+006  1.4125e+006 65759 248915,248967,248941
 6.6000e+001 249068 -9.1215e+005 -6.2724e+006  2.1349e+006 65759 248915,248993,248967
 6.6000e+001 249045 -5.2408e+005 -4.4368e+006  2.5634e+005 65759 248915,249019,248993
 6.6000e+001 249243 -1.4690e+005 -7.8385e+006  1.7123e+006 65419 249142,249194,249168
 6.6000e+001 249220  1.6333e+005 -2.5308e+006  6.4374e+005 65419 249116,249194,249142
 6.6000e+001 249395 -2.0224e+005 -1.6399e+006 -3.4037e+004 65079 249268,249320,249294
 6.6000e+001 249372 -2.4018e+005 -3.4786e+006 -5.3121e+005 65079 249268,249346,249320
 6.6000e+001 249547 -1.2772e+006 -3.1110e+006  1.2566e+006 64739 249420,249472,249446
 6.6000e+001 249524  3.7799e+005 -2.0799e+006 -3.0469e+005 64739 249420,249498,249472
 6.6000e+001 249650 -1.5181e+006 -3.2683e+006 -1.8493e+006 64342 249572,249624,249598
 6.6000e+001 249851 -1.2654e+005 -2.5505e+006 -2.0509e+005 63938 249701,249779,249753
 6.6000e+001 249828 -1.8327e+005 -2.6529e+006  3.2211e+005 63938 249675,249779,249701
 6.6000e+001 249805 -2.7377e+005 -1.8282e+006 -1.6077e+005 63938 249701,249753,249727
 6.6000e+001 250052 -3.7271e+005 -4.5094e+006 -1.8049e+005 63341 249876,249954,249902
 6.6000e+001 250029 -7.5623e+004 -6.3739e+006 -7.8728e+005 63341 249876,249980,249954
 6.6000e+001 250006 -1.4691e+005 -3.9959e+006 -5.8662e+005 63341 249902,249954,249928
 6.6000e+001 250253 -6.1397e+005 -9.7890e+005 -1.4295e+005 63058 250077,250129,250103
 6.6000e+001 250230 -1.9520e+006 -1.6300e+006  1.0230e+006 63058 250077,250155,250129
 6.6000e+001 250207 -3.3005e+005 -8.6351e+005  2.6947e+005 63058 250077,250181,250155
 6.6000e+001 250454 -7.5626e+005 -6.5357e+006  9.7887e+005 62832 250304,250382,250330
 6.6000e+001 250431  1.2924e+005 -8.0929e+006 -2.1176e+006 62832 250278,250382,250304
 6.6000e+001 250408 -1.6504e+006 -4.4651e+006  3.0347e+005 62832 250330,250382,250356
 6.6000e+001 250606 -4.9151e+005 -1.0720e+007 -1.5088e+006 62428 250479,250531,250505
 6.6000e+001 250583 -2.8221e+005 -1.2686e+007 -1.2540e+006 62428 250479,250557,250531
 6.6000e+001 250758 -3.2773e+005 -7.2607e+006  8.1544e+005 62202 250631,250683,250657
 6.6000e+001 250735 -5.6227e+005 -7.2161e+006  6.8638e+005 62202 250631,250709,250683
 6.6000e+001 250861  1.6726e+005 -2.9245e+006 -2.0325e+005 61954 250783,250835,250809
 6.6000e+001 251062 -2.0601e+006 -8.5971e+006 -4.7379e+005 61557 250912,250990,250938
 6.6000e+001 251039  3.0860e+005 -1.3248e+007 -1.7092e+006 61557 250886,250990,250912
 6.6000e+001 251016 -1.4209e+006 -1.1249e+007 -2.9608e+006 61557 250938,250990,250964
 6.6000e+001 251263 -4.4725e+005 -6.3788e+006 -2.1451e+004 61167 251113,251165,251139
 6.6000e+001 251240 -2.3821e+005 -6.0319e+006 -1.7448e+005 61167 251113,251191,251165
 6.6000e+001 251217 -1.0979e+006 -5.9408e+006  1.5304e+006 61167 251087,251191,251113
 6.6000e+001 251415 -8.4045e+005 -7.9971e+006  2.5783e+006 60827 251288,251340,251314
 6.6000e+001 251392 -6.1898e+005 -2.9722e+006 -6.9926e+005 60827 251288,251366,251340
 6.6000e+001 251567  2.1109e+004 -2.7440e+006 -1.5536e+005 60487 251466,251518,251492
 6.6000e+001 251544 -2.4825e+005 -3.7853e+006 -2.6084e+005 60487 251440,251518,251466
 6.6000e+001 251719 -4.4145e+005 -8.2159e+006 -1.0197e+006 59983 251592,251644,251618
 6.6000e+001 251696 -1.4064e+006 -8.0163e+006 -5.4885e+005 59983 251592,251670,251644
 6.6000e+001 251920  2.4916e+004 -1.2543e+006 -2.4330e+003 59807 251770,251848,251796
 6.6000e+001 251897  2.5181e+004 -1.2572e+006 -1.2882e+003 59807 251744,251848,251770
 6.6000e+001 251874 -4.8870e+004 -1.5695e+006  1.6487e+003 59807 251796,251848,251822
 6.6000e+001 252023  1.4015e+005 -4.3062e+006 -3.7551e+004 59517 251945,251997,251971
 6.6000e+001 252175  1.5884e+006 -1.3705e+007 -2.7505e+005 59269 252074,252126,252100
 6.6000e+001 252152 -1.6312e+005 -8.6894e+006  1.3763e+005 59269 252048,252126,252074
 6.6000e+001 252278 -7.1114e+005 -1.0727e+007  1.9640e+006 58979 252200,252252,252226
 6.6000e+001 252381 -2.1112e+006 -2.1218e+006  1.7709e+006 58689 252303,252355,252329
 6.6000e+001 252533 -4.3109e+005 -3.1659e+006 -9.6548e+005 58249 252432,252484,252458
 6.6000e+001 252510 -1.0650e+006 -5.9767e+006 -1.0735e+006 58249 252406,252484,252432
 6.6000e+001 252734 -2.8248e+005 -2.0817e+006  4.1327e+005 57902 252584,252662,252610
 6.6000e+001 252711  1.6945e+005 -4.4332e+006 -7.4868e+005 57902 252558,252662,252584
 6.6000e+001 252688 -2.4419e+005 -1.1355e+006 -8.1925e+004 57902 252610,252662,252636
 6.6000e+001 252886  3.2946e+003 -4.5820e+006 -3.3050e+003 57540 252785,252837,252811
 6.6000e+001 252863 -3.3293e+004 -4.4808e+006  1.5812e+004 57540 252759,252837,252785
 6.6000e+001 253038 -9.6506e+005 -5.9483e+006  1.5220e+006 57086 252937,252989,252963
 6.6000e+001 253015 -3.0654e+005 -1.4626e+006  5.9176e+005 57086 252911,252989,252937
 6.6000e+001 253239 -1.3467e+006 -8.1122e+006 -1.0687e+006 56796 253063,253141,253115
 6.6000e+001 253216  1.2865e+005 -9.0694e+006  9.3107e+005 56796 253063,253167,253141
 6.6000e+001 253193 -5.0256e+006 -4.5709e+006  3.8960e+005 56796 253063,253115,253089
 6.6000e+001 253342 -7.4318e+005 -1.7536e+007 -9.5969e+004 56349 253264,253316,253290
 6.6000e+001 253543 -2.6283e+005 -2.6565e+006 -1.2423e+006 56009 253367,253419,253393
 6.6000e+001 253520 -4.6885e+005 -1.1116e+006 -7.0071e+005 56009 253367,253445,253419
 6.6000e+001 253497 -4.4611e+005 -1.1571e+006 -6.8097e+005 56009 253367,253471,253445
 6.6000e+001 253695 -2.2075e+005 -9.1021e+005  4.0522e+005 55733 253594,253646,253620
 6.6000e+001 253672 -4.9724e+005 -2.9062e+005  3.5855e+005 55733 253568,253646,253594
 6.6000e+001 253798 -5.7268e+005 -1.6400e+006 -1.7656e+004 55557 253720,253772,253746
 6.6000e+001 253950 -5.7973e+005 -3.2711e+006  3.2688e+005 55153 253849,253901,253875
 6.6000e+001 253927  2.7134e+004 -3.7819e+006 -2.9839e+005 55153 253823,253901,253849
 6.6000e+001 254151 -9.8371e+005 -3.9358e+006  6.4091e+005 54863 253975,254053,254001
 6.6000e+001 254128 -5.9541e+005 -3.7248e+006  2.1081e+005 54863 253975,254079,254053
 6.6000e+001 254105 -7.1428e+005 -4.2741e+006  7.4990e+005 54863 254001,254053,254027
 6.6000e+001 254303 -1.2683e+005 -5.6718e+005  2.1562e+005 54373 254176,254228,254202
 6.6000e+001 254280 -2.5403e+005 -3.8763e+005  2.3222e+005 54373 254176,254254,254228
 6.6000e+001 254455 -5.0248e+003 -3.7476e+006 -3.8471e+005 53975 254354,254406,254380
 6.6000e+001 254432 -1.9834e+005 -8.1886e+005  1.0484e+005 53975 254328,254406,254354
 6.6000e+001 254607 -4.4882e+005 -4.6391e+006 -1.2680e+005 53585 254480,254532,254506
 6.6000e+001 254584 -1.8498e+005 -4.4374e+006 -2.7688e+005 53585 254480,254558,254532
 6.6000e+001 254808 -1.2089e+006 -3.2212e+006  2.9894e+005 53245 254658,254736,254684
 6.6000e+001 254785 -9.7377e+005 -8.8779e+005  2.4596e+005 53245 254632,254736,254658
 6.6000e+001 254762 -6.2549e+005 -2.1294e+006 -3.1738e+005 53245 254684,254736,254710
 6.6000e+001 254911 -1.2914e+005 -9.2798e+005 -2.5223e+005 52955 254833,254885,254859
 6.6000e+001 255063 -5.6956e+005 -6.4644e+006  2.9200e+004 52551 254962,255014,254988
 6.6000e+001 255040 -6.5838e+005 -6.8951e+006 -1.7294e+005 52551 254936,255014,254962
 6.6000e+001 255264 -1.0032e+006 -8.2001e+005 -4.4923e+005 52261 255114,255166,255140
 6.6000e+001 255241 -1.0057e+006 -1.8069e+006 -1.5614e+005 52261 255114,255192,255166
 6.6000e+001 255218 -4.6352e+006  1.6288e+005  1.7341e+006 52261 255088,255192,255114
 6.6000e+001 255416 -9.5207e+005 -5.4337e+006  2.2404e+006 51971 255289,255341,255315
 6.6000e+001 255393 -5.9183e+005 -4.7344e+006 -6.1830e+005 51971 255289,255367,255341
 6.6000e+001 255568 -1.7492e+005 -1.0767e+006 -4.8295e+005 51681 255441,255493,255467
 6.6000e+001 255545 -1.6440e+005 -9.3739e+005 -5.2037e+005 51681 255441,255519,255493
 6.6000e+001 255769 -2.2217e+005 -2.9503e+006  6.0739e+003 51291 255619,255697,255671
 6.6000e+001 255746 -1.9180e+005 -2.5972e+006 -2.5759e+005 51291 255593,255697,255619
 6.6000e+001 255723 -2.2426e+005 -5.1445e+006 -5.2786e+005 51291 255619,255671,255645
 6.6000e+001 255921 -5.4618e+005 -3.2858e+006  8.8100e+005 50951 255820,255872,255846
 6.6000e+001 255898 -1.0251e+005 -1.7895e+006  1.0259e+005 50951 255794,255872,255820
 6.6000e+001 256171 -1.0432e+006 -4.6269e+006  3.8119e+005 50547 256024,256076,256050
 6.6000e+001 256148 -8.7758e+005 -3.9055e+006  4.3256e+005 50547 255972,256076,256024
 6.6000e+001 256125 -1.8796e+005 -4.5022e+006 -4.4206e+003 50547 255946,256076,255972
 6.6000e+001 256102 -7.4319e+005 -3.7557e+006  3.4690e+005 50547 255972,256024,255998
 6.6000e+001 256323  1.5519e+005 -3.6458e+006  2.1345e+005 50093 256196,256248,256222
 6.6000e+001 256300 -9.2739e+005 -2.4750e+006 -7.2146e+005 50093 256196,256274,256248
 6.6000e+001 256426 -2.8315e+002 -9.2825e+001  2.1063e+001 49845 256348,256400,256374
 6.6000e+001 256627 -4.1558e+004 -5.1221e+006  1.5960e+005 49555 256477,256555,256503
 6.6000e+001 256604 -1.8493e+005 -3.3257e+006  2.1250e+005 49555 256451,256555,256477
 6.6000e+001 256581 -4.3640e+005 -4.4893e+006  3.9895e+005 49555 256503,256555,256529
 6.6000e+001 256828 -6.0204e+005 -2.4714e+006 -3.6689e+005 49056 256652,256730,256678
 6.6000e+001 256805 -5.6848e+005 -2.5547e+006 -3.8956e+005 49056 256652,256756,256730
 6.6000e+001 256782 -5.1231e+005 -3.0525e+006  2.6712e+004 49056 256678,256730,256704
 6.6000e+001 256931 -4.2876e+004 -1.5588e+005  2.5811e+004 48766 256853,256905,256879
 6.6000e+001 257083 -1.4104e+006 -4.6168e+006 -6.6960e+005 48568 256982,257034,257008
 6.6000e+001 257060 -6.5194e+005 -1.6378e+006 -1.4787e+005 48568 256956,257034,256982
 6.6000e+001 257186  1.9329e+003 -2.2472e+006 -1.0392e+003 48228 257108,257160,257134
 6.6000e+001 257338 -1.1418e+006 -4.2546e+005  2.0391e+005 47888 257237,257289,257263
 6.6000e+001 257315 -7.1922e+005 -2.6010e+006  1.7072e+006 47888 257211,257289,257237
 6.6000e+001 257539 -3.9100e+005 -2.8115e+006  3.7747e+004 47548 257363,257441,257415
 6.6000e+001 257516 -7.9778e+005 -2.6361e+006 -3.5019e+005 47548 257363,257467,257441
 6.6000e+001 257493 -8.5220e+005 -1.7310e+006 -1.7553e+005 47548 257363,257415,257389
 6.6000e+001 257740 -2.4035e+005 -4.2871e+006  3.8337e+005 46994 257564,257642,257616
 6.6000e+001 257717 -4.1331e+005 -3.3896e+006  3.9401e+004 46994 257564,257668,257642
 6.6000e+001 257694 -7.3483e+005 -4.3207e+006 -1.7445e+004 46994 257564,257616,257590
 6.6000e+001 257843 -3.8943e+005 -8.6279e+005 -3.8082e+005 46654 257765,257817,257791
 6.6000e+001 257995 -6.4082e+005 -2.1805e+006  4.1024e+005 46364 257894,257946,257920
 6.6000e+001 257972 -6.0808e+005 -2.4197e+006  2.7811e+005 46364 257868,257946,257894
 6.6000e+001 258147 -1.0910e+005 -2.7886e+006  1.2294e+005 46024 258046,258098,258072
 6.6000e+001 258124 -3.2731e+005 -2.1284e+006  3.4137e+005 46024 258020,258098,258046
 6.6000e+001 258250 -5.1027e+005 -9.3400e+005  4.7435e+005 45741 258172,258224,258198
 6.6000e+001 258402 -7.7292e+005 -2.4047e+006  5.8221e+005 45401 258301,258353,258327
 6.6000e+001 258379 -5.0680e+005 -2.0322e+006  7.6674e+005 45401 258275,258353,258301
 6.6000e+001 258603 -6.7740e+005 -1.4472e+006 -1.2268e+004 45071 258427,258505,258479
 6.6000e+001 258580 -2.6208e+005 -3.4938e+006  1.6716e+005 45071 258427,258531,258505
 6.6000e+001 258557 -3.0983e+005 -2.2729e+006  1.4974e+005 45071 258427,258479,258453
 6.6000e+001 258755 -2.4986e+005 -3.2575e+006 -4.6577e+005 44681 258654,258706,258680
 6.6000e+001 258732 -2.6366e+005 -3.0075e+006 -4.5154e+005 44681 258628,258706,258654
 6.6000e+001 258907 -4.2259e+005 -2.4603e+006 -9.3176e+004 44157 258806,258858,258832
 6.6000e+001 258884 -5.3115e+005 -2.2599e+006 -5.8613e+004 44157 258780,258858,258806
 6.6000e+001 259010 -5.3844e+005 -2.0317e+006 -7.4034e+004 43705 258932,258984,258958
 6.6000e+001 259113 -4.0904e+005 -2.8426e+006  2.3126e+005 43284 259035,259087,259061
 6.6000e+001 259216 -5.0189e+005 -3.7371e+006 -1.8884e+005 42954 259138,259190,259164
 6.6000e+001 259319 -6.3022e+005 -9.4483e+005 -6.1138e+004 42116 259241,259293,259267
 6.6000e+001 259422 -5.1576e+005 -4.8719e+006  8.6942e+005 41804 259344,259396,259370
 6.6000e+001 259525 -5.8452e+005 -5.3132e+006  7.0449e+005 41219 259447,259499,259473
 6.6000e+001 259628 -7.4129e+005 -1.8946e+006 -5.3015e+005 385 259550,259602,259576
 6.8000e+001 190120 -2.7995e+005 -1.8159e+006 -3.2382e+005 189630 189993,190045,190019
 6.8000e+001 190097 -6.3154e+005 -1.3614e+006 -2.0612e+005 189630 189993,190071,190045
 6.8000e+001 190319 -1.2793e+006 -5.2445e+006 -1.1664e+006 189312 190169,190221,190195
 6.8000e+001 190296 -3.7912e+005 -5.4679e+006 -8.5299e+005 189312 190169,190247,190221
 6.8000e+001 190273 -8.9433e+005 -4.9527e+006  2.1461e+005 189312 190143,190247,190169
 6.8000e+001 190518 -4.7772e+005  4.8895e+004  1.6069e+004 189124 190368,190446,190420
 6.8000e+001 190495 -5.6229e+005  2.1579e+004 -4.2870e+003 189124 190342,190446,190368
 6.8000e+001 190472 -9.8902e+005 -5.2818e+004 -4.8851e+004 189124 190368,190420,190394
 6.8000e+001 190619 -4.5050e+005 -4.5888e+004 -6.1494e+003 188926 190541,190593,190567
 6.8000e+001 190771 -4.8193e+005 -7.9089e+004  2.1008e+004 188614 190670,190722,190696
 6.8000e+001 190748 -5.6308e+005  1.6100e+005  5.8466e+004 188614 190644,190722,190670
 6.8000e+001 190972 -4.9694e+005 -5.0833e+005 -4.3451e+005 188324 190848,190900,190874
 6.8000e+001 190949 -4.3598e+005 -5.3233e+005 -4.4177e+005 188324 190796,190900,190848
 6.8000e+001 190926 -1.9086e+005 -2.2614e+005 -2.7335e+005 188324 190796,190848,190822
 6.8000e+001 191124 -7.1584e+005 -6.8179e+005 -1.4258e+005 188034 191023,191075,191049
 6.8000e+001 191101 -1.3233e+005 -8.3246e+005 -8.7312e+004 188034 190997,191075,191023
 6.8000e+001 191276 -1.6842e+005 -2.1558e+006 -1.5540e+005 187836 191149,191201,191175
 6.8000e+001 191253 -3.9760e+005 -1.1296e+006  3.8382e+005 187836 191149,191227,191201
 6.8000e+001 191379 -4.9700e+005 -1.0551e+006 -1.3949e+005 187546 191301,191353,191327
 6.8000e+001 191531 -3.5871e+005 -5.1616e+006  4.3563e+005 187256 191430,191482,191456
 6.8000e+001 191508 -1.2094e+006 -7.5296e+006 -2.4987e+006 187256 191404,191482,191430
 6.8000e+001 191634 -7.4177e+005  2.3966e+004 -1.8129e+004 187058 191556,191608,191582
 6.8000e+001 191835 -5.1185e+005  2.0075e+004 -2.1922e+004 186860 191659,191711,191685
 6.8000e+001 191812 -3.3192e+005 -1.0413e+005  8.9856e+003 186860 191659,191737,191711
 6.8000e+001 191789 -2.8959e+005 -6.7015e+003 -4.3727e+004 186860 191659,191763,191737
 6.8000e+001 191987 -1.9330e+005 -7.9219e+005 -2.1655e+005 186662 191886,191938,191912
 6.8000e+001 191964  1.1821e+005 -1.9795e+006  5.5950e+005 186662 191860,191938,191886
 6.8000e+001 192090 -5.8322e+005 -2.2910e+006 -4.2117e+005 186486 192012,192064,192038
 6.8000e+001 192242 -4.7684e+004 -1.1417e+007 -4.0239e+005 186288 192115,192167,192141
 6.8000e+001 192219 -1.0059e+006 -7.0130e+006  3.2295e+005 186288 192115,192193,192167
 6.8000e+001 192394  4.1007e+005 -9.4750e+006 -1.5939e+005 185935 192293,192345,192319
 6.8000e+001 192371 -6.9858e+005 -6.2211e+006 -9.0043e+005 185935 192267,192345,192293
 6.8000e+001 192546 -4.7211e+005 -3.0112e+006 -7.8881e+005 185675 192419,192471,192445
 6.8000e+001 192523 -9.8217e+005 -1.5703e+006 -8.8203e+005 185675 192419,192497,192471
 6.8000e+001 192649 -6.9965e+005 -2.5196e+006 -4.1565e+005 185499 192571,192623,192597
 6.8000e+001 192801 -2.8747e+005 -9.9370e+005  1.5467e+005 185301 192674,192726,192700
 6.8000e+001 192778 -2.7948e+005 -1.1365e+006  5.5975e+005 185301 192674,192752,192726
 6.8000e+001 193002 -9.8294e+004 -9.0228e+005 -4.7085e+005 185046 192852,192930,192878
 6.8000e+001 192979 -4.4348e+005 -2.1392e+006 -2.9277e+005 185046 192826,192930,192852
 6.8000e+001 192956  5.5034e+005 -2.7729e+006  6.2947e+004 185046 192878,192930,192904
 6.8000e+001 193203  3.3767e+005 -8.1092e+006 -1.0758e+006 184798 193079,193131,193105
 6.8000e+001 193180 -9.8786e+005 -4.7792e+006 -5.6664e+005 184798 193027,193131,193079
 6.8000e+001 193157 -8.5207e+005 -4.7853e+006  8.4178e+004 184798 193027,193079,193053
 6.8000e+001 193404 -2.4764e+005 -5.8540e+006 -1.6983e+006 184600 193254,193306,193280
 6.8000e+001 193381 -7.6342e+005 -1.7955e+006 -2.8663e+005 184600 193254,193332,193306
 6.8000e+001 193358 -1.0350e+006 -5.8859e+005 -5.7929e+005 184600 193228,193332,193254
 6.8000e+001 193556 -9.3964e+005 -3.0605e+005 -3.8231e+005 184402 193429,193481,193455
 6.8000e+001 193533 -4.9721e+005 -3.4943e+005 -3.4744e+005 184402 193429,193507,193481
 6.8000e+001 193708 -2.4290e+005 -2.0507e+006 -9.1463e+004 184204 193607,193659,193633
 6.8000e+001 193685 -4.6708e+005 -8.6207e+006 -1.7064e+006 184204 193581,193659,193607
 6.8000e+001 193860 -5.0408e+005 -6.1481e+005  3.5037e+005 183908 193759,193811,193785
 6.8000e+001 193837 -3.0647e+004 -1.2705e+006  4.1487e+005 183908 193733,193811,193759
 6.8000e+001 194061 -2.8967e+005 -3.7609e+005  2.2182e+005 183710 193911,193989,193937
 6.8000e+001 194038 -6.3336e+005 -1.0809e+006  5.4515e+005 183710 193885,193989,193911
 6.8000e+001 194015 -4.4200e+005 -1.3516e+006  4.5922e+005 183710 193937,193989,193963
 6.8000e+001 194262 -2.2368e+005 -3.0823e+006 -6.4399e+005 183420 194086,194164,194112
 6.8000e+001 194239 -1.8623e+005 -3.1931e+006 -1.0290e+006 183420 194086,194190,194164
 6.8000e+001 194216  6.7658e+005 -5.9302e+006  7.1882e+005 183420 194112,194164,194138
 6.8000e+001 194414 -7.1799e+005 -6.0877e+006 -7.4866e+005 183222 194287,194339,194313
 6.8000e+001 194391 -2.0324e+005 -2.8811e+006 -5.9268e+005 183222 194287,194365,194339
 6.8000e+001 194517 -9.5639e+005 -1.4599e+006 -2.0468e+005 183024 194439,194491,194465
 6.8000e+001 194718  2.0439e+006 -1.6236e+007  9.2087e+005 182734 194568,194620,194594
 6.8000e+001 194695 -1.2966e+006 -5.0365e+006 -3.9058e+006 182734 194542,194620,194568
 6.8000e+001 194672 -3.8711e+006 -2.4214e+006 -1.9753e+006 182734 194542,194646,194620
 6.8000e+001 194870 -5.7431e+005 -3.5421e+005  3.8898e+005 182444 194769,194821,194795
 6.8000e+001 194847 -5.9366e+005 -5.5861e+005  4.9795e+005 182444 194743,194821,194769
 6.8000e+001 195071 -2.7514e+005 -1.0812e+006  6.8568e+005 182154 194895,194947,194921
 6.8000e+001 195048 -3.0931e+005 -2.9471e+005  1.1649e+005 182154 194895,194999,194947
 6.8000e+001 195025 -2.6167e+005 -1.1060e+005  1.5982e+005 182154 194947,194999,194973
 6.8000e+001 195223 -3.5560e+005 -3.4390e+005 -1.7061e+005 181814 195096,195148,195122
 6.8000e+001 195200 -5.7615e+005 -1.8613e+006 -1.3412e+006 181814 195096,195174,195148
 6.8000e+001 195375 -1.1640e+004 -1.9333e+004 -1.0718e+004 181524 195248,195300,195274
 6.8000e+001 195352  6.5690e+003 -9.4159e+004 -5.6040e+002 181524 195248,195326,195300
 6.8000e+001 195527 -2.3778e+005 -6.9893e+004  3.7090e+005 181326 195426,195478,195452
 6.8000e+001 195504 -1.2947e+006 -9.0963e+005  1.0910e+006 181326 195400,195478,195426
 6.8000e+001 195679 -2.0350e+005 -9.3365e+006 -9.4335e+005 180936 195578,195630,195604
 6.8000e+001 195656 -4.0363e+005 -4.5372e+006 -6.4697e+005 180936 195552,195630,195578
 6.8000e+001 195831 -4.6036e+005 -3.7782e+005 -1.7913e+005 180646 195704,195756,195730
 6.8000e+001 195808 -7.3418e+005 -2.4684e+004  1.4831e+004 180646 195704,195782,195756
 6.8000e+001 196032 -2.0246e+005 -1.9156e+006  2.4604e+005 180306 195882,195960,195934
 6.8000e+001 196009 -1.8008e+005 -8.3694e+005 -1.5889e+005 180306 195856,195960,195882
 6.8000e+001 195986  6.4487e+003 -1.9961e+006  1.3740e+005 180306 195882,195934,195908
 6.8000e+001 196233 -4.4848e+005 -9.0440e+004 -9.5021e+005 179944 196057,196109,196083
 6.8000e+001 196210 -7.7461e+005 -1.8215e+006  1.0887e+005 179944 196057,196135,196109
 6.8000e+001 196187 -1.6432e+006  3.5781e+006 -1.1430e+006 179944 196057,196161,196135
 6.8000e+001 196385 -6.5461e+005 -6.8475e+005 -6.5052e+005 179604 196258,196310,196284
 6.8000e+001 196362 -5.9691e+005 -4.6766e+005 -6.2921e+005 179604 196258,196336,196310
 6.8000e+001 196586 -9.6116e+005 -6.2219e+005 -7.7420e+005 179114 196410,196488,196436
 6.8000e+001 196563 -7.7224e+005 -1.9733e+006 -7.3503e+005 179114 196410,196514,196488
 6.8000e+001 196540 -5.2031e+003 -5.6668e+005 -5.4881e+004 179114 196436,196488,196462
 6.8000e+001 196738 -7.8263e+005 -1.6551e+006 -8.0528e+005 178674 196611,196663,196637
 6.8000e+001 196715  5.7924e+004 -3.8406e+006 -2.2697e+005 178674 196611,196689,196663
 6.8000e+001 196939  1.8876e+006 -9.7325e+006 -2.2596e+006 178334 196789,196867,196841
 6.8000e+001 196916 -2.1545e+006 -1.0559e+007  1.7877e+005 178334 196763,196867,196789
 6.8000e+001 196893 -4.5483e+006 -4.9221e+006 -6.1544e+006 178334 196789,196841,196815
 6.8000e+001 197091 -3.8763e+005 -3.3019e+006 -6.1618e+005 177930 196990,197042,197016
 6.8000e+001 197068 -3.8996e+005 -3.1374e+006 -2.8534e+005 177930 196964,197042,196990
 6.8000e+001 197194 -8.1272e+001 -1.1124e+005 -1.1183e+002 177732 197116,197168,197142
 6.8000e+001 197346 -3.8425e+005 -4.6519e+006 -1.5773e+005 177534 197219,197271,197245
 6.8000e+001 197323  9.4015e+004 -6.2198e+006  6.8050e+005 177534 197219,197297,197271
 6.8000e+001 197547 -1.3034e+006 -6.9661e+006 -2.8470e+006 177130 197397,197449,197423
 6.8000e+001 197524 -2.5482e+006 -7.0890e+006 -3.0427e+006 177130 197397,197475,197449
 6.8000e+001 197501 -1.8596e+006 -1.0554e+007 -3.6925e+006 177130 197371,197475,197397
 6.8000e+001 197748 -3.4399e+005 -4.9537e+006  1.7454e+005 176790 197598,197676,197624
 6.8000e+001 197725 -1.2337e+005 -4.1750e+006  3.6173e+005 176790 197572,197676,197598
 6.8000e+001 197702 -2.5706e+005 -4.4435e+006  1.5666e+005 176790 197624,197676,197650
 6.8000e+001 197900 -3.0486e+005 -2.8597e+006 -4.8446e+005 176300 197773,197825,197799
 6.8000e+001 197877 -1.7178e+004 -4.3414e+006 -3.7175e+005 176300 197773,197851,197825
 6.8000e+001 198052 -4.7106e+005 -5.9419e+006 -1.0208e+006 176010 197925,197977,197951
 6.8000e+001 198029 -3.4445e+005 -4.4805e+006 -1.0670e+006 176010 197925,198003,197977
 6.8000e+001 198204 -1.4466e+006 -3.1925e+006 -1.2205e+006 175670 198103,198155,198129
 6.8000e+001 198181 -1.4073e+006 -1.3681e+006 -4.5464e+005 175670 198077,198155,198103
 6.8000e+001 198405 -3.7892e+004 -4.0540e+006 -6.3574e+005 175266 198255,198307,198281
 6.8000e+001 198382  4.4975e+004 -4.5305e+006 -1.0322e+006 175266 198229,198307,198255
 6.8000e+001 198359 -8.5944e+005 -3.6248e+006 -1.7120e+006 175266 198229,198333,198307
 6.8000e+001 198606  3.4368e+003 -5.5350e+004  4.1085e+003 174876 198430,198508,198482
 6.8000e+001 198583  2.3520e+004 -5.2366e+004  2.3928e+004 174876 198430,198534,198508
 6.8000e+001 198560 -1.4583e+003 -3.9820e+004 -6.0807e+002 174876 198430,198482,198456
 6.8000e+001 198758 -1.3647e+003  5.3342e+002  3.3508e+002 174536 198657,198709,198683
 6.8000e+001 198735 -1.3020e+003  7.0721e+002  2.6047e+002 174536 198631,198709,198657
 6.8000e+001 199008 -9.2292e+005 -5.3032e+006 -1.6774e+005 174132 198835,198913,198887
 6.8000e+001 198985 -7.3979e+005 -2.0973e+006  6.1491e+004 174132 198809,198913,198835
 6.8000e+001 198962 -7.2627e+005 -2.3107e+006 -1.3041e+006 174132 198783,198913,198809
 6.8000e+001 198939 -3.0492e+005 -5.8293e+006 -1.7135e+005 174132 198835,198887,198861
 6.8000e+001 199160 -7.3646e+005 -1.6166e+006 -3.6501e+005 173842 199059,199111,199085
 6.8000e+001 199137 -7.3462e+005 -1.2410e+006 -4.2402e+005 173842 199033,199111,199059
 6.8000e+001 199361 -8.1876e+005 -2.1817e+006  7.5505e+005 173438 199237,199289,199263
 6.8000e+001 199338  3.3542e+004 -3.4855e+006  8.0028e+005 173438 199211,199289,199237
 6.8000e+001 199315  1.3822e+005 -5.6337e+006 -9.9813e+005 173438 199185,199289,199211
 6.8000e+001 199513 -6.5573e+005 -4.0317e+006 -7.1313e+005 173190 199386,199438,199412
 6.8000e+001 199490 -1.5637e+006 -5.0639e+006  3.5459e+004 173190 199386,199464,199438
 6.8000e+001 199665 -6.6810e+005 -1.6113e+006  3.5966e+005 172750 199564,199616,199590
 6.8000e+001 199642 -1.1661e+006 -9.9932e+005  3.4299e+004 172750 199538,199616,199564
 6.8000e+001 199817 -9.9226e+004 -2.3865e+006 -8.2739e+005 172524 199690,199742,199716
 6.8000e+001 199794 -5.8708e+005 -1.1879e+006 -6.9150e+005 172524 199690,199768,199742
 6.8000e+001 199969 -4.0962e+003 -5.4437e+006 -1.5403e+005 172348 199842,199894,199868
 6.8000e+001 199946 -4.5464e+005 -5.5607e+006 -9.2614e+004 172348 199842,199920,199894
 6.8000e+001 200121  9.6211e+004 -1.6739e+006 -3.1151e+005 172008 199994,200046,200020
 6.8000e+001 200098 -1.9555e+005 -4.1021e+005 -1.5219e+005 172008 199994,200072,200046
 6.8000e+001 200273 -1.8303e+006 -7.6197e+006 -2.8506e+006 171668 200172,200224,200198
 6.8000e+001 200250 -1.2584e+006 -6.7596e+006 -2.1538e+006 171668 200146,200224,200172
 6.8000e+001 200474  2.5546e+005 -4.2130e+006 -5.8461e+005 171264 200350,200402,200376
 6.8000e+001 200451 -1.4634e+005 -4.6434e+006 -8.3521e+005 171264 200324,200402,200350
 6.8000e+001 200428 -2.7984e+005 -3.1736e+006  9.6167e+005 171264 200298,200402,200324
 6.8000e+001 200626 -1.0744e+006 -4.6705e+006 -7.9209e+005 170832 200525,200577,200551
 6.8000e+001 200603 -2.7635e+005 -2.9003e+006 -1.7892e+005 170832 200499,200577,200525
 6.8000e+001 200827 -3.1942e+004 -1.5021e+006  3.5085e+005 170492 200677,200729,200703
 6.8000e+001 200804 -9.7125e+005 -4.8999e+005 -4.3096e+005 170492 200651,200729,200677
 6.8000e+001 200781 -7.7954e+005 -9.8121e+005 -5.7839e+005 170492 200651,200755,200729
 6.8000e+001 201077  1.8113e+005 -7.0927e+005  1.6082e+004 170088 200878,200956,200904
 6.8000e+001 201054 -2.0665e+005 -9.2580e+005 -4.0337e+005 170088 200852,200956,200878
 6.8000e+001 201031  7.4159e+004 -5.7118e+005  7.1198e+005 170088 200904,200956,200930
 6.8000e+001 201008  7.8484e+005 -2.3360e+006  5.8238e+005 170088 200852,200982,200956
 6.8000e+001 201278 -1.0787e+005 -1.9216e+006 -8.8331e+005 169798 201102,201154,201128
 6.8000e+001 201255 -7.7734e+005 -3.3938e+006 -1.4631e+006 169798 201102,201206,201154
 6.8000e+001 201232 -6.3946e+005 -4.1685e+005  2.4333e+004 169798 201154,201206,201180
 6.8000e+001 201430 -8.2809e+004 -2.5804e+006 -6.6185e+005 169337 201303,201355,201329
 6.8000e+001 201407 -1.6351e+005 -7.9300e+005 -2.1001e+005 169337 201303,201381,201355
 6.8000e+001 201631 -8.4476e+005 -2.1440e+006 -5.7575e+004 168883 201481,201559,201507
 6.8000e+001 201608 -4.6136e+005 -1.7158e+006  2.3220e+005 168883 201455,201559,201481
 6.8000e+001 201585 -3.6255e+005 -7.8137e+005  3.1781e+005 168883 201507,201559,201533
 6.8000e+001 201832  2.0008e+005 -7.9541e+006  2.6652e+005 168479 201682,201734,201708
 6.8000e+001 201809 -2.0115e+006 -5.7284e+006 -1.6889e+006 168479 201656,201734,201682
 6.8000e+001 201786 -1.4462e+006 -3.4441e+006  5.2847e+005 168479 201656,201760,201734
 6.8000e+001 202033 -2.0067e+005 -2.5547e+006  2.0555e+005 167825 201883,201935,201909
 6.8000e+001 202010 -1.0904e+006 -3.4279e+006 -1.3659e+006 167825 201857,201935,201883
 6.8000e+001 201987  2.5722e+005 -8.9685e+006 -5.5570e+005 167825 201857,201961,201935
 6.8000e+001 202234 -1.5327e+006 -2.1554e+006 -1.1550e+006 167435 202058,202136,202084
 6.8000e+001 202211 -8.7589e+005 -3.2799e+006  1.3594e+005 167435 202058,202162,202136
 6.8000e+001 202188 -9.5500e+005 -1.0012e+006 -2.6306e+005 167435 202084,202136,202110
 6.8000e+001 202386  3.2307e+004 -1.3886e+006  1.4720e+005 167002 202285,202337,202311
 6.8000e+001 202363 -2.1378e+005 -3.3380e+005  1.9292e+005 167002 202259,202337,202285
 6.8000e+001 202538 -2.0154e+006 -3.3787e+006 -2.5368e+006 166662 202411,202463,202437
 6.8000e+001 202515 -1.3642e+006 -3.7302e+006 -2.9837e+006 166662 202411,202489,202463
 6.8000e+001 202690  1.6341e+004 -2.1326e+006 -9.5215e+005 166322 202589,202641,202615
 6.8000e+001 202667 -6.3258e+004 -8.1007e+005  1.2302e+004 166322 202563,202641,202589
 6.8000e+001 202891 -6.3581e+005 -3.4259e+005 -1.5329e+005 165918 202715,202767,202741
 6.8000e+001 202868 -7.5396e+005 -1.0630e+006 -6.6607e+005 165918 202715,202793,202767
 6.8000e+001 202845 -8.4487e+005 -1.9799e+006 -2.0297e+005 165918 202715,202819,202793
 6.8000e+001 203092  3.3208e+005 -3.0210e+006 -3.6158e+005 165628 202916,202968,202942
 6.8000e+001 203069 -5.5224e+005 -6.4554e+005 -4.5860e+005 165628 202916,202994,202968
 6.8000e+001 203046 -1.2191e+005 -7.6441e+005 -3.0466e+005 165628 202916,203020,202994
 6.8000e+001 203293 -4.0086e+006 -2.5667e+006 -3.0545e+006 165266 203143,203195,203169
 6.8000e+001 203270 -1.2433e+006 -5.9993e+006 -9.2152e+005 165266 203143,203221,203195
 6.8000e+001 203247 -8.1683e+005 -5.6048e+006 -5.6789e+005 165266 203117,203221,203143
 6.8000e+001 203445 -3.2008e+005 -9.5683e+005  2.3024e+005 164826 203318,203370,203344
 6.8000e+001 203422 -8.4992e+004 -6.6896e+005 -9.2813e+004 164826 203318,203396,203370
 6.8000e+001 203597 -2.2061e+005 -2.6809e+006 -1.6708e+004 164386 203470,203522,203496
 6.8000e+001 203574 -4.3139e+005 -2.7653e+006 -5.6105e+005 164386 203470,203548,203522
 6.8000e+001 203798 -6.1382e+004 -1.2140e+006  8.4213e+003 163996 203622,203674,203648
 6.8000e+001 203775 -7.5969e+005 -9.5022e+004 -9.9581e+004 163996 203622,203726,203674
 6.8000e+001 203752 -8.0840e+005 -3.3664e+005 -1.6393e+005 163996 203674,203726,203700
 6.8000e+001 203901 -4.1624e+005 -2.2300e+006 -3.6727e+005 163770 203823,203875,203849
 6.8000e+001 204053 -1.7336e+006 -3.5726e+006 -1.3857e+006 163474 203952,204004,203978
 6.8000e+001 204030 -1.7710e+006 -3.4789e+006 -1.2098e+006 163474 203926,204004,203952
 6.8000e+001 204205  3.6497e+005 -1.6836e+006 -7.5584e+005 163034 204104,204156,204130
 6.8000e+001 204182 -1.4208e+005 -1.1571e+006 -8.6681e+004 163034 204078,204156,204104
 6.8000e+001 204357 -9.4869e+004 -9.8473e+005  4.0379e+004 162624 204256,204308,204282
 6.8000e+001 204334  1.1323e+005 -2.8791e+005  1.5911e+005 162624 204230,204308,204256
 6.8000e+001 204509 -6.3511e+004 -1.9912e+004  2.8478e+004 162200 204382,204434,204408
 6.8000e+001 204486 -5.2256e+004 -4.7049e+004  6.1387e+004 162200 204382,204460,204434
 6.8000e+001 204710 -3.2648e+005 -1.4916e+004  1.4389e+005 161810 204560,204638,204586
 6.8000e+001 204687 -6.7173e+004 -2.7905e+005 -8.2682e+004 161810 204534,204638,204560
 6.8000e+001 204664 -3.5704e+005 -6.8725e+004  1.0171e+005 161810 204586,204638,204612
 6.8000e+001 204862 -1.1326e+006 -1.6795e+006 -4.8975e+005 161406 204735,204787,204761
 6.8000e+001 204839 -2.1282e+006 -4.5367e+005 -8.5656e+005 161406 204735,204813,204787
 6.8000e+001 205014 -7.1770e+002 -9.1491e+002  6.1131e+002 161180 204887,204939,204913
 6.8000e+001 204991 -3.4217e+001 -4.6374e+002  2.8786e+002 161180 204887,204965,204939
 6.8000e+001 205215 -9.5004e+005 -1.9146e+006 -1.7517e+006 160726 205039,205091,205065
 6.8000e+001 205192 -1.3755e+006 -3.8094e+006 -1.2288e+006 160726 205039,205143,205091
 6.8000e+001 205169 -1.5108e+006 -1.4731e+006 -1.2758e+006 160726 205091,205143,205117
 6.8000e+001 205416 -3.8981e+005 -1.8784e+005  2.7874e+005 160272 205292,205344,205318
 6.8000e+001 205393 -3.8681e+005 -1.1162e+005  2.8174e+005 160272 205240,205344,205292
 6.8000e+001 205370 -3.2140e+005 -2.4175e+005 -2.1727e+005 160272 205240,205292,205266
 6.8000e+001 205568 -4.7209e+002 -4.2466e+002  1.7315e+003 159932 205441,205493,205467
 6.8000e+001 205545  8.4543e+002 -1.2215e+003  2.6037e+002 159932 205441,205519,205493
 6.8000e+001 205720 -2.3549e+004 -2.9027e+004  2.9006e+004 159542 205593,205645,205619
 6.8000e+001 205697 -5.8164e+004 -6.2204e+004  5.5218e+004 159542 205593,205671,205645
 6.8000e+001 205872 -1.4987e+003 -3.4871e+002  9.6224e+002 159252 205745,205797,205771
 6.8000e+001 205849 -1.2407e+003  3.6093e+002  1.3135e+002 159252 205745,205823,205797
 6.8000e+001 206024 -8.0230e+005 -2.4162e+005 -6.6947e+004 159004 205923,205975,205949
 6.8000e+001 206001 -4.1312e+005 -4.7898e+005  4.0235e+005 159004 205897,205975,205923
 6.8000e+001 206127 -5.0388e+006 -4.2587e+006  2.3298e+003 158364 206049,206101,206075
 6.8000e+001 206328 -4.7075e+004 -1.4181e+004  3.0614e+004 157960 206178,206256,206204
 6.8000e+001 206305 -2.7802e+004 -1.9468e+004  2.3867e+004 157960 206152,206256,206178
 6.8000e+001 206282 -4.8020e+004 -2.0459e+004  2.9673e+004 157960 206204,206256,206230
 6.8000e+001 206529 -1.7790e+006 -7.0931e+006  1.2070e+006 157648 206405,206457,206431
 6.8000e+001 206506 -3.5699e+006 -3.5124e+006  7.1653e+005 157648 206379,206457,206405
 6.8000e+001 206483 -3.1325e+006 -2.7858e+006  1.5187e+006 157648 206353,206457,206379
 6.8000e+001 206730 -1.1138e+006 -3.1463e+005  5.8761e+005 157208 206554,206606,206580
 6.8000e+001 206707 -5.1674e+005 -1.7041e+005  2.7712e+005 157208 206554,206632,206606
 6.8000e+001 206684 -9.8457e+005 -2.8699e+005  2.8431e+005 157208 206554,206658,206632
 6.8000e+001 206882 -2.3556e+002 -8.1575e+002  9.3602e+002 157010 206755,206807,206781
 6.8000e+001 206859  3.6256e+002 -1.1439e+003  1.0326e+003 157010 206755,206833,206807
 6.8000e+001 207034  4.4124e+002 -1.2502e+002 -2.4139e+002 156620 206907,206959,206933
 6.8000e+001 207011  1.2876e+002 -4.5181e+002 -3.4140e+001 156620 206907,206985,206959
 6.8000e+001 207186 -1.4830e+003 -1.2942e+006  4.7662e+004 156330 207085,207137,207111
 6.8000e+001 207163 -1.1018e+005 -1.3696e+006 -4.7804e+005 156330 207059,207137,207085
 6.8000e+001 207387 -9.1310e+005 -2.4596e+006  1.0517e+005 155890 207211,207289,207237
 6.8000e+001 207364 -1.8791e+006 -2.7884e+006 -1.3666e+006 155890 207211,207315,207289
 6.8000e+001 207341 -6.1017e+005 -1.9920e+006  4.1410e+005 155890 207237,207289,207263
 6.8000e+001 207588 -5.0695e+005 -2.3257e+007  8.3325e+006 155436 207438,207490,207464
 6.8000e+001 207565 -1.4714e+006 -1.6737e+007 -1.1099e+006 155436 207412,207490,207438
 6.8000e+001 207542 -2.7090e+006 -9.4325e+006 -1.3873e+006 155436 207412,207516,207490
 6.8000e+001 207789  2.0045e+006 -3.4614e+007 -2.3075e+006 155260 207639,207691,207665
 6.8000e+001 207766 -4.1562e+006 -1.1346e+007  4.9684e+006 155260 207613,207691,207639
 6.8000e+001 207743 -1.0517e+006 -8.6681e+006 -1.1211e+004 155260 207613,207717,207691
 6.8000e+001 207990  1.4612e+002  5.6171e+002  2.1231e+002 154920 207840,207918,207892
 6.8000e+001 207967  3.5045e+001  6.7177e+001 -1.0371e+003 154920 207814,207918,207840
 6.8000e+001 207944  1.1273e+003  4.1511e+002  2.4800e+002 154920 207840,207892,207866
 6.8000e+001 208191 -6.0325e+004 -2.2342e+005  6.9550e+004 154630 208015,208093,208041
 6.8000e+001 208168 -6.2477e+003 -1.5922e+005  1.2822e+004 154630 208015,208119,208093
 6.8000e+001 208145 -1.8377e+004 -2.5580e+004 -2.9005e+004 154630 208041,208093,208067
 6.8000e+001 208343 -1.6038e+001  5.6681e+001  1.7987e+001 154240 208216,208268,208242
 6.8000e+001 208320  1.3425e+000  1.1228e+002  7.4784e+001 154240 208216,208294,208268
 6.8000e+001 208495  8.4923e+005 -9.1914e+006 -9.4862e+005 153950 208394,208446,208420
 6.8000e+001 208472 -1.2578e+006 -4.9419e+006  2.0034e+006 153950 208368,208446,208394
 6.8000e+001 208647 -2.0411e+006 -2.0839e+006  4.0911e+006 153603 208520,208572,208546
 6.8000e+001 208624 -1.8718e+006 -2.6741e+006 -1.5540e+006 153603 208520,208598,208572
 6.8000e+001 208848 -1.1828e+006 -4.4790e+004  4.4949e+005 153149 208698,208776,208724
 6.8000e+001 208825 -5.8171e+005 -1.9971e+005  3.1410e+005 153149 208672,208776,208698
 6.8000e+001 208802 -6.4496e+005 -4.6827e+005  5.4563e+005 153149 208724,208776,208750
 6.8000e+001 209000 -7.6130e+005 -2.3597e+006  1.0786e+005 152859 208873,208925,208899
 6.8000e+001 208977  2.5168e+005 -7.3589e+006  8.7117e+005 152859 208873,208951,208925
 6.8000e+001 209152  4.2055e+005 -4.2436e+006  4.4148e+005 152569 209051,209103,209077
 6.8000e+001 209129  7.6007e+005 -6.3907e+006 -7.3928e+005 152569 209025,209103,209051
 6.8000e+001 209304  1.3120e+001 -2.5839e+001 -2.5911e+000 152065 209177,209229,209203
 6.8000e+001 209281  1.8435e+001 -1.0264e+001 -7.2837e+000 152065 209177,209255,209229
 6.8000e+001 209456 -1.5233e+006 -2.9897e+006 -5.0560e+005 151775 209355,209407,209381
 6.8000e+001 209433 -1.0966e+006 -9.6733e+006 -7.9450e+005 151775 209329,209407,209355
 6.8000e+001 209608 -9.4132e+005 -6.4608e+006 -1.6723e+006 151371 209481,209533,209507
 6.8000e+001 209585  1.0048e+006 -1.1439e+007 -2.5910e+005 151371 209481,209559,209533
 6.8000e+001 209760 -4.8791e+004 -4.1400e+004  3.6934e+004 150981 209659,209711,209685
 6.8000e+001 209737 -5.6086e+004 -1.0905e+005 -8.9647e+004 150981 209633,209711,209659
 6.8000e+001 209912  2.5421e+006 -3.5418e+007 -3.0811e+006 150619 209811,209863,209837
 6.8000e+001 209889 -3.2234e+006 -1.5075e+007  3.9072e+006 150619 209785,209863,209811
 6.8000e+001 210064 -1.9566e+005 -3.8216e+005  2.3132e+005 150279 209937,209989,209963
 6.8000e+001 210041 -1.3995e+005 -5.4850e+005  1.8574e+005 150279 209937,210015,209989
 6.8000e+001 210265 -2.7919e+006 -8.0283e+006 -2.9692e+005 149989 210115,210167,210141
 6.8000e+001 210242 -2.8561e+005 -8.3456e+006 -9.5542e+005 149989 210115,210193,210167
 6.8000e+001 210219 -3.9011e+005 -9.5576e+006 -1.0626e+006 149989 210089,210193,210115
 6.8000e+001 210417 -2.7470e+005 -9.9000e+004  1.8100e+005 149599 210316,210368,210342
 6.8000e+001 210394  1.0755e+005 -8.2905e+005  1.8015e+005 149599 210290,210368,210316
 6.8000e+001 210618 -2.2429e+006 -1.4866e+007  3.8368e+006 149095 210468,210520,210494
 6.8000e+001 210595 -2.9867e+006 -1.5013e+007  3.4076e+006 149095 210442,210520,210468
 6.8000e+001 210572 -1.2341e+006 -1.8605e+007  3.3089e+006 149095 210442,210546,210520
 6.8000e+001 210819 -1.7258e+002  4.4096e+000 -3.9303e+001 148748 210695,210747,210721
 6.8000e+001 210796 -1.8249e+001  3.4214e+002  1.1455e+002 148748 210669,210747,210695
 6.8000e+001 210773  3.8760e+001  1.2771e+002 -1.9841e+001 148748 210643,210747,210669
 6.8000e+001 210971  1.0773e+002 -5.3530e+001 -1.6023e+002 148408 210870,210922,210896
 6.8000e+001 210948  3.2222e+002 -6.8286e+002  7.0249e+001 148408 210844,210922,210870
 6.8000e+001 211123 -4.4941e+005 -4.0191e+006  8.8389e+005 148118 210996,211048,211022
 6.8000e+001 211100 -1.9778e+006 -4.2286e+006  2.4538e+006 148118 210996,211074,211048
 6.8000e+001 211275 -1.1891e+006 -3.3939e+006  1.5677e+006 147778 211148,211200,211174
 6.8000e+001 211252 -2.1087e+006 -6.2861e+006  3.6416e+006 147778 211148,211226,211200
 6.8000e+001 211427 -1.0683e+006 -8.2977e+005  6.5463e+005 147324 211326,211378,211352
 6.8000e+001 211404  9.6641e+004 -2.0409e+006  5.1706e+005 147324 211300,211378,211326
 6.8000e+001 211628 -1.0885e+006 -1.0965e+006  4.3433e+005 147012 211452,211504,211478
 6.8000e+001 211605 -1.0388e+006  2.3732e+005  6.3912e+005 147012 211452,211556,211504
 6.8000e+001 211582 -7.4640e+005 -1.0548e+006  1.4963e+006 147012 211504,211556,211530
 6.8000e+001 211829 -2.0263e+006 -2.4987e+006  6.2459e+005 146636 211679,211757,211731
 6.8000e+001 211806  1.2765e+006 -4.4236e+006  7.3321e+005 146636 211653,211757,211679
 6.8000e+001 211783 -1.0113e+005 -4.5453e+006  3.7525e+006 146636 211679,211731,211705
 6.8000e+001 211981 -1.0563e+002  3.8048e+001 -1.5584e+001 146246 211880,211932,211906
 6.8000e+001 211958 -4.3134e+001 -4.6623e+000  3.0980e+001 146246 211854,211932,211880
 6.8000e+001 212133  2.7603e+002 -1.1752e+003 -1.5192e+002 145956 212006,212058,212032
 6.8000e+001 212110 -1.7323e+002 -5.3304e+002 -3.9859e+002 145956 212006,212084,212058
 6.8000e+001 212285  9.9342e+001 -1.0525e+002  1.3710e-001 145544 212184,212236,212210
 6.8000e+001 212262  8.9460e+001  9.3734e-001 -1.9838e+001 145544 212158,212236,212184
 6.8000e+001 212486 -1.3605e+006 -1.5817e+007  4.6800e+006 144990 212362,212414,212388
 6.8000e+001 212463  2.5373e+005 -1.3711e+007  6.0024e+006 144990 212310,212414,212362
 6.8000e+001 212440 -4.5522e+006 -2.5064e+006  2.7233e+006 144990 212310,212362,212336
 6.8000e+001 212638 -9.1690e+004 -3.6847e+005  1.4323e+005 144600 212537,212589,212563
 6.8000e+001 212615 -8.5938e+004 -3.3423e+005  1.5553e+005 144600 212511,212589,212537
 6.8000e+001 212839 -4.4602e+005 -2.0945e+006  7.3120e+005 144210 212689,212741,212715
 6.8000e+001 212816 -4.3763e+005 -2.0673e+006  6.9479e+005 144210 212663,212741,212689
 6.8000e+001 212793 -4.9052e+005 -2.3474e+006  8.8358e+005 144210 212663,212767,212741
 6.8000e+001 212991 -2.2890e+002 -7.3546e+001 -9.9056e+001 143920 212890,212942,212916
 6.8000e+001 212968  3.3461e+002  2.7641e+002  2.5985e+002 143920 212864,212942,212890
 6.8000e+001 213143  1.1007e+001 -2.4186e+002 -9.2817e+001 143480 213016,213068,213042
 6.8000e+001 213120 -3.4761e+001 -2.2575e+002 -1.0906e+002 143480 213016,213094,213068
 6.8000e+001 213295 -2.7324e+005 -2.1624e+006  8.8386e+005 142990 213194,213246,213220
 6.8000e+001 213272 -7.1837e+004 -1.0109e+006  6.5425e+005 142990 213168,213246,213194
 6.8000e+001 213447  1.3118e+005 -2.8297e+006  1.2582e+006 142600 213320,213372,213346
 6.8000e+001 213424 -5.5243e+005 -2.1696e+006  6.9261e+005 142600 213320,213398,213372
 6.8000e+001 213599 -2.4370e+004 -3.5018e+005  3.8225e+004 142260 213472,213524,213498
 6.8000e+001 213576 -1.1554e+005 -4.1690e+005  2.5780e+005 142260 213472,213550,213524
 6.8000e+001 213751 -2.2695e+005 -7.6357e+005 -3.8715e+005 141870 213624,213676,213650
 6.8000e+001 213728 -3.7171e+005 -6.6137e+005 -5.9971e+005 141870 213624,213702,213676
 6.8000e+001 213903 -8.7977e+005 -9.7932e+005 -9.2251e+005 141530 213776,213828,213802
 6.8000e+001 213880 -2.4603e+005 -1.1601e+006 -4.7492e+005 141530 213776,213854,213828
 6.8000e+001 214055 -2.4009e+006 -5.9849e+004  2.8618e+005 141218 213928,213980,213954
 6.8000e+001 214032 -1.4624e+006 -2.9756e+005  7.8113e+004 141218 213928,214006,213980
 6.8000e+001 214207  8.8826e+001  1.5532e+002  7.1091e+002 140928 214080,214132,214106
 6.8000e+001 214184 -4.7061e+002  2.4130e+002 -1.3310e+002 140928 214080,214158,214132
 6.8000e+001 214359 -3.3456e+004 -1.6569e+005  3.5449e+003 140538 214232,214284,214258
 6.8000e+001 214336 -9.6351e+004 -6.0400e+005  3.3719e+005 140538 214232,214310,214284
 6.8000e+001 214560 -3.8111e+005 -4.7729e+006  1.1202e+006 140248 214384,214462,214410
 6.8000e+001 214537 -1.5831e+004 -2.7095e+006  6.7448e+005 140248 214384,214488,214462
 6.8000e+001 214514 -3.7946e+005 -2.8654e+006 -7.5610e+004 140248 214410,214462,214436
 6.8000e+001 214712 -4.3078e+005 -1.2476e+006  3.8065e+005 140000 214611,214663,214637
 6.8000e+001 214689 -2.7894e+005 -1.1943e+006  5.5640e+005 140000 214585,214663,214611
 6.8000e+001 214913 -1.2086e+005 -1.1151e+006 -3.2555e+005 139596 214737,214815,214763
 6.8000e+001 214890 -4.4988e+004 -5.1094e+005 -1.2297e+005 139596 214737,214841,214815
 6.8000e+001 214867  5.1517e+005 -3.8484e+006  3.8054e+005 139596 214763,214815,214789
 6.8000e+001 215016  4.3523e+001 -5.1089e+002  2.1504e+002 139420 214938,214990,214964
 6.8000e+001 215168 -4.3826e+006 -1.0413e+007  6.8561e+006 139130 215067,215119,215093
 6.8000e+001 215145 -1.7788e+006 -1.2127e+007  3.0871e+006 139130 215041,215119,215067
 6.8000e+001 215320 -2.2884e+006 -5.9439e+006  3.7455e+006 138790 215219,215271,215245
 6.8000e+001 215297 -2.0936e+006 -1.0878e+007  5.5576e+006 138790 215193,215271,215219
 6.8000e+001 215472 -1.9790e+004 -1.8858e+005  6.9275e+004 138514 215345,215397,215371
 6.8000e+001 215449  6.4831e+003 -1.5987e+005  4.6891e+004 138514 215345,215423,215397
 6.8000e+001 215624 -2.5498e+005 -7.5701e+006  2.0088e+006 138174 215497,215549,215523
 6.8000e+001 215601 -3.7105e+005 -5.8690e+006  1.7377e+006 138174 215497,215575,215549
 6.8000e+001 215776  1.0401e+002  6.0046e-001 -2.7648e+002 137734 215649,215701,215675
 6.8000e+001 215753  8.6084e+001 -3.9897e+001 -1.8879e+002 137734 215649,215727,215701
 6.8000e+001 215977  6.4067e+005 -1.3811e+007  2.4097e+006 137344 215801,215879,215827
 6.8000e+001 215954 -1.8038e+006 -5.1111e+006 -2.5248e+006 137344 215801,215905,215879
 6.8000e+001 215931  7.0055e+005 -1.9051e+007 -2.9302e+006 137344 215827,215879,215853
 6.8000e+001 216129 -6.2398e+005 -2.5058e+006  5.4533e+005 136940 216028,216080,216054
 6.8000e+001 216106 -5.2500e+005 -3.7487e+006  1.2441e+006 136940 216002,216080,216028
 6.8000e+001 216330 -2.6525e+006 -7.6480e+006  1.7498e+006 136600 216180,216232,216206
 6.8000e+001 216307 -6.6553e+005 -7.2125e+006  2.5549e+006 136600 216154,216232,216180
 6.8000e+001 216284 -2.3756e+006 -3.3665e+006  3.9869e+005 136600 216154,216258,216232
 6.8000e+001 216482  2.3391e+005 -4.7609e+006  1.2224e+006 136260 216381,216433,216407
 6.8000e+001 216459 -1.3886e+004 -3.6549e+006  1.2419e+006 136260 216355,216433,216381
 6.8000e+001 216634 -4.9173e+005 -1.1702e+006  6.4072e+005 135970 216533,216585,216559
 6.8000e+001 216611 -2.6188e+005 -2.1686e+006  9.5900e+005 135970 216507,216585,216533
 6.8000e+001 216835 -1.2091e+005 -1.9213e+006  1.9052e+004 135608 216685,216763,216711
 6.8000e+001 216812 -1.2343e+005 -1.9587e+006 -3.4104e+004 135608 216659,216763,216685
 6.8000e+001 216789 -3.2563e+004 -1.2743e+006  1.1184e+004 135608 216711,216763,216737
 6.8000e+001 217036 -8.3144e+005 -1.6649e+006  7.1992e+005 135312 216912,216964,216938
 6.8000e+001 217013 -6.9385e+005 -3.7183e+006  1.8488e+006 135312 216886,216964,216912
 6.8000e+001 216990  4.3466e+005 -6.4620e+006  1.2645e+006 135312 216860,216964,216886
 6.8000e+001 217237 -9.2477e+004 -6.7906e+005  2.4515e+005 134908 217061,217139,217113
 6.8000e+001 217214 -1.7338e+005 -7.2245e+005  3.5122e+005 134908 217061,217165,217139
 6.8000e+001 217191 -1.1738e+005 -9.2611e+005  3.5433e+005 134908 217061,217113,217087
 6.8000e+001 217438 -8.1827e+005 -1.7736e+007 -1.0027e+006 134568 217288,217366,217314
 6.8000e+001 217415  2.0114e+005 -2.2171e+007 -1.9359e+006 134568 217262,217366,217288
 6.8000e+001 217392 -8.0819e+005 -2.2565e+007 -2.4307e+006 134568 217314,217366,217340
 6.8000e+001 217590 -4.7194e+003 -2.0337e+005  7.4179e+004 134106 217463,217515,217489
 6.8000e+001 217567 -2.6843e+004 -2.0742e+005  7.3891e+004 134106 217463,217541,217515
 6.8000e+001 217791 -1.9661e+006 -1.6674e+007 -6.5176e+006 133816 217641,217693,217667
 6.8000e+001 217768  6.4829e+006 -1.8219e+007 -2.1263e+006 133816 217641,217719,217693
 6.8000e+001 217745 -1.9691e+007 -1.1103e+007  1.4786e+007 133816 217615,217719,217641
 6.8000e+001 217992 -4.6200e+006 -4.8515e+006  4.9582e+006 133355 217842,217920,217894
 6.8000e+001 217969 -8.8687e+005 -1.0050e+007  3.2178e+006 133355 217816,217920,217842
 6.8000e+001 217946 -1.4424e+006 -2.7554e+006  1.2728e+006 133355 217842,217894,217868
 6.8000e+001 218193 -1.8864e+005 -7.3899e+006  8.8180e+005 132851 218017,218095,218069
 6.8000e+001 218170 -4.9974e+006 -7.8998e+006  6.9070e+006 132851 218017,218121,218095
 6.8000e+001 218147 -1.5429e+006 -2.8109e+006 -5.4008e+005 132851 218017,218069,218043
 6.8000e+001 218345 -2.2454e+004 -9.5946e+004  3.4313e+004 132511 218244,218296,218270
 6.8000e+001 218322 -1.5758e+004 -2.3947e+005  7.0231e+004 132511 218218,218296,218244
 6.8000e+001 218497  2.4452e+006 -2.7248e+007 -1.1816e+005 132235 218396,218448,218422
 6.8000e+001 218474 -3.0555e+004 -9.2871e+006  7.2458e+005 132235 218370,218448,218396
 6.8000e+001 218698 -1.0715e+004 -1.0882e+007 -2.8363e+006 131945 218574,218626,218600
 6.8000e+001 218675 -1.4539e+006 -2.1201e+007 -7.7481e+005 131945 218522,218626,218574
 6.8000e+001 218652 -2.9527e+006 -9.0136e+006 -3.3396e+006 131945 218522,218574,218548
 6.8000e+001 218850 -5.6837e+005 -1.7026e+007  7.3229e+005 131655 218723,218775,218749
 6.8000e+001 218827  2.2462e+005 -1.1496e+007  3.2914e+005 131655 218723,218801,218775
 6.8000e+001 218953 -3.0232e+002 -1.1860e+002 -1.3728e+002 131215 218875,218927,218901
 6.8000e+001 219105 -5.8472e+004 -1.4362e+006 -1.9375e+005 130875 218978,219030,219004
 6.8000e+001 219082 -6.4088e+004 -5.5865e+005 -3.0522e+004 130875 218978,219056,219030
 6.8000e+001 219306 -2.9978e+005 -9.9187e+005  1.1533e+005 130429 219156,219234,219208
 6.8000e+001 219283 -3.4925e+005 -6.1891e+005  1.8894e+005 130429 219130,219234,219156
 6.8000e+001 219260 -1.0156e+006 -1.2016e+006  6.1727e+005 130429 219156,219208,219182
 6.8000e+001 219507 -2.7462e+005 -9.6278e+005  3.8593e+005 130025 219383,219435,219409
 6.8000e+001 219484 -2.4471e+005 -1.2654e+006  5.2547e+005 130025 219331,219435,219383
 6.8000e+001 219461 -2.8277e+005 -7.2351e+005  2.8386e+005 130025 219331,219383,219357
 6.8000e+001 219659 -2.6903e+005 -1.7521e+006 -7.0412e+004 129685 219558,219610,219584
 6.8000e+001 219636 -1.5714e+004 -1.7382e+006 -1.6133e+005 129685 219532,219610,219558
 6.8000e+001 219860 -1.5684e+005 -6.4276e+005  4.4139e+005 129395 219710,219788,219762
 6.8000e+001 219837 -1.5412e+005 -9.3140e+005  4.2270e+005 129395 219684,219788,219710
 6.8000e+001 219814 -2.9826e+004 -9.5022e+005  2.1980e+005 129395 219710,219762,219736
 6.8000e+001 220061  1.4762e+004 -1.3392e+005  7.0694e+004 128991 219937,219989,219963
 6.8000e+001 220038  8.3177e+003 -2.4779e+005  4.8429e+004 128991 219885,219989,219937
 6.8000e+001 220015 -1.7690e+003 -3.1866e+005  9.9907e+004 128991 219885,219937,219911
 6.8000e+001 220262 -6.0336e+004 -6.4156e+004  1.3283e+004 128701 220086,220164,220112
 6.8000e+001 220239 -1.3244e+004 -2.3400e+005  8.9673e+004 128701 220086,220190,220164
 6.8000e+001 220216 -4.0380e+003 -5.3263e+004  1.4779e+004 128701 220112,220164,220138
 6.8000e+001 220463 -3.7497e+006 -9.2485e+006  4.4038e+006 128297 220339,220391,220365
 6.8000e+001 220440 -3.0519e+005 -1.2412e+007  3.7769e+006 128297 220313,220391,220339
 6.8000e+001 220417 -1.5019e+006 -1.8459e+007 -9.2415e+006 128297 220287,220391,220313
 6.8000e+001 220615  9.9807e+004 -6.2446e+005 -2.5993e+005 128007 220488,220540,220514
 6.8000e+001 220592  1.5227e+005 -2.1491e+006 -9.2817e+004 128007 220488,220566,220540
 6.8000e+001 220767  2.5909e+004 -4.7761e+006  9.5551e+004 127567 220640,220692,220666
 6.8000e+001 220744 -3.4140e+005 -1.7515e+006 -1.3744e+005 127567 220640,220718,220692
 6.8000e+001 220919 -1.7497e+006 -1.5007e+007 -2.3443e+006 127163 220792,220844,220818
 6.8000e+001 220896  1.0820e+005 -1.8435e+007  2.3577e+006 127163 220792,220870,220844
 6.8000e+001 221071 -2.7968e+006 -4.8250e+006  3.0625e+006 126915 220970,221022,220996
 6.8000e+001 221048 -2.6893e+006 -5.3390e+006  2.9291e+006 126915 220944,221022,220970
 6.8000e+001 221272 -1.7833e+006 -4.0878e+006  3.3711e+006 126461 221122,221174,221148
 6.8000e+001 221249 -5.2883e+005 -4.9563e+006 -8.3770e+004 126461 221122,221200,221174
 6.8000e+001 221226 -5.1518e+005 -3.9483e+006  4.3325e+005 126461 221096,221200,221122
 6.8000e+001 221375  3.0495e-001 -1.3547e+001 -6.3500e-002 126213 221297,221349,221323
 6.8000e+001 221478 -1.2606e-033  5.3468e-033  1.4196e-032 125766 221400,221452,221426
 6.8000e+001 221679 -2.0190e+004 -1.4469e+005  4.2945e+004 125212 221503,221555,221529
 6.8000e+001 221656 -1.0866e+004 -1.2884e+005  3.0852e+004 125212 221503,221581,221555
 6.8000e+001 221633 -2.3889e+004 -3.8705e+005  1.6405e+005 125212 221503,221607,221581
 6.8000e+001 221929 -6.4230e-001 -2.8298e-001 -3.5433e-001 124872 221782,221834,221808
 6.8000e+001 221906  2.2953e+000  6.9287e-001 -4.4125e-001 124872 221756,221834,221782
 6.8000e+001 221883  3.8847e-001 -6.4513e-001  1.2536e+000 124872 221704,221834,221756
 6.8000e+001 221860 -1.8112e+000  1.0042e+000 -6.4583e-001 124872 221704,221756,221730
 6.8000e+001 222130 -8.5522e+005 -7.7052e+006 -3.4142e+004 124582 221980,222058,222006
 6.8000e+001 222107 -1.6120e+006 -7.2314e+006  3.5851e+005 124582 221954,222058,221980
 6.8000e+001 222084 -2.4792e+006 -7.4032e+006 -6.8236e+005 124582 222006,222058,222032
 6.8000e+001 222282 -1.8646e+006 -6.5705e+006 -2.0303e+006 124192 222181,222233,222207
 6.8000e+001 222259 -1.0825e+006 -5.1027e+006 -6.8926e+005 124192 222155,222233,222181
 6.8000e+001 222483 -2.6205e+005 -1.2851e+006 -8.5634e+005 123702 222333,222385,222359
 6.8000e+001 222460 -1.0827e+005 -6.4148e+005 -1.7584e+005 123702 222333,222411,222385
 6.8000e+001 222437 -1.4207e+005 -5.7522e+005 -2.5103e+005 123702 222307,222411,222333
 6.8000e+001 222635 -4.8492e+004 -1.1818e+005  7.5283e+004 123312 222508,222560,222534
 6.8000e+001 222612 -4.6993e+004 -1.1617e+005  7.4243e+004 123312 222508,222586,222560
 6.8000e+001 222787 -2.1529e+000 -9.5874e-002  4.5432e-001 122858 222686,222738,222712
 6.8000e+001 222764  7.4531e-001  3.3191e-002 -1.5728e-001 122858 222660,222738,222686
 6.8000e+001 222939 -1.4046e+004 -3.4592e+005 -1.6661e+003 122568 222812,222864,222838
 6.8000e+001 222916  2.1734e+004 -2.0299e+005 -8.3869e+003 122568 222812,222890,222864
 6.8000e+001 223091 -8.2534e+005 -7.4810e+005  3.1077e+004 122392 222964,223016,222990
 6.8000e+001 223068 -3.4490e+005 -5.3811e+005 -1.3317e+005 122392 222964,223042,223016
 6.8000e+001 223292 -1.0506e+006 -1.8086e+006 -2.0266e+004 121852 223142,223220,223194
 6.8000e+001 223269 -3.8204e+006 -4.9968e+005  3.4469e+005 121852 223116,223220,223142
 6.8000e+001 223246 -4.4404e+006 -1.7528e+006 -3.7319e+006 121852 223142,223194,223168
 6.8000e+001 223493 -8.8499e+005 -3.2743e+005  5.5950e+005 121406 223343,223395,223369
 6.8000e+001 223470 -8.0574e+005 -2.2592e+005  4.6018e+005 121406 223343,223421,223395
 6.8000e+001 223447 -2.7055e+005 -3.2283e+005  2.2457e+005 121406 223317,223421,223343
 6.8000e+001 223645  3.2698e+005 -1.1507e+007  1.8402e+006 121002 223544,223596,223570
 6.8000e+001 223622 -1.1555e+006 -7.7682e+006  1.9012e+006 121002 223518,223596,223544
 6.8000e+001 223846  5.7483e+001 -1.3632e+002  1.1005e+002 120662 223670,223748,223696
 6.8000e+001 223823  1.2259e+002 -2.2853e+001  2.1288e+001 120662 223670,223774,223748
 6.8000e+001 223800  1.1577e+002 -9.0861e+001  7.7144e+001 120662 223696,223748,223722
 6.8000e+001 224047  3.2212e+001  5.2530e+001 -3.3168e+001 120222 223897,223949,223923
 6.8000e+001 224024 -1.5509e+002  1.0194e+000 -7.3209e+001 120222 223871,223949,223897
 6.8000e+001 224001  2.8105e+002 -2.9904e+002 -1.8112e+001 120222 223871,223975,223949
 6.8000e+001 224248  1.5237e+002 -1.6561e+003  3.7073e+002 119875 224124,224176,224150
 6.8000e+001 224225 -2.2498e+003 -1.9140e+002 -6.3831e+002 119875 224098,224176,224124
 6.8000e+001 224202 -2.7522e+003  7.8510e+002  3.7821e+002 119875 224072,224176,224098
 6.8000e+001 224449  1.2264e+000  6.8965e-002  2.6369e-001 119677 224325,224377,224351
 6.8000e+001 224426  1.4080e+000  9.7998e-001 -1.6439e+000 119677 224299,224377,224325
 6.8000e+001 224403 -1.1514e+001 -1.6758e+000  4.8185e+000 119677 224273,224377,224299
 6.8000e+001 224552  1.2588e-001 -5.1148e-002  1.7105e-002 119273 224474,224526,224500
 6.8000e+001 224704 -2.0716e+003 -9.6015e+003  4.4380e+003 118983 224603,224655,224629
 6.8000e+001 224681 -2.1397e+003 -9.4574e+003  4.5086e+003 118983 224577,224655,224603
 6.8000e+001 224856 -1.9691e+004  1.5209e+003  2.1009e+003 118529 224755,224807,224781
 6.8000e+001 224833  2.7632e+003 -2.1365e+004  5.7352e+003 118529 224729,224807,224755
 6.8000e+001 225008 -2.0725e-003  1.0830e-001 -1.0133e-001 118353 224881,224933,224907
 6.8000e+001 224985  1.5057e-001 -6.5553e-002  2.4839e-002 118353 224881,224959,224933
 6.8000e+001 225209 -7.2495e+005 -5.0840e+006 -1.1175e+006 117949 225059,225137,225111
 6.8000e+001 225186 -2.8443e+005 -3.9697e+006  6.0444e+005 117949 225033,225137,225059
 6.8000e+001 225163  2.8703e+005 -8.0253e+006  3.3941e+005 117949 225059,225111,225085
 6.8000e+001 225410  3.7368e+004 -6.9328e+006  6.9160e+005 117559 225260,225338,225312
 6.8000e+001 225387 -1.5720e+006 -7.3785e+006  4.8235e+005 117559 225234,225338,225260
 6.8000e+001 225364 -5.6701e+005 -4.9553e+006 -1.6764e+006 117559 225260,225312,225286
 6.8000e+001 225611 -1.2628e+006 -9.3888e+006 -3.3114e+006 117361 225461,225513,225487
 6.8000e+001 225588 -1.5012e+006 -1.0259e+007  1.4425e+006 117361 225461,225539,225513
 6.8000e+001 225565 -8.4158e+005 -1.0203e+007  1.5084e+006 117361 225435,225539,225461
 6.8000e+001 225812  3.6506e+005 -7.4699e+006 -6.1070e+005 116900 225636,225714,225662
 6.8000e+001 225789 -1.8164e+006 -3.2935e+006 -9.7868e+005 116900 225636,225740,225714
 6.8000e+001 225766 -1.3885e+003 -7.5779e+006 -9.6973e+004 116900 225662,225714,225688
 6.8000e+001 225964 -1.4967e+005 -4.8440e+006 -1.2407e+005 116560 225837,225889,225863
 6.8000e+001 225941  1.8086e+005 -6.3413e+006  1.9630e+005 116560 225837,225915,225889
 6.8000e+001 226165 -1.9311e+003 -5.0371e+002 -2.6678e+003 116106 226015,226093,226041
 6.8000e+001 226142 -4.0440e+002 -1.6661e+003 -6.4263e+002 116106 225989,226093,226015
 6.8000e+001 226119 -2.8429e+002  1.3868e+003 -9.8575e+001 116106 226041,226093,226067
 6.8000e+001 226268 -1.3587e+006 -4.9957e+006  6.5137e+005 115716 226190,226242,226216
 6.8000e+001 226420  1.1138e+005 -9.7541e+006  1.8417e+006 115376 226293,226345,226319
 6.8000e+001 226397 -2.4047e+005 -1.0324e+007  2.7369e+006 115376 226293,226371,226345
 6.8000e+001 226621 -7.5605e+005 -2.0726e+006  5.0835e+005 114972 226497,226549,226523
 6.8000e+001 226598 -4.5156e+005 -1.0601e+007 -3.3686e+005 114972 226445,226549,226497
 6.8000e+001 226575  2.0958e+005 -5.6159e+006  8.1467e+005 114972 226445,226497,226471
 6.8000e+001 226773 -1.5461e+006 -2.8454e+006 -1.2369e+006 114670 226646,226698,226672
 6.8000e+001 226750  5.1477e+005 -7.2045e+006  8.1090e+005 114670 226646,226724,226698
 6.8000e+001 226974  4.9921e+004 -2.4926e+006 -4.3952e+005 114082 226798,226850,226824
 6.8000e+001 226951  1.4879e+005 -3.4085e+006 -1.1484e+005 114082 226798,226902,226850
 6.8000e+001 226928  4.5661e+004 -4.6926e+006 -4.5008e+005 114082 226850,226902,226876
 6.8000e+001 227175 -7.3621e+005 -4.8344e+006 -2.3133e+006 113678 226999,227051,227025
 6.8000e+001 227152 -2.0893e+006 -8.7783e+006 -3.8771e+006 113678 226999,227077,227051
 6.8000e+001 227129 -2.9976e+006 -5.4381e+006 -3.3427e+006 113678 226999,227103,227077
 6.8000e+001 227425 -4.1206e+006 -8.3725e+006 -9.1902e+006 113274 227226,227278,227252
 6.8000e+001 227402 -7.0671e+005 -8.0032e+006 -2.1538e+006 113274 227226,227330,227278
 6.8000e+001 227379 -4.2779e+006 -4.9043e+006 -2.3911e+006 113274 227200,227330,227226
 6.8000e+001 227356 -1.8608e+006 -1.6314e+006 -1.9382e+006 113274 227278,227330,227304
 6.8000e+001 227626 -5.1334e+005 -3.7875e+006 -2.5026e+006 112934 227502,227554,227528
 6.8000e+001 227603  7.0590e+005 -2.7764e+006  1.0419e+005 112934 227450,227554,227502
 6.8000e+001 227580 -1.7475e+006 -2.0784e+005  8.4720e+005 112934 227450,227502,227476
 6.8000e+001 227876 -1.4523e+005 -1.7722e+006 -1.3586e+005 112437 227677,227755,227703
 6.8000e+001 227853 -1.0235e+006 -2.1571e+006  1.3299e+006 112437 227677,227781,227755
 6.8000e+001 227830 -2.1724e+005 -9.3835e+005  3.4785e+005 112437 227703,227755,227729
 6.8000e+001 227807 -3.7359e+005 -6.7044e+006 -2.6161e+005 112437 227651,227781,227677
 6.8000e+001 228126 -2.0085e+005 -4.1395e+006 -3.0857e+005 112041 227927,228005,227953
 6.8000e+001 228103 -2.9937e+005 -4.5229e+006 -5.4068e+005 112041 227927,228031,228005
 6.8000e+001 228080 -1.3046e+005 -4.9594e+006 -2.7656e+005 112041 227953,228005,227979
 6.8000e+001 228057 -5.5199e+005 -3.4778e+006 -6.9786e+005 112041 227901,228031,227927
 6.8000e+001 228327 -1.8847e+006 -3.1354e+006  5.6983e+004 111693 228151,228203,228177
 6.8000e+001 228304 -9.5575e+004 -2.0513e+006 -1.1059e+006 111693 228151,228229,228203
 6.8000e+001 228281  6.8961e+005 -5.0295e+006  1.0859e+006 111693 228151,228255,228229
 6.8000e+001 228479 -3.7263e+006 -2.1535e+006 -3.7085e+006 111253 228352,228404,228378
 6.8000e+001 228456 -2.3127e+006 -3.9870e+005 -4.9664e+004 111253 228352,228430,228404
 6.8000e+001 228582  1.9139e-002  1.2681e-002 -1.3461e-002 110906 228504,228556,228530
 6.8000e+001 228783 -1.0266e+004 -2.0417e+006 -2.4217e+004 110416 228633,228711,228659
 6.8000e+001 228760  8.7631e+004 -1.6686e+006  8.7755e+003 110416 228607,228711,228633
 6.8000e+001 228737  4.4173e+004 -2.1619e+006 -6.6667e+004 110416 228659,228711,228685
 6.8000e+001 228935 -2.1318e+004 -3.5611e+006 -9.2981e+005 110012 228808,228860,228834
 6.8000e+001 228912 -8.6814e+005 -6.2969e+006 -1.4761e+006 110012 228808,228886,228860
 6.8000e+001 229087 -1.1718e+006 -2.6433e+006 -1.5792e+006 109672 228960,229012,228986
 6.8000e+001 229064  4.3379e+005 -5.7220e+006 -7.3402e+005 109672 228960,229038,229012
 6.8000e+001 229190  7.2775e+001  3.3024e+002 -2.0008e+002 109332 229112,229164,229138
 6.8000e+001 229391 -2.1468e+005 -1.6694e+005  1.1706e+005 109156 229267,229319,229293
 6.8000e+001 229368 -2.1564e+005 -1.2283e+006  3.0383e+005 109156 229215,229319,229267
 6.8000e+001 229345 -1.0585e+005 -5.2690e+005  4.5409e+005 109156 229215,229267,229241
 6.8000e+001 229543  8.3817e+005 -9.8902e+006  1.3223e+006 108752 229416,229468,229442
 6.8000e+001 229520 -6.5858e+005 -4.2052e+006 -5.8323e+005 108752 229416,229494,229468
 6.8000e+001 229744 -9.5094e+004 -5.6916e+006  1.8000e+005 108198 229594,229646,229620
 6.8000e+001 229721  1.3153e+005 -5.6130e+006 -1.4182e+005 108198 229594,229672,229646
 6.8000e+001 229698 -3.5678e+005 -5.4936e+006 -1.1846e+005 108198 229568,229672,229594
 6.8000e+001 229847 -1.2997e+005 -1.7414e+006 -4.0206e+005 107758 229769,229821,229795
 6.8000e+001 230048 -7.6791e+005 -2.1719e+006 -2.4039e+005 107468 229898,229950,229924
 6.8000e+001 230025 -5.4775e+005 -1.7653e+006  4.9003e+005 107468 229872,229950,229898
 6.8000e+001 230002 -1.0930e+006 -1.8345e+006  5.1756e+005 107468 229872,229976,229950
 6.8000e+001 230298  6.0418e+004 -1.2749e+006  3.3372e+005 107121 230099,230203,230177
 6.8000e+001 230275 -1.7815e+005 -2.0073e+006  1.5242e+005 107121 230073,230203,230099
 6.8000e+001 230252  4.1748e+005 -1.4610e+006 -1.8774e+005 107121 230099,230177,230151
 6.8000e+001 230229 -1.7378e+005 -1.2605e+006 -4.6773e+005 107121 230099,230151,230125
 6.8000e+001 230450  6.2851e+004 -1.4778e+006 -2.0871e+004 106823 230349,230401,230375
 6.8000e+001 230427 -3.7257e+004 -1.1606e+006  3.5942e+004 106823 230323,230401,230349
 6.8000e+001 230602 -3.9281e+006 -1.1257e+007 -9.2991e+006 106533 230501,230553,230527
 6.8000e+001 230579  4.6084e+005 -1.3956e+007  3.0469e+006 106533 230475,230553,230501
 6.8000e+001 230803 -1.0211e+005 -2.4579e+006 -1.7819e+004 106029 230679,230731,230705
 6.8000e+001 230780  7.9192e+004 -1.7289e+006 -5.6666e+003 106029 230653,230731,230679
 6.8000e+001 230757  8.1789e+003 -2.1343e+006 -9.5772e+004 106029 230627,230731,230653
 6.8000e+001 231004 -1.4696e+005 -1.7305e+006  1.8265e+005 105689 230854,230906,230880
 6.8000e+001 230981  1.4810e+004 -2.0336e+006 -1.5723e+005 105689 230828,230906,230854
 6.8000e+001 230958 -6.5209e+005 -1.7303e+006 -4.0852e+005 105689 230828,230932,230906
 6.8000e+001 231156  3.5829e+005 -7.7217e+006 -3.8707e+005 105377 231055,231107,231081
 6.8000e+001 231133 -1.9885e+005 -4.8072e+006  4.5462e+005 105377 231029,231107,231055
 6.8000e+001 231406 -4.8350e+005 -8.4929e+006 -1.7648e+006 104858 231207,231259,231233
 6.8000e+001 231383 -1.2854e+006 -8.5664e+006 -1.8624e+006 104858 231207,231311,231259
 6.8000e+001 231360 -6.0742e+005 -1.0076e+007 -2.5114e+006 104858 231259,231311,231285
 6.8000e+001 231337 -3.4798e+005 -1.0048e+007 -2.1035e+006 104858 231181,231311,231207
 6.8000e+001 231558 -1.6697e+006 -1.7461e+007  3.2946e+006 104418 231457,231509,231483
 6.8000e+001 231535 -3.6118e+006 -1.7101e+007 -8.4727e+006 104418 231431,231509,231457
 6.8000e+001 231710 -2.0839e+006 -1.1754e+006 -4.0568e+005 103978 231583,231635,231609
 6.8000e+001 231687 -1.1213e+006 -1.3135e+006 -9.4165e+005 103978 231583,231661,231635
 6.8000e+001 231862 -4.5835e+005 -5.0049e+006 -2.4614e+005 103588 231761,231813,231787
 6.8000e+001 231839  8.0434e+004 -3.0477e+006  1.7009e+004 103588 231735,231813,231761
 6.8000e+001 232014 -2.1678e+006 -9.6225e+006 -3.4127e+006 103248 231887,231939,231913
 6.8000e+001 231991 -3.0126e+006 -1.8316e+007 -7.6624e+006 103248 231887,231965,231939
 6.8000e+001 232215 -1.0745e+002 -7.5303e+001  5.1234e+001 102844 232039,232117,232065
 6.8000e+001 232192 -1.1773e+002 -2.8885e+001  8.7628e+001 102844 232039,232143,232117
 6.8000e+001 232169 -5.5687e+001  4.3936e+001 -3.5882e+001 102844 232065,232117,232091
 6.8000e+001 232416 -4.0597e+006 -1.0196e+007 -5.2568e+006 102554 232240,232318,232292
 6.8000e+001 232393  9.3490e+005 -1.6748e+007 -1.2739e+006 102554 232240,232344,232318
 6.8000e+001 232370 -5.5766e+006 -3.0989e+006 -1.4115e+006 102554 232240,232292,232266
 6.8000e+001 232568 -6.8553e+004 -2.1218e+006  1.0345e+005 102100 232441,232493,232467
 6.8000e+001 232545 -3.6214e+005 -2.3155e+006  5.1154e+005 102100 232441,232519,232493
 6.8000e+001 232769 -9.9548e+004 -1.1595e+006  2.1294e+005 101596 232645,232697,232671
 6.8000e+001 232746  3.6083e+004 -6.3656e+005  1.1850e+005 101596 232593,232697,232645
 6.8000e+001 232723 -3.7149e+004 -1.1143e+006  2.0677e+005 101596 232593,232645,232619
 6.8000e+001 232921 -1.4960e+004 -6.6438e+003 -4.6778e+003 101420 232794,232846,232820
 6.8000e+001 232898 -9.6678e+003 -9.1025e+004 -2.6050e+004 101420 232794,232872,232846
 6.8000e+001 233073 -9.3003e+005 -1.4065e+006 -3.2627e+004 101023 232946,232998,232972
 6.8000e+001 233050 -1.1749e+004 -3.0214e+006  1.1932e+006 101023 232946,233024,232998
 6.8000e+001 233225  5.1257e-001 -2.8731e-001  1.2241e-001 100661 233098,233150,233124
 6.8000e+001 233202 -3.4647e-001 -1.1414e-001 -8.2032e-002 100661 233098,233176,233150
 6.8000e+001 233426 -1.8130e+006 -7.7692e+006 -2.6257e+006 100265 233276,233328,233302
 6.8000e+001 233403 -1.0909e+006 -6.9509e+006 -8.1141e+005 100265 233276,233354,233328
 6.8000e+001 233380 -1.5354e+006 -8.0770e+006 -1.2264e+006 100265 233250,233354,233276
 6.8000e+001 233578 -3.1202e+003 -1.1289e+006  5.9960e+004 100032 233451,233503,233477
 6.8000e+001 233555 -1.2587e+005 -1.1376e+006  2.2375e+005 100032 233451,233529,233503
 6.8000e+001 233681 -9.3317e+005  6.5269e+004 -1.4732e+005 99742 233603,233655,233629
 6.8000e+001 233784 -8.6120e+005 -2.5547e+006  1.6139e+005 99402 233706,233758,233732
 6.8000e+001 233936 -6.5133e+005 -1.9963e+006  5.9384e+005 99062 233835,233887,233861
 6.8000e+001 233913 -6.2796e+005 -1.8655e+006  4.4126e+005 99062 233809,233887,233835
 6.8000e+001 234088 -1.1322e+006 -3.0281e+006  1.1952e+006 98772 233987,234039,234013
 6.8000e+001 234065 -3.7976e+005 -2.9469e+006  9.5126e+005 98772 233961,234039,233987
 6.8000e+001 234240 -1.0343e+004 -1.0816e+005  2.4659e+004 98160 234139,234191,234165
 6.8000e+001 234217 -8.1866e+003 -1.1003e+005  1.0888e+004 98160 234113,234191,234139
 6.8000e+001 234441  8.4453e+001  6.3330e+001  3.6683e+001 97820 234317,234369,234343
 6.8000e+001 234418  8.6005e+001  7.3351e+001  6.2633e+001 97820 234291,234369,234317
 6.8000e+001 234395  1.7290e+002 -7.8576e+001  9.0714e+001 97820 234265,234369,234291
 6.8000e+001 234593 -1.6924e+005 -1.4962e+006 -1.8423e+005 97366 234466,234518,234492
 6.8000e+001 234570  8.3508e+004 -3.1961e+006 -1.6273e+005 97366 234466,234544,234518
 6.8000e+001 234794 -6.7883e+005 -1.0681e+006 -6.7676e+005 96976 234618,234670,234644
 6.8000e+001 234771 -1.5227e+005 -2.1444e+006 -5.4939e+005 96976 234618,234722,234670
 6.8000e+001 234748 -2.5608e+005 -1.8304e+006 -8.1736e+005 96976 234670,234722,234696
 6.8000e+001 234946 -6.2668e+005 -1.0700e+006  2.6841e+005 96568 234845,234897,234871
 6.8000e+001 234923 -3.3246e+005 -3.8221e+005  7.1495e+005 96568 234819,234897,234845
 6.8000e+001 235196 -1.4650e+005 -6.5502e+005 -1.8320e+005 96216 234997,235075,235049
 6.8000e+001 235173  6.7252e+004 -3.1633e+006  9.0441e+005 96216 234997,235101,235075
 6.8000e+001 235150 -3.3897e+005 -8.2323e+005  8.4643e+004 96216 234997,235049,235023
 6.8000e+001 235127 -1.4608e+005 -3.3181e+006  6.9633e+005 96216 234971,235101,234997
 6.8000e+001 235348 -1.5898e+006 -1.9066e+006 -1.6975e+006 95863 235247,235299,235273
 6.8000e+001 235325 -1.0394e+006 -1.4125e+006 -9.8273e+005 95863 235221,235299,235247
 6.8000e+001 235500 -9.4340e+005 -2.0917e+006 -7.8002e+005 95339 235373,235425,235399
 6.8000e+001 235477 -4.8186e+005 -3.0582e+006  2.5478e+006 95339 235373,235451,235425
 6.8000e+001 235701  7.5310e+004 -2.8727e+006  6.0997e+005 95023 235525,235577,235551
 6.8000e+001 235678 -1.2806e+005 -2.8337e+006  5.7445e+005 95023 235525,235629,235577
 6.8000e+001 235655 -1.3347e+005 -4.9165e+006  1.0095e+006 95023 235577,235629,235603
 6.8000e+001 235853  2.4913e+005 -1.4494e+007 -1.8179e+005 94671 235726,235778,235752
 6.8000e+001 235830  1.5035e+005 -1.5137e+007  3.0067e+005 94671 235726,235804,235778
 6.8000e+001 236005 -1.6124e+006 -8.0200e+006  6.5640e+005 94261 235904,235956,235930
 6.8000e+001 235982 -5.4332e+005 -1.2943e+007 -4.2384e+006 94261 235878,235956,235904
 6.8000e+001 236206 -9.5078e+005 -8.1577e+005  1.0739e+006 93853 236056,236134,236082
 6.8000e+001 236183 -1.5082e+006 -9.7397e+005  6.7415e+005 93853 236030,236134,236056
 6.8000e+001 236160 -1.1182e+006 -9.7533e+005  9.7490e+005 93853 236082,236134,236108
 6.8000e+001 236407 -1.8530e+006 -4.4008e+006  7.0163e+005 93557 236257,236309,236283
 6.8000e+001 236384 -3.1228e+006 -5.4105e+006 -2.6844e+006 93557 236231,236309,236257
 6.8000e+001 236361  1.3416e+006 -2.0280e+007  2.0389e+006 93557 236231,236335,236309
 6.8000e+001 236559 -1.5993e+003 -4.6939e+004  1.0630e+004 93149 236432,236484,236458
 6.8000e+001 236536  7.3926e+003 -1.7479e+004  1.7666e+004 93149 236432,236510,236484
 6.8000e+001 236711 -2.4449e+005 -2.3608e+005  1.9285e+005 92853 236584,236636,236610
 6.8000e+001 236688 -1.8855e+005 -3.7872e+005  2.0209e+005 92853 236584,236662,236636
 6.8000e+001 236912 -8.7823e+004 -1.8379e+006  5.9484e+005 92501 236736,236788,236762
 6.8000e+001 236889 -3.5136e+005 -9.5428e+005  1.1655e+005 92501 236736,236840,236788
 6.8000e+001 236866 -4.7676e+005 -1.6168e+006  4.1455e+004 92501 236788,236840,236814
 6.8000e+001 237113 -1.0269e+005 -4.9674e+006  1.9061e+005 92291 236963,237041,237015
 6.8000e+001 237090  1.8945e+005 -2.8238e+006  1.0026e+005 92291 236937,237041,236963
 6.8000e+001 237067 -2.2996e+005 -4.5203e+006  1.0190e+006 92291 236963,237015,236989
 6.8000e+001 237265  8.6868e+004 -7.5961e+005 -4.6167e+005 91871 237138,237190,237164
 6.8000e+001 237242 -4.9829e+005 -2.1224e+006 -9.1155e+005 91871 237138,237216,237190
 6.8000e+001 237368 -9.6896e+002 -1.9469e+006  6.6129e+002 91581 237290,237342,237316
 6.8000e+001 237520 -9.3275e+003 -5.2486e+004  2.2056e+004 91184 237419,237471,237445
 6.8000e+001 237497 -1.2879e+004 -2.9996e+004  4.2157e+004 91184 237393,237471,237419
 6.8000e+001 237672 -3.3536e+005 -1.0682e+006 -2.2215e+005 90894 237545,237597,237571
 6.8000e+001 237649 -1.5614e+005 -4.0765e+006  1.1490e+006 90894 237545,237623,237597
 6.8000e+001 237873 -7.3432e+005 -3.1025e+006  8.2416e+005 90490 237749,237801,237775
 6.8000e+001 237850 -4.2641e+005 -3.1410e+006  1.1027e+006 90490 237723,237801,237749
 6.8000e+001 237827 -1.0688e+006 -3.2890e+006 -6.4600e+005 90490 237697,237801,237723
 6.8000e+001 238074 -5.6179e+005 -6.2852e+006  3.5661e+005 90100 237898,237976,237950
 6.8000e+001 238051 -2.4846e+006 -6.0771e+006 -5.0732e+005 90100 237898,238002,237976
 6.8000e+001 238028 -5.6335e+005 -3.4275e+006  4.0342e+005 90100 237898,237950,237924
 6.8000e+001 238275 -2.2729e+004 -4.9346e+005  1.9950e+005 89696 238125,238177,238151
 6.8000e+001 238252 -6.7678e+005 -2.5913e+005 -4.8055e+005 89696 238099,238177,238125
 6.8000e+001 238229 -1.0231e+005 -2.1129e+006 -7.0284e+005 89696 238099,238203,238177
 6.8000e+001 238427 -6.5321e+002 -9.0330e+002 -1.1769e+003 89206 238326,238378,238352
 6.8000e+001 238404 -4.3132e+002 -2.2712e+003 -1.0944e+003 89206 238300,238378,238326
 6.8000e+001 238579 -7.1349e+005 -2.1110e+006  4.5014e+005 88908 238452,238504,238478
 6.8000e+001 238556 -4.3966e+004 -1.7819e+006  5.8661e+004 88908 238452,238530,238504
 6.8000e+001 238682 -4.5673e-001  7.6758e-002 -8.5168e-002 88568 238604,238656,238630
 6.8000e+001 238883  1.8106e+005 -4.6742e+006  1.5474e+006 88278 238733,238811,238785
 6.8000e+001 238860 -7.8664e+005 -2.0619e+006  1.3336e+006 88278 238707,238811,238733
 6.8000e+001 238837 -1.6776e+005 -5.0393e+006  9.1907e+005 88278 238733,238785,238759
 6.8000e+001 239035 -1.8225e+006 -4.7151e+006 -5.3345e+005 87988 238908,238960,238934
 6.8000e+001 239012 -2.0728e+006 -2.3810e+006  3.2470e+005 87988 238908,238986,238960
 6.8000e+001 239138 -5.7132e+004 -5.4114e+005  6.2227e+004 87648 239060,239112,239086
 6.8000e+001 239339 -1.9225e+006 -3.5139e+006 -2.6615e+006 87358 239163,239215,239189
 6.8000e+001 239316 -1.9024e+006 -1.7758e+006 -5.0802e+005 87358 239163,239241,239215
 6.8000e+001 239293 -1.1491e+006 -1.3559e+006 -8.3786e+005 87358 239163,239267,239241
 6.8000e+001 239589 -4.8843e+002 -1.3738e+004  2.4491e+003 86961 239390,239468,239416
 6.8000e+001 239566 -2.7445e+004 -6.7029e+003  2.2892e+004 86961 239390,239494,239468
 6.8000e+001 239543 -2.0936e+003 -5.8954e+002  7.8349e+002 86961 239416,239468,239442
 6.8000e+001 239520 -3.7979e+004 -8.6215e+003  1.9121e+004 86961 239364,239494,239390
 6.8000e+001 239741 -1.4206e+006 -1.7544e+006 -1.8916e+005 86621 239640,239692,239666
 6.8000e+001 239718 -4.9542e+005 -4.1572e+006 -1.8639e+006 86621 239614,239692,239640
 6.8000e+001 239893 -5.8399e+005 -3.9529e+006  1.2472e+006 86217 239792,239844,239818
 6.8000e+001 239870 -6.5094e+005 -3.2770e+006  9.3565e+005 86217 239766,239844,239792
 6.8000e+001 240045 -5.3263e+005 -3.4572e+006  3.4139e+005 85827 239918,239970,239944
 6.8000e+001 240022 -1.7004e+005 -3.3603e+006  1.8666e+005 85827 239918,239996,239970
 6.8000e+001 240197 -5.9812e+005 -6.0856e+006  8.8735e+005 85437 240096,240148,240122
 6.8000e+001 240174 -1.3061e+006 -2.8327e+005 -3.4515e+005 85437 240070,240148,240096
 6.8000e+001 240349  2.2878e+003 -3.1466e+005  8.2940e+004 85147 240222,240274,240248
 6.8000e+001 240326 -1.9101e+004 -2.0084e+005 -3.2969e+004 85147 240222,240300,240274
 6.8000e+001 240501 -8.6185e+004 -5.9197e+005  1.8673e+005 84807 240374,240426,240400
 6.8000e+001 240478 -1.1452e+006 -1.9924e+006  1.5147e+006 84807 240374,240452,240426
 6.8000e+001 240653  8.3910e+002  4.4868e+002  5.8106e+002 84303 240552,240604,240578
 6.8000e+001 240630  2.8959e+002  3.8059e+002 -4.6143e+002 84303 240526,240604,240552
 6.8000e+001 240854 -3.5283e+005 -9.3649e+006 -4.8182e+006 83929 240704,240756,240730
 6.8000e+001 240831  1.4109e+006 -7.3395e+006  2.2475e+006 83929 240704,240782,240756
 6.8000e+001 240808 -2.9579e+006  1.8907e+006  2.4537e+006 83929 240678,240782,240704
 6.8000e+001 241055  3.7757e+001  6.9444e+002  4.9200e+001 83539 240879,240957,240931
 6.8000e+001 241032 -2.5572e+003 -5.6470e+002  1.2556e+003 83539 240879,240983,240957
 6.8000e+001 241009 -1.6245e+003 -2.6943e+003  1.3900e+003 83539 240879,240931,240905
 6.8000e+001 241207 -1.9708e+003 -2.7020e+005  3.6887e+004 83079 241106,241158,241132
 6.8000e+001 241184 -4.0089e+004 -2.7287e+005  1.7678e+004 83079 241080,241158,241106
 6.8000e+001 241408 -3.4183e+005 -1.5091e+006 -1.1237e+006 82665 241232,241284,241258
 6.8000e+001 241385 -5.3267e+005 -8.8384e+005 -3.3913e+006 82665 241232,241336,241284
 6.8000e+001 241362 -3.4620e+006 -1.1315e+007  5.8544e+006 82665 241284,241336,241310
 6.8000e+001 241658 -2.3019e+005 -3.7682e+006  5.1255e+005 82375 241485,241563,241511
 6.8000e+001 241635 -1.5030e+004 -2.1323e+006  2.0804e+005 82375 241433,241563,241485
 6.8000e+001 241612 -1.0727e+005 -2.5360e+006  1.9291e+005 82375 241433,241485,241459
 6.8000e+001 241589 -5.9828e+005 -4.1607e+006  7.4063e+005 82375 241511,241563,241537
 6.8000e+001 241810 -9.7254e+005 -2.1027e+006 -5.7543e+005 82035 241683,241735,241709
 6.8000e+001 241787 -1.2941e+006 -3.2600e+006  9.5054e+005 82035 241683,241761,241735
 6.8000e+001 241962 -1.0760e+006 -2.4791e+006  7.3122e+005 81695 241861,241913,241887
 6.8000e+001 241939 -3.3559e+005 -3.3563e+006 -9.9404e+005 81695 241835,241913,241861
 6.8000e+001 242114 -1.1380e+006 -5.2817e+006  1.8513e+006 81355 242013,242065,242039
 6.8000e+001 242091 -3.0023e+005 -2.6178e+006  8.2659e+005 81355 241987,242065,242013
 6.8000e+001 242266  1.2438e+002 -2.5875e+005  1.5315e+004 80951 242139,242191,242165
 6.8000e+001 242243 -1.1231e+003 -2.6368e+005  1.5014e+004 80951 242139,242217,242191
 6.8000e+001 242467 -4.0727e+005 -4.7120e+006  5.3645e+005 80311 242291,242369,242343
 6.8000e+001 242444  1.4875e+005 -2.3543e+006  4.1123e+005 80311 242291,242395,242369
 6.8000e+001 242421 -1.6319e+005 -1.1687e+006  2.0499e+005 80311 242291,242343,242317
 6.8000e+001 242619 -1.3875e+006 -2.5151e+006  4.7230e+005 80021 242492,242544,242518
 6.8000e+001 242596 -1.3414e+006 -2.3857e+006  1.4812e+006 80021 242492,242570,242544
 6.8000e+001 242869 -3.4065e+004 -8.2505e+004  1.2946e+003 79631 242644,242722,242696
 6.8000e+001 242846  1.1891e+004 -3.3041e+005  5.9099e+004 79631 242644,242774,242722
 6.8000e+001 242823  4.9269e+004 -1.6010e+005  7.0986e+004 79631 242722,242774,242748
 6.8000e+001 242800 -2.9190e+004 -1.0057e+005  4.4060e+004 79631 242644,242696,242670
 6.8000e+001 243070 -3.1485e+005 -1.4094e+007  3.6082e+006 79341 242920,242972,242946
 6.8000e+001 243047 -8.2979e+005 -6.4778e+006 -3.2756e+005 79341 242920,242998,242972
 6.8000e+001 243024 -7.7291e+005 -4.0707e+006  1.7739e+006 79341 242894,242998,242920
 6.8000e+001 243222 -4.6411e+005 -3.2304e+006  1.4229e+006 78801 243121,243173,243147
 6.8000e+001 243199 -4.0932e+005 -3.1480e+006  1.2475e+006 78801 243095,243173,243121
 6.8000e+001 243423 -1.0326e+006 -4.0240e+006 -4.0289e+005 78511 243273,243325,243299
 6.8000e+001 243400  6.4464e+005 -8.0232e+006  1.6234e+006 78511 243273,243351,243325
 6.8000e+001 243377 -3.6547e+003 -8.2637e+006  1.8041e+005 78511 243247,243351,243273
 6.8000e+001 243624 -4.8071e+005 -4.0801e+006 -1.4881e+006 78107 243474,243552,243526
 6.8000e+001 243601 -6.2167e+005 -4.8017e+006 -1.5053e+006 78107 243448,243552,243474
 6.8000e+001 243578 -2.2065e+005 -3.4124e+006 -8.7998e+005 78107 243474,243526,243500
 6.8000e+001 243776 -8.8446e+005 -4.7707e+006 -1.2181e+006 77653 243649,243701,243675
 6.8000e+001 243753 -1.5582e+006 -6.3303e+006 -6.3764e+005 77653 243649,243727,243701
 6.8000e+001 243977 -3.7410e+005 -5.4730e+006  3.2218e+004 77093 243801,243853,243827
 6.8000e+001 243954 -8.1505e+004 -4.6120e+006  6.7814e+005 77093 243801,243879,243853
 6.8000e+001 243931 -3.8003e+005 -1.7260e+006 -1.9415e+005 77093 243801,243905,243879
 6.8000e+001 244080 -6.4554e+005 -7.3088e+006  3.8970e+005 76791 244002,244054,244028
 6.8000e+001 244232 -2.6627e+005 -3.8547e+006  1.9639e+004 76311 244131,244183,244157
 6.8000e+001 244209 -1.9873e+005 -7.9627e+006  4.7885e+005 76311 244105,244183,244131
 6.8000e+001 244433 -2.3102e+005 -1.6347e+007  4.8413e+006 75903 244283,244335,244309
 6.8000e+001 244410 -1.4803e+006 -8.8506e+006 -8.1952e+005 75903 244283,244361,244335
 6.8000e+001 244387 -1.5729e+006 -8.5372e+006 -5.9664e+005 75903 244257,244361,244283
 6.8000e+001 244585  3.9226e+005 -1.6063e+007  1.3880e+006 75419 244458,244510,244484
 6.8000e+001 244562 -8.2734e+005 -7.8211e+006 -4.8977e+005 75419 244458,244536,244510
 6.8000e+001 244737 -3.8078e+005 -4.8809e+005 -1.7000e+005 75215 244636,244688,244662
 6.8000e+001 244714 -1.9491e+005 -4.2627e+006 -1.5526e+005 75215 244610,244688,244636
 6.8000e+001 244889 -8.8435e+005 -5.1004e+006 -4.5288e+005 74857 244788,244840,244814
 6.8000e+001 244866 -7.3347e+004 -1.9639e+006 -2.1748e+005 74857 244762,244840,244788
 6.8000e+001 245041 -1.6668e+005 -1.2769e+006 -7.0307e+005 74653 244940,244992,244966
 6.8000e+001 245018 -2.1248e+005 -2.8987e+005  5.7509e+005 74653 244914,244992,244940
 6.8000e+001 245144 -1.5088e+006 -5.2712e+006 -1.3023e+006 74359 245066,245118,245092
 6.8000e+001 245296 -7.1567e+003 -7.1546e+005 -2.3748e+005 74007 245169,245221,245195
 6.8000e+001 245273 -1.5384e+005 -1.2407e+006 -3.2231e+005 74007 245169,245247,245221
 6.8000e+001 245448 -1.4867e+006 -5.8117e+006  6.0856e+005 73711 245321,245373,245347
 6.8000e+001 245425 -8.6161e+005 -5.6279e+006 -1.2060e+006 73711 245321,245399,245373
 6.8000e+001 245600  7.0720e+005 -1.1801e+007 -8.4262e+005 73301 245499,245551,245525
 6.8000e+001 245577 -1.3652e+006 -8.1610e+006  1.9753e+006 73301 245473,245551,245499
 6.8000e+001 245752 -2.0072e+006 -2.9773e+006 -1.8455e+006 72995 245625,245677,245651
 6.8000e+001 245729  4.2991e+005 -1.1318e+007 -1.3796e+006 72995 245625,245703,245677
 6.8000e+001 245953 -1.3369e+006 -9.4046e+006  4.5795e+005 72585 245777,245829,245803
 6.8000e+001 245930 -5.9300e+005 -1.3931e+007  2.5161e+006 72585 245777,245855,245829
 6.8000e+001 245907 -1.0358e+006 -5.3763e+006 -2.2576e+005 72585 245777,245881,245855
 6.8000e+001 246154 -4.2857e+005 -6.5888e+006  1.2085e+006 72127 246030,246082,246056
 6.8000e+001 246131 -8.9749e+005 -7.6252e+006  6.8850e+005 72127 245978,246082,246030
 6.8000e+001 246108 -1.0834e+005 -7.7804e+006  2.8494e+005 72127 245978,246030,246004
 6.8000e+001 246257 -1.7935e+006 -2.6609e+005 -5.0428e+004 71737 246179,246231,246205
 6.8000e+001 246360  1.4355e+005 -2.9436e+006  4.8985e+005 71447 246282,246334,246308
 6.8000e+001 246512 -8.0784e+004 -2.6878e+006  1.0091e+006 71157 246385,246437,246411
 6.8000e+001 246489 -7.5938e+004 -2.0936e+006 -1.1302e+005 71157 246385,246463,246437
 6.8000e+001 246664 -1.5858e+005 -2.2026e+006 -3.4685e+005 70753 246537,246589,246563
 6.8000e+001 246641 -5.9633e+005 -1.1873e+006 -1.4885e+005 70753 246537,246615,246589
 6.8000e+001 246865 -1.4818e+006 -8.0164e+006  4.9825e+006 70249 246715,246767,246741
 6.8000e+001 246842 -1.9936e+006 -7.4846e+006 -6.4945e+005 70249 246715,246793,246767
 6.8000e+001 246819  7.0111e+004 -1.1270e+007 -2.7732e+006 70249 246689,246793,246715
 6.8000e+001 247066 -3.7145e+004 -1.9603e+006  3.0526e+005 70023 246916,246994,246942
 6.8000e+001 247043 -3.4902e+004 -1.9211e+006  3.2426e+005 70023 246890,246994,246916
 6.8000e+001 247020  7.1762e+003 -1.7996e+006  3.2738e+005 70023 246942,246994,246968
 6.8000e+001 247267 -2.7718e+005 -3.4260e+006 -1.6036e+005 69633 247091,247143,247117
 6.8000e+001 247244 -6.1525e+004 -2.3956e+006 -3.4847e+004 69633 247091,247169,247143
 6.8000e+001 247221  4.0468e+004 -2.6437e+006 -2.0632e+005 69633 247091,247195,247169
 6.8000e+001 247419 -1.1256e+006 -5.2043e+006  6.5468e+005 69457 247318,247370,247344
 6.8000e+001 247396 -1.1827e+006 -2.8578e+006  9.2601e+005 69457 247292,247370,247318
 6.8000e+001 247522  3.6099e+000 -2.0876e+001 -2.0565e-001 69209 247444,247496,247470
 6.8000e+001 247625 -1.6638e+006 -2.1597e+006 -1.3497e+006 68919 247547,247599,247573
 6.8000e+001 247777  1.3390e+005 -6.8012e+006 -2.0823e+005 68579 247650,247702,247676
 6.8000e+001 247754 -1.4615e+005 -1.8987e+006 -1.2992e+005 68579 247650,247728,247702
 6.8000e+001 247929 -2.2007e+004 -3.0329e+006  9.0625e+005 68289 247802,247854,247828
 6.8000e+001 247906 -2.7627e+005 -1.5046e+006 -4.6575e+005 68289 247802,247880,247854
 6.8000e+001 248081 -6.1649e+005 -4.7129e+006  1.5699e+006 67949 247980,248032,248006
 6.8000e+001 248058 -7.5275e+005 -5.8108e+005  3.2345e+005 67949 247954,248032,247980
 6.8000e+001 248233 -2.1110e+006 -5.2725e+006 -7.1029e+005 67616 248132,248184,248158
 6.8000e+001 248210 -5.2239e+005 -5.9258e+006 -3.0305e+005 67616 248106,248184,248132
 6.8000e+001 248434 -1.3853e+005 -4.3089e+006 -1.9096e+005 67212 248284,248336,248310
 6.8000e+001 248411 -1.7015e+005 -4.3350e+006 -2.5550e+005 67212 248258,248336,248284
 6.8000e+001 248388 -1.5893e+006 -2.2256e+006 -5.8707e+005 67212 248258,248362,248336
 6.8000e+001 248586 -3.7482e+004 -5.2934e+006  9.9535e+005 66872 248485,248537,248511
 6.8000e+001 248563 -6.1283e+005 -7.5324e+005  1.1680e+005 66872 248459,248537,248485
 6.8000e+001 248738 -2.8821e+005 -4.9411e+006  1.2533e+005 66510 248637,248689,248663
 6.8000e+001 248715 -3.9732e+005 -7.7064e+006  1.8413e+005 66510 248611,248689,248637
 6.8000e+001 248890 -2.0257e+004 -5.2770e+005  1.0307e+005 66220 248789,248841,248815
 6.8000e+001 248867 -4.1265e+004 -6.8200e+005 -2.0157e+005 66220 248763,248841,248789
 6.8000e+001 249091 -1.1486e+006 -9.1312e+006  1.1353e+006 65759 248915,248967,248941
 6.8000e+001 249068 -8.5649e+005 -5.8186e+006  1.9103e+006 65759 248915,248993,248967
 6.8000e+001 249045 -4.7648e+005 -4.1575e+006  1.9627e+005 65759 248915,249019,248993
 6.8000e+001 249243 -1.4763e+005 -7.9708e+006  1.7398e+006 65419 249142,249194,249168
 6.8000e+001 249220  1.5404e+005 -2.5709e+006  6.3027e+005 65419 249116,249194,249142
 6.8000e+001 249395 -1.9447e+005 -1.6748e+006 -3.3704e+004 65079 249268,249320,249294
 6.8000e+001 249372 -2.3823e+005 -3.4945e+006 -5.1494e+005 65079 249268,249346,249320
 6.8000e+001 249547 -1.2523e+006 -3.3871e+006  1.2415e+006 64739 249420,249472,249446
 6.8000e+001 249524  2.7566e+005 -2.3181e+006 -4.7347e+005 64739 249420,249498,249472
 6.8000e+001 249650 -1.6070e+006 -3.2956e+006 -1.8414e+006 64342 249572,249624,249598
 6.8000e+001 249851 -9.9915e+004 -2.5039e+006 -2.1470e+005 63938 249701,249779,249753
 6.8000e+001 249828 -1.6690e+005 -2.6104e+006  3.2264e+005 63938 249675,249779,249701
 6.8000e+001 249805 -2.7368e+005 -1.6740e+006 -1.6092e+005 63938 249701,249753,249727
 6.8000e+001 250052 -4.3135e+005 -4.7110e+006 -1.5693e+005 63341 249876,249954,249902
 6.8000e+001 250029 -1.4838e+005 -6.4531e+006 -7.2857e+005 63341 249876,249980,249954
 6.8000e+001 250006 -1.5848e+005 -4.2767e+006 -4.9879e+005 63341 249902,249954,249928
 6.8000e+001 250253 -5.7406e+005 -9.0474e+005 -1.1723e+005 63058 250077,250129,250103
 6.8000e+001 250230 -1.8852e+006 -1.6605e+006  1.0172e+006 63058 250077,250155,250129
 6.8000e+001 250207 -3.2433e+005 -9.0892e+005  2.6814e+005 63058 250077,250181,250155
 6.8000e+001 250454 -7.7943e+005 -6.6348e+006  9.9877e+005 62832 250304,250382,250330
 6.8000e+001 250431  1.3086e+005 -8.2075e+006 -2.1329e+006 62832 250278,250382,250304
 6.8000e+001 250408 -1.6719e+006 -4.5618e+006  3.2434e+005 62832 250330,250382,250356
 6.8000e+001 250606 -5.5387e+005 -9.5179e+006 -1.4549e+006 62428 250479,250531,250505
 6.8000e+001 250583  1.8826e+005 -1.2858e+007 -1.1893e+006 62428 250479,250557,250531
 6.8000e+001 250758 -3.0706e+005 -7.3837e+006  8.4237e+005 62202 250631,250683,250657
 6.8000e+001 250735 -5.4086e+005 -7.3333e+006  7.0476e+005 62202 250631,250709,250683
 6.8000e+001 250861 -7.1412e+003 -2.9485e+006 -1.5499e+005 61954 250783,250835,250809
 6.8000e+001 251062 -2.1362e+006 -7.6805e+006 -6.1470e+005 61557 250912,250990,250938
 6.8000e+001 251039  3.1132e+005 -1.3044e+007 -2.0901e+006 61557 250886,250990,250912
 6.8000e+001 251016 -1.5938e+006 -1.0691e+007 -3.0361e+006 61557 250938,250990,250964
 6.8000e+001 251263 -4.6916e+005 -6.6081e+006 -2.2616e+004 61167 251113,251165,251139
 6.8000e+001 251240 -2.5817e+005 -6.1943e+006 -1.8692e+005 61167 251113,251191,251165
 6.8000e+001 251217 -1.1311e+006 -6.0901e+006  1.6051e+006 61167 251087,251191,251113
 6.8000e+001 251415 -9.0054e+005 -8.2117e+006  2.7233e+006 60827 251288,251340,251314
 6.8000e+001 251392 -6.2662e+005 -3.0034e+006 -6.8814e+005 60827 251288,251366,251340
 6.8000e+001 251567 -1.1456e+004 -3.1055e+006 -4.8222e+004 60487 251466,251518,251492
 6.8000e+001 251544 -3.0061e+005 -3.8127e+006 -3.0208e+005 60487 251440,251518,251466
 6.8000e+001 251719 -3.7244e+005 -8.5607e+006 -9.8047e+005 59983 251592,251644,251618
 6.8000e+001 251696 -1.3680e+006 -8.1825e+006 -5.1740e+005 59983 251592,251670,251644
 6.8000e+001 251920  1.1229e+004 -1.3424e+006  5.3552e+003 59807 251770,251848,251796
 6.8000e+001 251897  1.5280e+004 -1.2832e+006 -4.3464e+003 59807 251744,251848,251770
 6.8000e+001 251874 -5.3327e+004 -1.6121e+006  1.2667e+004 59807 251796,251848,251822
 6.8000e+001 252023  1.7231e+005 -4.3859e+006 -5.6451e+004 59517 251945,251997,251971
 6.8000e+001 252175  1.5446e+006 -1.3315e+007 -2.6453e+005 59269 252074,252126,252100
 6.8000e+001 252152 -1.5194e+005 -8.4897e+006  1.2813e+005 59269 252048,252126,252074
 6.8000e+001 252278 -7.8350e+005 -1.0960e+007  2.0618e+006 58979 252200,252252,252226
 6.8000e+001 252381 -2.1628e+006 -2.1431e+006  1.7551e+006 58689 252303,252355,252329
 6.8000e+001 252533 -5.2856e+005 -3.5953e+006 -8.7117e+005 58249 252432,252484,252458
 6.8000e+001 252510 -1.0663e+006 -6.1069e+006 -1.0625e+006 58249 252406,252484,252432
 6.8000e+001 252734 -2.6653e+005 -2.3814e+006  4.2141e+005 57902 252584,252662,252610
 6.8000e+001 252711  2.5827e+005 -4.6227e+006 -6.7298e+005 57902 252558,252662,252584
 6.8000e+001 252688 -1.9380e+005 -1.3392e+006 -4.1214e+004 57902 252610,252662,252636
 6.8000e+001 252886  2.1298e+004 -4.7126e+006 -2.1243e+004 57540 252785,252837,252811
 6.8000e+001 252863 -1.5997e+004 -4.5178e+006  2.5552e+004 57540 252759,252837,252785
 6.8000e+001 253038 -9.5539e+005 -6.0752e+006  1.5439e+006 57086 252937,252989,252963
 6.8000e+001 253015 -2.9585e+005 -1.5106e+006  5.6931e+005 57086 252911,252989,252937
 6.8000e+001 253239 -1.3164e+006 -8.2333e+006 -7.8117e+005 56796 253063,253141,253115
 6.8000e+001 253216  8.4085e+004 -9.0289e+006  9.4756e+005 56796 253063,253167,253141
 6.8000e+001 253193 -5.2951e+006 -4.5843e+006  8.0640e+005 56796 253063,253115,253089
 6.8000e+001 253342 -7.2084e+005 -1.7061e+007 -9.2709e+004 56349 253264,253316,253290
 6.8000e+001 253543 -3.2156e+005 -2.6702e+006 -1.2497e+006 56009 253367,253419,253393
 6.8000e+001 253520 -6.3655e+005 -1.1913e+006 -5.9021e+005 56009 253367,253445,253419
 6.8000e+001 253497 -4.1174e+005 -1.1563e+006 -6.3840e+005 56009 253367,253471,253445
 6.8000e+001 253695  8.9652e+003 -4.7841e+005  1.2603e+005 55733 253594,253646,253620
 6.8000e+001 253672 -1.3958e+005 -1.0116e+005  1.0574e+005 55733 253568,253646,253594
 6.8000e+001 253798 -5.8264e+005 -1.6833e+006 -3.7855e+004 55557 253720,253772,253746
 6.8000e+001 253950 -5.9838e+005 -3.3951e+006  3.2108e+005 55153 253849,253901,253875
 6.8000e+001 253927  3.8499e+004 -3.9028e+006 -3.0442e+005 55153 253823,253901,253849
 6.8000e+001 254151 -1.0058e+006 -4.0469e+006  6.2636e+005 54863 253975,254053,254001
 6.8000e+001 254128 -6.1671e+005 -3.8190e+006  1.9862e+005 54863 253975,254079,254053
 6.8000e+001 254105 -7.2990e+005 -4.4241e+006  7.5210e+005 54863 254001,254053,254027
 6.8000e+001 254303 -1.0525e+005 -3.6950e+005  1.2988e+005 54373 254176,254228,254202
 6.8000e+001 254280 -4.7371e+005 -2.3692e+005  2.5452e+005 54373 254176,254254,254228
 6.8000e+001 254455  9.0978e+003 -3.9489e+006 -3.9204e+005 53975 254354,254406,254380
 6.8000e+001 254432 -2.1141e+005 -8.6792e+005  1.1575e+005 53975 254328,254406,254354
 6.8000e+001 254607 -4.1915e+005 -4.8013e+006 -1.2678e+005 53585 254480,254532,254506
 6.8000e+001 254584 -2.1232e+005 -4.5404e+006 -2.6453e+005 53585 254480,254558,254532
 6.8000e+001 254808 -1.1851e+006 -3.3013e+006  2.9547e+005 53245 254658,254736,254684
 6.8000e+001 254785 -9.4091e+005 -8.5204e+005  2.3649e+005 53245 254632,254736,254658
 6.8000e+001 254762 -6.0711e+005 -2.1569e+006 -2.9392e+005 53245 254684,254736,254710
 6.8000e+001 254911 -1.6855e+005 -1.2077e+006 -3.0038e+005 52955 254833,254885,254859
 6.8000e+001 255063 -5.6910e+005 -6.6041e+006  1.8580e+004 52551 254962,255014,254988
 6.8000e+001 255040 -6.5476e+005 -7.0153e+006 -1.7453e+005 52551 254936,255014,254962
 6.8000e+001 255264 -1.1792e+006 -1.1130e+006 -5.7614e+005 52261 255114,255166,255140
 6.8000e+001 255241 -9.4525e+005 -2.5880e+006 -2.0842e+005 52261 255114,255192,255166
 6.8000e+001 255218 -5.4334e+006  1.1215e+005  2.3444e+006 52261 255088,255192,255114
 6.8000e+001 255416 -9.2721e+005 -5.5298e+006  2.2437e+006 51971 255289,255341,255315
 6.8000e+001 255393 -5.5942e+005 -4.8286e+006 -6.1880e+005 51971 255289,255367,255341
 6.8000e+001 255568 -4.5558e+004 -1.5726e+006 -3.8249e+005 51681 255441,255493,255467
 6.8000e+001 255545 -2.0086e+005 -9.3949e+005 -4.7967e+005 51681 255441,255519,255493
 6.8000e+001 255769 -2.1112e+005 -3.0774e+006 -1.9928e+004 51291 255619,255697,255671
 6.8000e+001 255746 -1.7709e+005 -2.7272e+006 -2.6360e+005 51291 255593,255697,255619
 6.8000e+001 255723 -2.2317e+005 -5.2424e+006 -5.4987e+005 51291 255619,255671,255645
 6.8000e+001 255921 -5.4013e+005 -3.3928e+006  8.4363e+005 50951 255820,255872,255846
 6.8000e+001 255898 -8.0364e+004 -1.8201e+006  1.0146e+005 50951 255794,255872,255820
 6.8000e+001 256171 -1.0394e+006 -4.7747e+006  4.0105e+005 50547 256024,256076,256050
 6.8000e+001 256148 -8.8266e+005 -4.0274e+006  4.3251e+005 50547 255972,256076,256024
 6.8000e+001 256125 -1.7385e+005 -4.6040e+006  1.0832e+004 50547 255946,256076,255972
 6.8000e+001 256102 -7.2959e+005 -3.9570e+006  3.6717e+005 50547 255972,256024,255998
 6.8000e+001 256323  1.5645e+005 -3.8568e+006  2.6488e+005 50093 256196,256248,256222
 6.8000e+001 256300 -9.6407e+005 -2.5581e+006 -7.7123e+005 50093 256196,256274,256248
 6.8000e+001 256426  6.3401e+000 -2.3259e+001 -1.1965e+000 49845 256348,256400,256374
 6.8000e+001 256627 -5.2030e+004 -5.2687e+006  1.2970e+005 49555 256477,256555,256503
 6.8000e+001 256604 -1.9119e+005 -3.4491e+006  1.8640e+005 49555 256451,256555,256477
 6.8000e+001 256581 -4.2444e+005 -4.6674e+006  3.5493e+005 49555 256503,256555,256529
 6.8000e+001 256828 -4.3298e+005 -2.6998e+006 -3.6037e+005 49056 256652,256730,256678
 6.8000e+001 256805 -5.9985e+005 -2.6137e+006 -2.4247e+005 49056 256652,256756,256730
 6.8000e+001 256782 -5.5195e+005 -3.2906e+006  4.7139e+004 49056 256678,256730,256704
 6.8000e+001 256931 -1.5041e+004 -1.2587e+005 -5.8265e+002 48766 256853,256905,256879
 6.8000e+001 257083 -1.4679e+006 -4.6960e+006 -7.0919e+005 48568 256982,257034,257008
 6.8000e+001 257060 -6.8150e+005 -1.6071e+006 -1.5719e+005 48568 256956,257034,256982
 6.8000e+001 257186 -1.3365e+003 -2.2264e+006  6.6772e+002 48228 257108,257160,257134
 6.8000e+001 257338 -1.3410e+006 -6.0855e+005  2.9162e+005 47888 257237,257289,257263
 6.8000e+001 257315 -8.3668e+005 -4.0050e+006  2.4361e+006 47888 257211,257289,257237
 6.8000e+001 257539 -3.8157e+005 -2.9897e+006  5.7336e+004 47548 257363,257441,257415
 6.8000e+001 257516 -7.7883e+005 -2.7993e+006 -3.5124e+005 47548 257363,257467,257441
 6.8000e+001 257493 -8.3561e+005 -1.8922e+006 -1.6355e+005 47548 257363,257415,257389
 6.8000e+001 257740 -2.3947e+005 -4.4929e+006  3.8729e+005 46994 257564,257642,257616
 6.8000e+001 257717 -4.1271e+005 -3.5548e+006  2.6003e+004 46994 257564,257668,257642
 6.8000e+001 257694 -7.4016e+005 -4.5042e+006 -1.9493e+004 46994 257564,257616,257590
 6.8000e+001 257843 -3.5385e+005 -1.2227e+006 -1.8348e+005 46654 257765,257817,257791
 6.8000e+001 257995 -6.4033e+005 -2.3416e+006  4.0365e+005 46364 257894,257946,257920
 6.8000e+001 257972 -6.1723e+005 -2.5832e+006  2.6929e+005 46364 257868,257946,257894
 6.8000e+001 258147 -1.0414e+005 -2.9353e+006  1.2492e+005 46024 258046,258098,258072
 6.8000e+001 258124 -3.3555e+005 -2.2516e+006  3.4992e+005 46024 258020,258098,258046
 6.8000e+001 258250 -1.4131e+005 -3.9232e+005  1.6506e+005 45741 258172,258224,258198
 6.8000e+001 258402 -1.1141e+006 -3.3973e+006  9.6106e+005 45401 258301,258353,258327
 6.8000e+001 258379 -5.7240e+005 -3.1736e+006  1.2663e+006 45401 258275,258353,258301
 6.8000e+001 258603 -6.9002e+005 -1.5388e+006 -1.3585e+004 45071 258427,258505,258479
 6.8000e+001 258580 -2.4493e+005 -3.7190e+006  1.7713e+005 45071 258427,258531,258505
 6.8000e+001 258557 -3.0139e+005 -2.3885e+006  1.5984e+005 45071 258427,258479,258453
 6.8000e+001 258755 -2.4225e+005 -3.4282e+006 -4.5438e+005 44681 258654,258706,258680
 6.8000e+001 258732 -2.6806e+005 -3.1452e+006 -4.4421e+005 44681 258628,258706,258654
 6.8000e+001 258907 -3.0268e+005 -2.6801e+006 -1.3381e+005 44157 258806,258858,258832
 6.8000e+001 258884 -6.0764e+005 -2.2991e+006 -9.6075e+004 44157 258780,258858,258806
 6.8000e+001 259010 -5.2860e+005 -2.1631e+006 -9.0152e+004 43705 258932,258984,258958
 6.8000e+001 259113 -3.6105e+005 -3.7489e+006  2.8073e+005 43284 259035,259087,259061
 6.8000e+001 259216 -4.8859e+005 -3.8207e+006 -1.9163e+005 42954 259138,259190,259164
 6.8000e+001 259319 -6.6101e+005 -1.0392e+006 -4.3190e+004 42116 259241,259293,259267
 6.8000e+001 259422 -8.7436e+005 -7.9115e+006  2.0206e+006 41804 259344,259396,259370
 6.8000e+001 259525 -5.9810e+005 -5.5397e+006  7.2549e+005 41219 259447,259499,259473
 6.8000e+001 259628 -7.2791e+005 -2.0703e+006 -5.3611e+005 385 259550,259602,259576
 7.0000e+001 190120 -2.5212e+005 -2.0422e+006 -3.7378e+005 189630 189993,190045,190019
 7.0000e+001 190097 -6.5397e+005 -1.5117e+006 -2.3331e+005 189630 189993,190071,190045
 7.0000e+001 190319 -1.4873e+006 -4.9919e+006 -9.0727e+005 189312 190169,190221,190195
 7.0000e+001 190296 -4.5646e+005 -4.8173e+006 -9.7643e+005 189312 190169,190247,190221
 7.0000e+001 190273 -8.8263e+005 -4.1967e+006  2.5408e+005 189312 190143,190247,190169
 7.0000e+001 190518 -4.7763e+005  4.8769e+004  1.5929e+004 189124 190368,190446,190420
 7.0000e+001 190495 -5.6216e+005  2.1552e+004 -4.3516e+003 189124 190342,190446,190368
 7.0000e+001 190472 -9.8850e+005 -5.2909e+004 -4.8791e+004 189124 190368,190420,190394
 7.0000e+001 190619 -4.5045e+005 -4.5823e+004 -6.1769e+003 188926 190541,190593,190567
 7.0000e+001 190771 -4.8538e+005 -7.6878e+004  1.6721e+004 188614 190670,190722,190696
 7.0000e+001 190748 -5.6056e+005  1.6318e+005  5.6158e+004 188614 190644,190722,190670
 7.0000e+001 190972 -4.8162e+005 -5.2021e+005 -4.0251e+005 188324 190848,190900,190874
 7.0000e+001 190949 -4.6106e+005 -6.5352e+005 -4.7527e+005 188324 190796,190900,190848
 7.0000e+001 190926 -1.5017e+005 -2.9510e+005 -2.6475e+005 188324 190796,190848,190822
 7.0000e+001 191124 -7.1587e+005 -8.0599e+005 -1.5466e+005 188034 191023,191075,191049
 7.0000e+001 191101 -1.3297e+005 -9.5719e+005 -1.0009e+005 188034 190997,191075,191023
 7.0000e+001 191276 -2.2814e+005 -1.5556e+006 -1.1102e+005 187836 191149,191201,191175
 7.0000e+001 191253 -3.2209e+005 -8.2719e+005  2.8056e+005 187836 191149,191227,191201
 7.0000e+001 191379 -4.7439e+005 -5.9953e+005 -1.1281e+005 187546 191301,191353,191327
 7.0000e+001 191531 -3.2936e+005 -4.5821e+006  3.8437e+005 187256 191430,191482,191456
 7.0000e+001 191508 -1.1758e+006 -6.7002e+006 -2.2316e+006 187256 191404,191482,191430
 7.0000e+001 191634 -7.4130e+005  2.2515e+004 -1.6880e+004 187058 191556,191608,191582
 7.0000e+001 191835 -5.1088e+005  1.9785e+004 -2.1608e+004 186860 191659,191711,191685
 7.0000e+001 191812 -3.3310e+005 -1.0375e+005  8.0267e+003 186860 191659,191737,191711
 7.0000e+001 191789 -2.9171e+005 -6.5952e+003 -4.3007e+004 186860 191659,191763,191737
 7.0000e+001 191987 -2.0933e+005 -9.8207e+005 -1.5546e+005 186662 191886,191938,191912
 7.0000e+001 191964  1.3861e+005 -2.2320e+006  6.5397e+005 186662 191860,191938,191886
 7.0000e+001 192090 -5.1469e+005 -2.6110e+006 -4.9144e+005 186486 192012,192064,192038
 7.0000e+001 192242 -8.5075e+004 -9.9992e+006 -3.6956e+005 186288 192115,192167,192141
 7.0000e+001 192219 -9.3644e+005 -6.1131e+006  2.6833e+005 186288 192115,192193,192167
 7.0000e+001 192394  2.8946e+005 -8.2342e+006 -1.9996e+005 185935 192293,192345,192319
 7.0000e+001 192371 -6.4059e+005 -5.4691e+006 -8.3071e+005 185935 192267,192345,192293
 7.0000e+001 192546 -4.9143e+005 -3.2167e+006 -8.1665e+005 185675 192419,192471,192445
 7.0000e+001 192523 -9.9673e+005 -1.6203e+006 -8.8523e+005 185675 192419,192497,192471
 7.0000e+001 192649 -7.1345e+005 -2.6177e+006 -4.7030e+005 185499 192571,192623,192597
 7.0000e+001 192801 -2.3016e+005 -1.0148e+006  1.3519e+005 185301 192674,192726,192700
 7.0000e+001 192778 -2.7974e+005 -1.1593e+006  5.0283e+005 185301 192674,192752,192726
 7.0000e+001 193002 -9.4194e+004 -7.7945e+005 -4.4447e+005 185046 192852,192930,192878
 7.0000e+001 192979 -4.1326e+005 -1.9169e+006 -2.7502e+005 185046 192826,192930,192852
 7.0000e+001 192956  5.0924e+005 -2.4518e+006  2.7245e+004 185046 192878,192930,192904
 7.0000e+001 193203  2.9556e+005 -6.9847e+006 -9.8744e+005 184798 193079,193131,193105
 7.0000e+001 193180 -9.7028e+005 -4.2057e+006 -4.6348e+005 184798 193027,193131,193079
 7.0000e+001 193157 -1.0769e+006 -4.2676e+006  8.7516e+004 184798 193027,193079,193053
 7.0000e+001 193404 -2.2354e+005 -5.4488e+006 -1.5103e+006 184600 193254,193306,193280
 7.0000e+001 193381 -6.5169e+005 -1.6112e+006 -2.2779e+005 184600 193254,193332,193306
 7.0000e+001 193358 -9.4505e+005 -4.8999e+005 -4.8385e+005 184600 193228,193332,193254
 7.0000e+001 193556 -8.5360e+005 -4.0749e+005 -4.6850e+005 184402 193429,193481,193455
 7.0000e+001 193533 -5.4805e+005 -4.4693e+005 -4.3775e+005 184402 193429,193507,193481
 7.0000e+001 193708 -8.9045e+004 -1.9048e+006 -4.5260e+004 184204 193607,193659,193633
 7.0000e+001 193685 -5.1799e+005 -7.6482e+006 -1.5521e+006 184204 193581,193659,193607
 7.0000e+001 193860 -5.3892e+005 -6.5798e+005  3.7609e+005 183908 193759,193811,193785
 7.0000e+001 193837 -7.0756e+004 -1.3008e+006  4.3917e+005 183908 193733,193811,193759
 7.0000e+001 194061 -3.0993e+005 -5.3253e+005  2.7666e+005 183710 193911,193989,193937
 7.0000e+001 194038 -6.4540e+005 -1.2066e+006  5.9831e+005 183710 193885,193989,193911
 7.0000e+001 194015 -4.5805e+005 -1.4850e+006  5.0644e+005 183710 193937,193989,193963
 7.0000e+001 194262 -5.1877e+005 -2.8268e+006 -7.4659e+005 183420 194086,194164,194112
 7.0000e+001 194239 -5.4006e+005 -2.8537e+006 -6.5510e+005 183420 194086,194190,194164
 7.0000e+001 194216  4.8453e+005 -6.7762e+006  1.1616e+006 183420 194112,194164,194138
 7.0000e+001 194414 -6.6135e+005 -5.8948e+006 -4.7714e+005 183222 194287,194339,194313
 7.0000e+001 194391 -2.9125e+005 -2.1673e+006 -5.2181e+005 183222 194287,194365,194339
 7.0000e+001 194517 -1.0195e+006 -1.1511e+006 -1.0727e+005 183024 194439,194491,194465
 7.0000e+001 194718  1.8971e+006 -1.6068e+007  1.2577e+006 182734 194568,194620,194594
 7.0000e+001 194695 -1.2105e+006 -4.7854e+006 -3.6050e+006 182734 194542,194620,194568
 7.0000e+001 194672 -3.6222e+006 -2.2656e+006 -1.7792e+006 182734 194542,194646,194620
 7.0000e+001 194870 -4.7286e+005 -3.3148e+005  3.1558e+005 182444 194769,194821,194795
 7.0000e+001 194847 -4.8873e+005 -5.1337e+005  4.1549e+005 182444 194743,194821,194769
 7.0000e+001 195071 -2.7687e+005 -1.2421e+006  7.3339e+005 182154 194895,194947,194921
 7.0000e+001 195048 -3.1798e+005 -4.4743e+005  1.4660e+005 182154 194895,194999,194947
 7.0000e+001 195025 -3.0001e+005 -1.4178e+005  1.8276e+005 182154 194947,194999,194973
 7.0000e+001 195223 -3.4429e+005 -3.8858e+005 -1.5082e+005 181814 195096,195148,195122
 7.0000e+001 195200 -5.7697e+005 -1.9504e+006 -1.3489e+006 181814 195096,195174,195148
 7.0000e+001 195375 -2.7045e+004 -4.4381e+004 -2.4858e+004 181524 195248,195300,195274
 7.0000e+001 195352  1.5089e+004 -2.1647e+005 -1.9345e+003 181524 195248,195326,195300
 7.0000e+001 195527 -2.4527e+005 -2.0066e+005  4.1224e+005 181326 195426,195478,195452
 7.0000e+001 195504 -1.3387e+006 -1.1513e+006  1.1645e+006 181326 195400,195478,195426
 7.0000e+001 195679 -9.7750e+004 -9.7047e+006 -7.0086e+005 180936 195578,195630,195604
 7.0000e+001 195656 -5.2142e+005 -4.3474e+006 -4.7350e+005 180936 195552,195630,195578
 7.0000e+001 195831 -4.6048e+005 -3.7789e+005 -1.7918e+005 180646 195704,195756,195730
 7.0000e+001 195808 -7.3424e+005 -2.4692e+004  1.4821e+004 180646 195704,195782,195756
 7.0000e+001 196032 -2.2235e+005 -1.9357e+006  2.5751e+005 180306 195882,195960,195934
 7.0000e+001 196009 -2.1734e+005 -8.6769e+005 -1.7653e+005 180306 195856,195960,195882
 7.0000e+001 195986  7.7309e+003 -2.0246e+006  1.3755e+005 180306 195882,195934,195908
 7.0000e+001 196233 -3.3830e+005 -1.4551e+005 -9.4412e+005 179944 196057,196109,196083
 7.0000e+001 196210 -8.5527e+005 -2.7042e+006  2.6712e+005 179944 196057,196135,196109
 7.0000e+001 196187 -1.8665e+006  4.1507e+006 -1.3513e+006 179944 196057,196161,196135
 7.0000e+001 196385 -6.3793e+005 -7.2340e+005 -5.9874e+005 179604 196258,196310,196284
 7.0000e+001 196362 -7.0060e+005 -7.4057e+005 -8.0294e+005 179604 196258,196336,196310
 7.0000e+001 196586 -9.7387e+005 -6.3334e+005 -7.8090e+005 179114 196410,196488,196436
 7.0000e+001 196563 -7.0055e+005 -2.1195e+006 -7.7588e+005 179114 196410,196514,196488
 7.0000e+001 196540 -5.6310e+003 -5.7830e+005 -5.6924e+004 179114 196436,196488,196462
 7.0000e+001 196738 -7.4891e+005 -1.6080e+006 -7.6199e+005 178674 196611,196663,196637
 7.0000e+001 196715  4.9589e+004 -3.7094e+006 -2.0866e+005 178674 196611,196689,196663
 7.0000e+001 196939  7.4148e+005 -9.1644e+006 -3.0256e+006 178334 196789,196867,196841
 7.0000e+001 196916 -2.1990e+006 -9.6744e+006  4.0901e+005 178334 196763,196867,196789
 7.0000e+001 196893 -3.4261e+006 -6.4116e+006 -5.2245e+006 178334 196789,196841,196815
 7.0000e+001 197091 -3.2820e+005 -2.6953e+006 -4.9849e+005 177930 196990,197042,197016
 7.0000e+001 197068 -3.4206e+005 -2.6249e+006 -2.4852e+005 177930 196964,197042,196990
 7.0000e+001 197194 -5.5861e+002 -6.4203e+004 -8.3031e+002 177732 197116,197168,197142
 7.0000e+001 197346 -4.0437e+005 -5.0343e+006 -1.1786e+005 177534 197219,197271,197245
 7.0000e+001 197323  5.9843e+004 -6.5279e+006  6.7984e+005 177534 197219,197297,197271
 7.0000e+001 197547 -1.5270e+006 -8.3278e+006 -3.5003e+006 177130 197397,197449,197423
 7.0000e+001 197524 -2.2532e+006 -8.6163e+006 -3.2659e+006 177130 197397,197475,197449
 7.0000e+001 197501 -1.3115e+006 -8.8364e+006 -3.0128e+006 177130 197371,197475,197397
 7.0000e+001 197748 -4.4508e+005 -5.2960e+006  1.8892e+005 176790 197598,197676,197624
 7.0000e+001 197725 -1.7228e+005 -4.3706e+006  4.1814e+005 176790 197572,197676,197598
 7.0000e+001 197702 -3.1845e+005 -4.5400e+006  1.6509e+005 176790 197624,197676,197650
 7.0000e+001 197900 -2.8817e+005 -3.1990e+006 -5.5773e+005 176300 197773,197825,197799
 7.0000e+001 197877 -6.6044e+004 -4.5304e+006 -4.4095e+005 176300 197773,197851,197825
 7.0000e+001 198052 -3.1286e+005 -6.2670e+006 -1.0992e+006 176010 197925,197977,197951
 7.0000e+001 198029 -3.4407e+005 -4.2792e+006 -9.8766e+005 176010 197925,198003,197977
 7.0000e+001 198204 -1.3545e+006 -2.9603e+006 -9.5767e+005 175670 198103,198155,198129
 7.0000e+001 198181 -1.3740e+006 -1.7795e+006 -3.6088e+005 175670 198077,198155,198103
 7.0000e+001 198405  3.5021e+004 -4.2288e+006 -6.5451e+005 175266 198255,198307,198281
 7.0000e+001 198382  8.9464e+004 -4.5550e+006 -9.2716e+005 175266 198229,198307,198255
 7.0000e+001 198359 -8.7269e+005 -3.4661e+006 -1.7392e+006 175266 198229,198333,198307
 7.0000e+001 198606  1.0745e+003 -2.7629e+004  1.0936e+002 174876 198430,198508,198482
 7.0000e+001 198583 -1.9619e+004 -3.0478e+004 -2.2680e+004 174876 198430,198534,198508
 7.0000e+001 198560 -5.2993e+003 -7.0929e+003 -6.1553e+003 174876 198430,198482,198456
 7.0000e+001 198758 -4.8239e+001  6.9200e+000 -4.2840e+001 174536 198657,198709,198683
 7.0000e+001 198735 -5.7822e+001 -2.5293e+001 -4.5450e+001 174536 198631,198709,198657
 7.0000e+001 199008 -9.6351e+005 -5.5199e+006 -1.0105e+005 174132 198835,198913,198887
 7.0000e+001 198985 -7.2190e+005 -2.2332e+006  1.7362e+005 174132 198809,198913,198835
 7.0000e+001 198962 -7.1251e+005 -2.4733e+006 -1.3805e+006 174132 198783,198913,198809
 7.0000e+001 198939 -3.5182e+005 -5.9007e+006 -5.9779e+004 174132 198835,198887,198861
 7.0000e+001 199160 -8.7048e+005 -2.2154e+006 -4.7724e+005 173842 199059,199111,199085
 7.0000e+001 199137 -6.3318e+005 -1.4102e+006 -3.3391e+005 173842 199033,199111,199059
 7.0000e+001 199361 -7.4263e+005 -3.1974e+006  8.6480e+005 173438 199237,199289,199263
 7.0000e+001 199338 -9.3442e+004 -4.1198e+006  9.1335e+005 173438 199211,199289,199237
 7.0000e+001 199315  4.4205e+004 -6.2260e+006 -8.5599e+005 173438 199185,199289,199211
 7.0000e+001 199513 -7.2023e+005 -5.0525e+006 -3.6872e+005 173190 199386,199438,199412
 7.0000e+001 199490 -1.7388e+006 -5.6048e+006  4.2615e+004 173190 199386,199464,199438
 7.0000e+001 199665 -5.8895e+005 -1.6646e+006  3.1702e+005 172750 199564,199616,199590
 7.0000e+001 199642 -1.0674e+006 -9.7215e+005  7.5515e+003 172750 199538,199616,199564
 7.0000e+001 199817 -1.4073e+005 -3.3080e+006 -1.1844e+006 172524 199690,199742,199716
 7.0000e+001 199794 -1.0911e+006 -1.3854e+006 -8.7301e+005 172524 199690,199768,199742
 7.0000e+001 199969 -5.7259e+003 -5.9561e+006 -1.8345e+005 172348 199842,199894,199868
 7.0000e+001 199946 -2.2266e+004 -5.9680e+006 -8.6650e+004 172348 199842,199920,199894
 7.0000e+001 200121  1.0647e+005 -2.1408e+006 -3.9638e+005 172008 199994,200046,200020
 7.0000e+001 200098 -2.3731e+005 -6.1820e+005 -1.8788e+005 172008 199994,200072,200046
 7.0000e+001 200273 -1.9506e+006 -7.8978e+006 -3.0293e+006 171668 200172,200224,200198
 7.0000e+001 200250 -1.3370e+006 -7.1626e+006 -2.2200e+006 171668 200146,200224,200172
 7.0000e+001 200474  2.5477e+005 -4.3583e+006 -5.8907e+005 171264 200350,200402,200376
 7.0000e+001 200451 -1.2789e+005 -4.8669e+006 -8.5987e+005 171264 200324,200402,200350
 7.0000e+001 200428 -3.4283e+005 -3.3090e+006  1.0652e+006 171264 200298,200402,200324
 7.0000e+001 200626 -1.0682e+006 -4.8142e+006 -7.8428e+005 170832 200525,200577,200551
 7.0000e+001 200603 -2.8128e+005 -3.0252e+006 -1.7619e+005 170832 200499,200577,200525
 7.0000e+001 200827 -1.0093e+005 -2.0897e+006  5.1664e+005 170492 200677,200729,200703
 7.0000e+001 200804 -1.3077e+006 -8.9147e+005 -4.0699e+005 170492 200651,200729,200677
 7.0000e+001 200781 -9.5229e+005 -1.2703e+006 -6.7900e+005 170492 200651,200755,200729
 7.0000e+001 201077  2.1429e+005 -1.2191e+006  2.8614e+004 170088 200878,200956,200904
 7.0000e+001 201054 -2.1365e+005 -1.2762e+006 -4.6523e+005 170088 200852,200956,200878
 7.0000e+001 201031  7.2220e+004 -8.8621e+005  1.1333e+006 170088 200904,200956,200930
 7.0000e+001 201008  1.0010e+006 -2.8086e+006  6.0347e+005 170088 200852,200982,200956
 7.0000e+001 201278 -3.7859e+004 -1.0292e+006 -4.8334e+005 169798 201102,201154,201128
 7.0000e+001 201255 -4.5295e+005 -1.9240e+006 -8.4251e+005 169798 201102,201206,201154
 7.0000e+001 201232 -3.2744e+005 -1.9028e+005  4.5574e+004 169798 201154,201206,201180
 7.0000e+001 201430 -1.1528e+005 -3.4384e+006 -7.5246e+005 169337 201303,201355,201329
 7.0000e+001 201407 -1.2741e+005 -1.1106e+006 -2.4176e+005 169337 201303,201381,201355
 7.0000e+001 201631 -9.8886e+005 -3.0066e+006 -1.0981e+005 168883 201481,201559,201507
 7.0000e+001 201608 -4.2223e+005 -2.1975e+006  4.2781e+005 168883 201455,201559,201481
 7.0000e+001 201585 -3.2592e+005 -1.2856e+006  4.0115e+005 168883 201507,201559,201533
 7.0000e+001 201832  2.3478e+005 -7.8799e+006  3.0424e+005 168479 201682,201734,201708
 7.0000e+001 201809 -2.0338e+006 -5.7926e+006 -1.5310e+006 168479 201656,201734,201682
 7.0000e+001 201786 -1.5568e+006 -3.8810e+006  2.5892e+005 168479 201656,201760,201734
 7.0000e+001 202033 -1.9403e+005 -2.6212e+006  2.2740e+005 167825 201883,201935,201909
 7.0000e+001 202010 -1.1048e+006 -3.4734e+006 -1.2983e+006 167825 201857,201935,201883
 7.0000e+001 201987  2.9702e+005 -9.2891e+006 -4.5448e+005 167825 201857,201961,201935
 7.0000e+001 202234 -1.1137e+006 -1.7765e+006 -4.3248e+005 167435 202058,202136,202084
 7.0000e+001 202211 -9.7255e+005 -2.0132e+006 -1.5907e+005 167435 202058,202162,202136
 7.0000e+001 202188 -1.1204e+006 -8.5250e+005  2.8529e+005 167435 202084,202136,202110
 7.0000e+001 202386  7.0253e+004 -2.1614e+006  3.4489e+005 167002 202285,202337,202311
 7.0000e+001 202363 -3.9701e+005 -5.7624e+005  3.6864e+005 167002 202259,202337,202285
 7.0000e+001 202538 -2.1732e+006 -3.0189e+006 -2.3961e+006 166662 202411,202463,202437
 7.0000e+001 202515 -1.1260e+006 -4.2170e+006 -3.1050e+006 166662 202411,202489,202463
 7.0000e+001 202690  1.9351e+003 -2.5793e+006 -1.0854e+006 166322 202589,202641,202615
 7.0000e+001 202667 -5.5614e+004 -1.1912e+006 -4.2476e+004 166322 202563,202641,202589
 7.0000e+001 202891 -4.2176e+005 -3.2496e+005 -6.7896e+004 165918 202715,202767,202741
 7.0000e+001 202868 -5.1467e+005 -9.3367e+005 -5.8444e+005 165918 202715,202793,202767
 7.0000e+001 202845 -7.2995e+005 -2.1111e+006  2.1490e+004 165918 202715,202819,202793
 7.0000e+001 203092  3.2055e+005 -3.5235e+006 -4.6631e+005 165628 202916,202968,202942
 7.0000e+001 203069 -4.3132e+005 -1.3575e+006 -5.4840e+005 165628 202916,202994,202968
 7.0000e+001 203046 -2.2554e+005 -1.3388e+006 -5.4954e+005 165628 202916,203020,202994
 7.0000e+001 203293 -4.0391e+006 -2.3861e+006 -2.9971e+006 165266 203143,203195,203169
 7.0000e+001 203270 -1.4431e+006 -5.9750e+006 -7.5362e+005 165266 203143,203221,203195
 7.0000e+001 203247 -8.9901e+005 -6.0673e+006 -9.0878e+005 165266 203117,203221,203143
 7.0000e+001 203445 -5.5818e+005 -1.5216e+006  4.8012e+005 164826 203318,203370,203344
 7.0000e+001 203422 -1.4750e+005 -9.8639e+005 -1.2603e+005 164826 203318,203396,203370
 7.0000e+001 203597 -2.2548e+005 -2.5820e+006 -1.7602e+004 164386 203470,203522,203496
 7.0000e+001 203574 -4.1674e+005 -2.6540e+006 -5.1118e+005 164386 203470,203548,203522
 7.0000e+001 203798 -7.8002e+004 -9.2501e+005  4.1993e+004 163996 203622,203674,203648
 7.0000e+001 203775 -6.5382e+005 -1.4271e+005 -5.1841e+003 163996 203622,203726,203674
 7.0000e+001 203752 -6.6558e+005 -2.5463e+005 -1.0132e+005 163996 203674,203726,203700
 7.0000e+001 203901 -4.4399e+005 -2.1467e+006 -3.0555e+005 163770 203823,203875,203849
 7.0000e+001 204053 -1.6127e+006 -3.3466e+006 -1.1882e+006 163474 203952,204004,203978
 7.0000e+001 204030 -1.9068e+006 -3.6155e+006 -1.5548e+006 163474 203926,204004,203952
 7.0000e+001 204205  3.6971e+005 -2.0807e+006 -6.7779e+005 163034 204104,204156,204130
 7.0000e+001 204182 -2.0778e+005 -2.0313e+006 -5.3630e+005 163034 204078,204156,204104
 7.0000e+001 204357 -6.5175e+004 -7.8093e+005  6.2073e+004 162624 204256,204308,204282
 7.0000e+001 204334  1.2207e+005 -2.5540e+005  1.9912e+005 162624 204230,204308,204256
 7.0000e+001 204509  9.3097e+000 -5.0161e+001 -1.8040e+001 162200 204382,204434,204408
 7.0000e+001 204486  7.3382e+000 -7.6129e+000 -1.9385e+001 162200 204382,204460,204434
 7.0000e+001 204710 -5.1870e+005 -2.7482e+004  2.3825e+005 161810 204560,204638,204586
 7.0000e+001 204687 -1.3824e+005 -5.5619e+005 -2.1354e+005 161810 204534,204638,204560
 7.0000e+001 204664 -5.7802e+005 -1.2422e+005  1.5324e+005 161810 204586,204638,204612
 7.0000e+001 204862 -1.1804e+006 -1.7222e+006 -4.7831e+005 161406 204735,204787,204761
 7.0000e+001 204839 -1.8446e+006 -1.3047e+006 -5.4779e+005 161406 204735,204813,204787
 7.0000e+001 205014 -1.9631e+001  4.3143e+001 -1.7446e+001 161180 204887,204939,204913
 7.0000e+001 204991  1.2107e+001  1.4172e+001 -5.4665e+000 161180 204887,204965,204939
 7.0000e+001 205215 -8.8601e+005 -1.6650e+006 -1.6183e+006 160726 205039,205091,205065
 7.0000e+001 205192 -1.4363e+006 -3.9476e+006 -1.4259e+006 160726 205039,205143,205091
 7.0000e+001 205169 -1.6979e+006 -1.6034e+006 -1.5588e+006 160726 205091,205143,205117
 7.0000e+001 205416 -2.6341e+005 -1.2073e+005  1.8832e+005 160272 205292,205344,205318
 7.0000e+001 205393 -2.6581e+005 -2.5363e+004  1.8766e+005 160272 205240,205344,205292
 7.0000e+001 205370 -2.1964e+005 -1.2945e+005 -1.8243e+005 160272 205240,205292,205266
 7.0000e+001 205568 -4.2737e+000  4.0961e-001  1.9859e+001 159932 205441,205493,205467
 7.0000e+001 205545  2.4742e+001 -1.2726e+001 -7.1552e+000 159932 205441,205519,205493
 7.0000e+001 205720 -1.6143e+004 -1.9184e+004  1.9311e+004 159542 205593,205645,205619
 7.0000e+001 205697 -3.9763e+004 -3.9931e+004  3.7049e+004 159542 205593,205671,205645
 7.0000e+001 205872  9.8078e+000 -1.8674e+001  2.7859e+001 159252 205745,205797,205771
 7.0000e+001 205849  1.0678e+001 -3.8225e+001  4.2171e+000 159252 205745,205823,205797
 7.0000e+001 206024 -9.7757e+005 -4.9573e+005 -1.9375e+004 159004 205923,205975,205949
 7.0000e+001 206001 -5.2604e+005 -8.3908e+005  5.3529e+005 159004 205897,205975,205923
 7.0000e+001 206127 -5.1785e+006 -4.3763e+006  4.1392e+003 158364 206049,206101,206075
 7.0000e+001 206328  1.1667e+001  4.7617e+001  1.5996e+001 157960 206178,206256,206204
 7.0000e+001 206305  2.1479e+001 -1.0208e+001 -3.4212e+001 157960 206152,206256,206178
 7.0000e+001 206282  3.0953e+001 -3.4541e+001  3.3286e+001 157960 206204,206256,206230
 7.0000e+001 206529 -1.8173e+006 -6.3401e+006  1.2328e+006 157648 206405,206457,206431
 7.0000e+001 206506 -3.3010e+006 -2.9625e+006  8.7735e+005 157648 206379,206457,206405
 7.0000e+001 206483 -3.1231e+006 -2.3799e+006  1.5523e+006 157648 206353,206457,206379
 7.0000e+001 206730 -1.6020e+006 -2.7915e+005  7.4418e+005 157208 206554,206606,206580
 7.0000e+001 206707 -6.7939e+005 -1.2140e+005  2.7501e+005 157208 206554,206632,206606
 7.0000e+001 206684 -1.4098e+006 -2.9357e+005  5.0434e+005 157208 206554,206658,206632
 7.0000e+001 206882 -1.0717e+001 -2.8380e+001 -3.2434e+000 157010 206755,206807,206781
 7.0000e+001 206859 -5.7209e+001  7.9373e+000 -1.5529e+001 157010 206755,206833,206807
 7.0000e+001 207034  6.0024e+001 -2.7701e+003  4.0187e+001 156620 206907,206959,206933
 7.0000e+001 207011 -3.8181e+001 -1.5510e+003 -2.5159e+001 156620 206907,206985,206959
 7.0000e+001 207186 -3.7563e+003 -1.2285e+006  4.1861e+004 156330 207085,207137,207111
 7.0000e+001 207163 -1.0188e+005 -1.2985e+006 -4.6716e+005 156330 207059,207137,207085
 7.0000e+001 207387 -9.7639e+005 -2.2267e+006  2.4043e+004 155890 207211,207289,207237
 7.0000e+001 207364 -1.9071e+006 -2.5327e+006 -1.2630e+006 155890 207211,207315,207289
 7.0000e+001 207341 -5.5635e+005 -1.7575e+006  3.4230e+005 155890 207237,207289,207263
 7.0000e+001 207588 -5.3556e+005 -2.2302e+007  8.0642e+006 155436 207438,207490,207464
 7.0000e+001 207565 -1.4513e+006 -1.5961e+007 -1.0649e+006 155436 207412,207490,207438
 7.0000e+001 207542 -2.6553e+006 -8.8172e+006 -1.3292e+006 155436 207412,207516,207490
 7.0000e+001 207789  1.9287e+006 -3.3090e+007 -2.2258e+006 155260 207639,207691,207665
 7.0000e+001 207766 -4.0053e+006 -1.0736e+007  4.7885e+006 155260 207613,207691,207639
 7.0000e+001 207743 -1.1072e+006 -8.1700e+006 -4.4948e+002 155260 207613,207717,207691
 7.0000e+001 207990  6.8919e+000  2.6271e+000 -2.4037e+000 154920 207840,207918,207892
 7.0000e+001 207967  2.8846e+000  1.0834e+000  1.7262e-001 154920 207814,207918,207840
 7.0000e+001 207944 -3.2770e+000  1.2260e+000 -9.6180e-001 154920 207840,207892,207866
 7.0000e+001 208191 -3.7313e+004 -9.2754e+004  3.9782e+004 154630 208015,208093,208041
 7.0000e+001 208168 -1.1707e+003 -4.8415e+004  1.7658e+003 154630 208015,208119,208093
 7.0000e+001 208145 -3.2348e+003 -2.0341e+003 -7.5113e+003 154630 208041,208093,208067
 7.0000e+001 208343 -3.6092e+002 -1.8621e+003  1.2078e+003 154240 208216,208268,208242
 7.0000e+001 208320 -2.2472e+002 -6.6908e+002  3.1536e+002 154240 208216,208294,208268
 7.0000e+001 208495  8.8835e+005 -8.2070e+006 -1.0566e+006 153950 208394,208446,208420
 7.0000e+001 208472 -8.7764e+005 -4.2837e+006  1.6700e+006 153950 208368,208446,208394
 7.0000e+001 208647 -1.8145e+006 -1.6725e+006  3.5323e+006 153603 208520,208572,208546
 7.0000e+001 208624 -1.7597e+006 -2.3985e+006 -1.5250e+006 153603 208520,208598,208572
 7.0000e+001 208848 -1.6737e+006 -5.4421e+004  5.5976e+005 153149 208698,208776,208724
 7.0000e+001 208825 -8.9178e+005 -1.7918e+005  4.4686e+005 153149 208672,208776,208698
 7.0000e+001 208802 -8.5580e+005 -6.2652e+005  7.2603e+005 153149 208724,208776,208750
 7.0000e+001 209000 -6.5244e+005 -2.1300e+006  1.1708e+005 152859 208873,208925,208899
 7.0000e+001 208977  2.9946e+005 -6.5457e+006  7.6797e+005 152859 208873,208951,208925
 7.0000e+001 209152  3.7785e+005 -3.8367e+006  3.8614e+005 152569 209051,209103,209077
 7.0000e+001 209129  6.3788e+005 -5.6223e+006 -5.9874e+005 152569 209025,209103,209051
 7.0000e+001 209304 -3.7328e+000 -3.0303e+000 -5.7630e+000 152065 209177,209229,209203
 7.0000e+001 209281  3.9640e+000 -9.3422e-001 -6.4293e+000 152065 209177,209255,209229
 7.0000e+001 209456 -1.7005e+006 -2.6100e+006 -4.1312e+005 151775 209355,209407,209381
 7.0000e+001 209433 -1.1521e+006 -8.6504e+006 -5.8234e+005 151775 209329,209407,209355
 7.0000e+001 209608 -9.8088e+005 -5.8455e+006 -1.6945e+006 151371 209481,209533,209507
 7.0000e+001 209585  9.9072e+005 -1.0755e+007 -3.1847e+005 151371 209481,209559,209533
 7.0000e+001 209760 -3.0956e+003 -1.4265e+004  2.3409e+004 150981 209659,209711,209685
 7.0000e+001 209737  7.0167e+003 -4.5477e+004 -4.0480e+004 150981 209633,209711,209659
 7.0000e+001 209912  2.4510e+006 -3.3947e+007 -2.9711e+006 150619 209811,209863,209837
 7.0000e+001 209889 -3.1073e+006 -1.4333e+007  3.7667e+006 150619 209785,209863,209811
 7.0000e+001 210064 -1.0760e+005 -2.1201e+005  1.3502e+005 150279 209937,209989,209963
 7.0000e+001 210041 -8.3011e+004 -2.6959e+005  1.1627e+005 150279 209937,210015,209989
 7.0000e+001 210265 -2.9745e+006 -7.3947e+006 -2.6506e+005 149989 210115,210167,210141
 7.0000e+001 210242 -3.1949e+005 -7.7140e+006 -9.4888e+005 149989 210115,210193,210167
 7.0000e+001 210219 -4.4951e+005 -8.8895e+006 -1.0734e+006 149989 210089,210193,210115
 7.0000e+001 210417 -1.5060e+005 -5.0493e+004  1.1056e+005 149599 210316,210368,210342
 7.0000e+001 210394  6.9986e+004 -4.4091e+005  1.0720e+005 149599 210290,210368,210316
 7.0000e+001 210618 -2.3777e+006 -1.4410e+007  3.6728e+006 149095 210468,210520,210494
 7.0000e+001 210595 -2.8712e+006 -1.4498e+007  3.2930e+006 149095 210442,210520,210468
 7.0000e+001 210572 -1.2162e+006 -1.7662e+007  3.1527e+006 149095 210442,210546,210520
 7.0000e+001 210819 -1.8000e+003 -1.3320e+005  1.5252e+004 148748 210695,210747,210721
 7.0000e+001 210796  7.6456e+003 -6.7539e+004  7.3553e+003 148748 210669,210747,210695
 7.0000e+001 210773 -1.3003e+004 -4.2384e+004  2.3417e+004 148748 210643,210747,210669
 7.0000e+001 210971 -1.1101e+003 -2.2149e+003  1.7825e+003 148408 210870,210922,210896
 7.0000e+001 210948 -9.7252e+002 -1.3572e+003  1.8555e+003 148408 210844,210922,210870
 7.0000e+001 211123 -3.8805e+005 -3.4679e+006  7.8920e+005 148118 210996,211048,211022
 7.0000e+001 211100 -1.6781e+006 -3.6010e+006  2.0920e+006 148118 210996,211074,211048
 7.0000e+001 211275 -1.0072e+006 -2.8193e+006  1.3445e+006 147778 211148,211200,211174
 7.0000e+001 211252 -1.7819e+006 -5.2958e+006  3.1451e+006 147778 211148,211226,211200
 7.0000e+001 211427 -1.0397e+006 -1.6323e+005  2.6522e+005 147324 211326,211378,211352
 7.0000e+001 211404  1.1285e+005 -1.0500e+006  2.3301e+005 147324 211300,211378,211326
 7.0000e+001 211628 -1.5628e+006 -1.5511e+006  6.1814e+005 147012 211452,211504,211478
 7.0000e+001 211605 -1.4813e+006  4.3581e+005  9.1377e+005 147012 211452,211556,211504
 7.0000e+001 211582 -1.0645e+006 -1.4077e+006  2.1359e+006 147012 211504,211556,211530
 7.0000e+001 211829 -1.0800e+006 -2.6210e+006  8.9805e+005 146636 211679,211757,211731
 7.0000e+001 211806  5.6398e+005 -3.0688e+006  1.1485e+006 146636 211653,211757,211679
 7.0000e+001 211783 -6.4811e+005 -3.5114e+006  2.2015e+006 146636 211679,211731,211705
 7.0000e+001 211981 -1.2208e+002 -1.1816e+001 -7.3422e+001 146246 211880,211932,211906
 7.0000e+001 211958 -3.5672e+001 -1.3378e+001 -9.0502e+000 146246 211854,211932,211880
 7.0000e+001 212133 -2.4533e+003 -8.6093e+003  5.0654e+003 145956 212006,212058,212032
 7.0000e+001 212110 -2.0787e+003 -2.3708e+003  2.0306e+003 145956 212006,212084,212058
 7.0000e+001 212285 -2.5615e+001  2.0934e+001  2.6388e+000 145544 212184,212236,212210
 7.0000e+001 212262 -2.0284e+001 -2.0611e+000  6.3491e+000 145544 212158,212236,212184
 7.0000e+001 212486 -1.2600e+006 -1.5680e+007  4.5798e+006 144990 212362,212414,212388
 7.0000e+001 212463  2.6390e+005 -1.3491e+007  5.9382e+006 144990 212310,212414,212362
 7.0000e+001 212440 -4.5996e+006 -2.4432e+006  2.6271e+006 144990 212310,212362,212336
 7.0000e+001 212638 -4.3774e+004 -2.1311e+005  8.4840e+004 144600 212537,212589,212563
 7.0000e+001 212615 -3.3652e+004 -1.7086e+005  8.4951e+004 144600 212511,212589,212537
 7.0000e+001 212839 -4.1369e+005 -1.9736e+006  6.0472e+005 144210 212689,212741,212715
 7.0000e+001 212816 -3.9678e+005 -2.0086e+006  6.5984e+005 144210 212663,212741,212689
 7.0000e+001 212793 -4.3629e+005 -2.2109e+006  8.0427e+005 144210 212663,212767,212741
 7.0000e+001 212991 -1.1930e+004 -5.3936e+004  5.0399e+003 143920 212890,212942,212916
 7.0000e+001 212968  1.1794e+004 -1.6086e+005  1.0606e+004 143920 212864,212942,212890
 7.0000e+001 213143  6.3578e+000  1.2755e+001  1.5436e+000 143480 213016,213068,213042
 7.0000e+001 213120  1.0306e+001  1.6569e+001  1.4387e+000 143480 213016,213094,213068
 7.0000e+001 213295 -1.0326e+005 -8.9784e+005  3.7724e+005 142990 213194,213246,213220
 7.0000e+001 213272  5.9808e+003 -4.0201e+005  3.4319e+005 142990 213168,213246,213194
 7.0000e+001 213447  9.0828e+004 -2.4977e+006  1.0728e+006 142600 213320,213372,213346
 7.0000e+001 213424 -4.3818e+005 -3.2035e+006  1.6391e+006 142600 213320,213398,213372
 7.0000e+001 213599 -1.2837e+004 -2.0383e+005  2.2056e+004 142260 213472,213524,213498
 7.0000e+001 213576 -6.5688e+004 -2.3510e+005  1.3753e+005 142260 213472,213550,213524
 7.0000e+001 213751 -1.5258e+005 -5.3984e+005 -2.6961e+005 141870 213624,213676,213650
 7.0000e+001 213728 -2.2597e+005 -5.4418e+005 -2.8662e+005 141870 213624,213702,213676
 7.0000e+001 213903 -1.0077e+006 -1.1323e+006 -1.0633e+006 141530 213776,213828,213802
 7.0000e+001 213880 -2.8010e+005 -1.3373e+006 -5.4291e+005 141530 213776,213854,213828
 7.0000e+001 214055 -3.4232e+006 -1.0977e+005  4.1432e+005 141218 213928,213980,213954
 7.0000e+001 214032 -2.0834e+006 -4.3747e+005  1.1376e+005 141218 213928,214006,213980
 7.0000e+001 214207 -6.8157e+003 -1.5966e+004  1.5315e+004 140928 214080,214132,214106
 7.0000e+001 214184 -2.5426e+003 -1.1605e+004  2.8243e+003 140928 214080,214158,214132
 7.0000e+001 214359 -1.9335e+004 -9.4634e+004  4.8853e+001 140538 214232,214284,214258
 7.0000e+001 214336 -4.7959e+004 -3.5357e+005  1.8529e+005 140538 214232,214310,214284
 7.0000e+001 214560 -3.5095e+005 -4.5349e+006  1.0525e+006 140248 214384,214462,214410
 7.0000e+001 214537  2.0030e+003 -2.5807e+006  6.2676e+005 140248 214384,214488,214462
 7.0000e+001 214514 -3.5910e+005 -2.7536e+006 -8.0068e+004 140248 214410,214462,214436
 7.0000e+001 214712 -2.2784e+005 -5.4738e+005  1.2454e+005 140000 214611,214663,214637
 7.0000e+001 214689 -1.3124e+005 -5.0047e+005  2.3902e+005 140000 214585,214663,214611
 7.0000e+001 214913 -1.6688e+005 -1.2744e+006 -3.5876e+005 139596 214737,214815,214763
 7.0000e+001 214890 -1.1020e+005 -6.3603e+005 -7.2350e+004 139596 214737,214841,214815
 7.0000e+001 214867  5.6962e+005 -4.3916e+006  4.4362e+005 139596 214763,214815,214789
 7.0000e+001 215016  3.4388e+001 -4.5797e+002  2.1825e+002 139420 214938,214990,214964
 7.0000e+001 215168 -4.3551e+006 -1.0240e+007  6.7688e+006 139130 215067,215119,215093
 7.0000e+001 215145 -1.8060e+006 -1.1932e+007  3.1591e+006 139130 215041,215119,215067
 7.0000e+001 215320 -2.2991e+006 -5.7689e+006  3.6722e+006 138790 215219,215271,215245
 7.0000e+001 215297 -2.1079e+006 -1.0786e+007  5.5708e+006 138790 215193,215271,215219
 7.0000e+001 215472 -2.2981e+004 -2.2284e+005  8.7189e+004 138514 215345,215397,215371
 7.0000e+001 215449 -2.0847e+003 -1.7497e+005  4.9142e+004 138514 215345,215423,215397
 7.0000e+001 215624 -2.6134e+005 -7.2358e+006  1.9344e+006 138174 215497,215549,215523
 7.0000e+001 215601 -4.2238e+005 -5.4792e+006  1.6647e+006 138174 215497,215575,215549
 7.0000e+001 215776 -2.8343e+000 -3.8274e+000 -5.5664e+000 137734 215649,215701,215675
 7.0000e+001 215753  7.8810e-001 -6.5355e+000 -2.3325e+000 137734 215649,215727,215701
 7.0000e+001 215977  2.8695e+005 -1.2683e+007  2.2409e+006 137344 215801,215879,215827
 7.0000e+001 215954 -1.6280e+006 -4.2529e+006 -2.3429e+006 137344 215801,215905,215879
 7.0000e+001 215931  1.1272e+006 -1.8831e+007 -4.4603e+006 137344 215827,215879,215853
 7.0000e+001 216129 -8.0594e+005 -2.1803e+006  5.3550e+005 136940 216028,216080,216054
 7.0000e+001 216106 -6.2100e+005 -4.3740e+006  1.8107e+006 136940 216002,216080,216028
 7.0000e+001 216330 -1.9528e+006 -7.4402e+006  1.3944e+006 136600 216180,216232,216206
 7.0000e+001 216307 -7.1122e+005 -7.2174e+006  2.7551e+006 136600 216154,216232,216180
 7.0000e+001 216284 -1.7513e+006 -3.4772e+006  5.8017e+005 136600 216154,216258,216232
 7.0000e+001 216482  4.1774e+005 -4.6448e+006  1.1182e+006 136260 216381,216433,216407
 7.0000e+001 216459  1.5391e+005 -3.2986e+006  1.1547e+006 136260 216355,216433,216381
 7.0000e+001 216634 -2.1133e+005 -4.8024e+005  2.7464e+005 135970 216533,216585,216559
 7.0000e+001 216611 -1.1934e+005 -9.0707e+005  4.1578e+005 135970 216507,216585,216533
 7.0000e+001 216835 -1.2407e+005 -2.1470e+006  4.7367e+004 135608 216685,216763,216711
 7.0000e+001 216812 -3.6849e+004 -2.2397e+006 -1.0842e+005 135608 216659,216763,216685
 7.0000e+001 216789 -2.8910e+004 -1.2819e+006  9.5154e+003 135608 216711,216763,216737
 7.0000e+001 217036 -1.2430e+006 -1.1594e+006  5.8077e+005 135312 216912,216964,216938
 7.0000e+001 217013 -9.2593e+005 -3.6640e+006  2.2625e+006 135312 216886,216964,216912
 7.0000e+001 216990  5.1404e+005 -6.9600e+006  1.5883e+006 135312 216860,216964,216886
 7.0000e+001 217237 -1.1005e+005 -7.6474e+005  2.7860e+005 134908 217061,217139,217113
 7.0000e+001 217214 -2.0131e+005 -8.1623e+005  4.1282e+005 134908 217061,217165,217139
 7.0000e+001 217191 -1.5832e+005 -1.0443e+006  4.0662e+005 134908 217061,217113,217087
 7.0000e+001 217438 -4.2750e+005 -1.7424e+007 -1.4558e+006 134568 217288,217366,217314
 7.0000e+001 217415 -4.1548e+005 -1.9163e+007 -1.9870e+006 134568 217262,217366,217288
 7.0000e+001 217392 -7.4272e+005 -2.1765e+007 -2.4185e+006 134568 217314,217366,217340
 7.0000e+001 217590 -1.7945e+004 -2.4786e+005  1.0663e+005 134106 217463,217515,217489
 7.0000e+001 217567 -3.1660e+004 -2.3191e+005  7.6852e+004 134106 217463,217541,217515
 7.0000e+001 217791 -1.9722e+006 -1.5730e+007 -6.1367e+006 133816 217641,217693,217667
 7.0000e+001 217768  7.4791e+006 -1.5731e+007 -3.9723e+006 133816 217641,217719,217693
 7.0000e+001 217745 -2.3444e+007 -1.3411e+007  1.7732e+007 133816 217615,217719,217641
 7.0000e+001 217992 -4.3839e+006 -5.0863e+006  5.1152e+006 133355 217842,217920,217894
 7.0000e+001 217969 -1.2720e+006 -9.7709e+006  3.5385e+006 133355 217816,217920,217842
 7.0000e+001 217946 -1.2222e+006 -2.8636e+006  9.7451e+005 133355 217842,217894,217868
 7.0000e+001 218193 -1.6059e+005 -7.2839e+006  8.6280e+005 132851 218017,218095,218069
 7.0000e+001 218170 -5.0425e+006 -7.7319e+006  6.8599e+006 132851 218017,218121,218095
 7.0000e+001 218147 -1.5355e+006 -2.8176e+006 -5.4540e+005 132851 218017,218069,218043
 7.0000e+001 218345 -2.1130e+004 -8.9132e+004  3.2302e+004 132511 218244,218296,218270
 7.0000e+001 218322 -1.5378e+004 -2.2163e+005  6.6464e+004 132511 218218,218296,218244
 7.0000e+001 218497  2.5030e+006 -2.6824e+007  5.3765e+004 132235 218396,218448,218422
 7.0000e+001 218474  1.8071e+004 -9.1506e+006  7.9169e+005 132235 218370,218448,218396
 7.0000e+001 218698 -3.9614e+005 -1.0599e+007 -3.0346e+006 131945 218574,218626,218600
 7.0000e+001 218675 -1.6563e+006 -2.1014e+007 -6.9444e+005 131945 218522,218626,218574
 7.0000e+001 218652 -2.9754e+006 -8.5502e+006 -3.2720e+006 131945 218522,218574,218548
 7.0000e+001 218850 -5.9816e+005 -1.6695e+007  8.4781e+005 131655 218723,218775,218749
 7.0000e+001 218827  2.3682e+005 -1.1373e+007  3.8416e+005 131655 218723,218801,218775
 7.0000e+001 218953 -4.2756e+000  2.2543e+000  1.9319e-001 131215 218875,218927,218901
 7.0000e+001 219105 -6.1079e+004 -1.4761e+006 -1.6338e+005 130875 218978,219030,219004
 7.0000e+001 219082 -5.4699e+004 -5.9974e+005 -1.7538e+004 130875 218978,219056,219030
 7.0000e+001 219306 -3.4241e+005 -1.0561e+006  1.3579e+005 130429 219156,219234,219208
 7.0000e+001 219283 -3.6471e+005 -6.9052e+005  2.1653e+005 130429 219130,219234,219156
 7.0000e+001 219260 -1.1066e+006 -1.2834e+006  7.8418e+005 130429 219156,219208,219182
 7.0000e+001 219507 -3.2116e+005 -1.0957e+006  4.6187e+005 130025 219383,219435,219409
 7.0000e+001 219484 -2.9062e+005 -1.4073e+006  6.0702e+005 130025 219331,219435,219383
 7.0000e+001 219461 -3.2426e+005 -8.5002e+005  3.5608e+005 130025 219331,219383,219357
 7.0000e+001 219659 -2.4868e+005 -1.3990e+006 -7.7469e+004 129685 219558,219610,219584
 7.0000e+001 219636 -2.0218e+004 -1.3783e+006 -1.5871e+005 129685 219532,219610,219558
 7.0000e+001 219860 -1.8182e+005 -7.2843e+005  4.9310e+005 129395 219710,219788,219762
 7.0000e+001 219837 -1.7196e+005 -1.0131e+006  4.7966e+005 129395 219684,219788,219710
 7.0000e+001 219814 -6.0306e+004 -1.0326e+006  2.7545e+005 129395 219710,219762,219736
 7.0000e+001 220061  1.2545e+004 -1.2330e+005  6.6762e+004 128991 219937,219989,219963
 7.0000e+001 220038  7.0611e+003 -2.3029e+005  4.6689e+004 128991 219885,219989,219937
 7.0000e+001 220015 -2.7999e+003 -2.9541e+005  9.5795e+004 128991 219885,219937,219911
 7.0000e+001 220262 -5.6031e+004 -5.9417e+004  1.2141e+004 128701 220086,220164,220112
 7.0000e+001 220239 -1.3318e+004 -2.1663e+005  8.4611e+004 128701 220086,220190,220164
 7.0000e+001 220216 -3.8633e+003 -4.9168e+004  1.3995e+004 128701 220112,220164,220138
 7.0000e+001 220463 -3.6833e+006 -9.2363e+006  4.3840e+006 128297 220339,220391,220365
 7.0000e+001 220440 -5.6008e+005 -1.2173e+007  3.7302e+006 128297 220313,220391,220339
 7.0000e+001 220417 -1.8714e+006 -1.7899e+007 -9.1882e+006 128297 220287,220391,220313
 7.0000e+001 220615  9.8905e+004 -4.8124e+005 -2.3514e+005 128007 220488,220540,220514
 7.0000e+001 220592  1.1771e+005 -1.7010e+006 -1.2047e+005 128007 220488,220566,220540
 7.0000e+001 220767 -2.9332e+004 -4.7047e+006  3.1651e+005 127567 220640,220692,220666
 7.0000e+001 220744 -1.1499e+005 -2.1575e+006  2.5807e+003 127567 220640,220718,220692
 7.0000e+001 220919 -1.9614e+006 -1.4750e+007 -2.3000e+006 127163 220792,220844,220818
 7.0000e+001 220896  1.5406e+004 -1.8087e+007  2.3729e+006 127163 220792,220870,220844
 7.0000e+001 221071 -3.0812e+006 -4.4206e+006  3.3143e+006 126915 220970,221022,220996
 7.0000e+001 221048 -2.7242e+006 -5.9871e+006  2.9228e+006 126915 220944,221022,220970
 7.0000e+001 221272 -1.7751e+006 -4.3462e+006  3.3769e+006 126461 221122,221174,221148
 7.0000e+001 221249 -3.7747e+005 -5.1326e+006  1.1469e+005 126461 221122,221200,221174
 7.0000e+001 221226 -7.5595e+005 -3.7379e+006  7.7390e+005 126461 221096,221200,221122
 7.0000e+001 221375 -3.1692e-001 -9.5704e+002 -1.1036e+000 126213 221297,221349,221323
 7.0000e+001 221478 -4.6117e-075  3.5103e-074 -2.0876e-074 125766 221400,221452,221426
 7.0000e+001 221679 -1.8888e+004 -1.3680e+005  4.1362e+004 125212 221503,221555,221529
 7.0000e+001 221656 -9.9474e+003 -1.1978e+005  3.0664e+004 125212 221503,221581,221555
 7.0000e+001 221633 -2.5704e+004 -3.5764e+005  1.5456e+005 125212 221503,221607,221581
 7.0000e+001 221929 -1.3524e+001 -1.7839e+001 -1.2316e+001 124872 221782,221834,221808
 7.0000e+001 221906 -1.4290e+001 -4.8145e+000 -7.1521e+000 124872 221756,221834,221782
 7.0000e+001 221883 -1.1216e+001 -1.7869e+001  5.6597e+000 124872 221704,221834,221756
 7.0000e+001 221860 -9.1195e+000 -1.1179e+001 -1.3307e+000 124872 221704,221756,221730
 7.0000e+001 222130 -8.1210e+005 -7.6012e+006 -1.8278e+005 124582 221980,222058,222006
 7.0000e+001 222107 -1.7836e+006 -6.8079e+006  4.5799e+005 124582 221954,222058,221980
 7.0000e+001 222084 -2.2059e+006 -7.5987e+006 -7.9290e+005 124582 222006,222058,222032
 7.0000e+001 222282 -1.9073e+006 -6.3426e+006 -1.6434e+006 124192 222181,222233,222207
 7.0000e+001 222259 -8.7679e+005 -4.8800e+006 -3.3962e+005 124192 222155,222233,222181
 7.0000e+001 222483 -2.5023e+005 -1.2251e+006 -8.1234e+005 123702 222333,222385,222359
 7.0000e+001 222460 -1.0426e+005 -6.1174e+005 -1.7036e+005 123702 222333,222411,222385
 7.0000e+001 222437 -1.3866e+005 -5.5741e+005 -2.4398e+005 123702 222307,222411,222333
 7.0000e+001 222635 -4.8618e+004 -1.2411e+005  7.6313e+004 123312 222508,222560,222534
 7.0000e+001 222612 -4.6589e+004 -1.1642e+005  7.4376e+004 123312 222508,222586,222560
 7.0000e+001 222787 -2.1529e+000 -9.5874e-002  4.5432e-001 122858 222686,222738,222712
 7.0000e+001 222764  7.4531e-001  3.3191e-002 -1.5728e-001 122858 222660,222738,222686
 7.0000e+001 222939 -1.6333e+004 -3.6754e+005 -2.5767e+003 122568 222812,222864,222838
 7.0000e+001 222916  2.2703e+004 -2.1036e+005 -9.0151e+003 122568 222812,222890,222864
 7.0000e+001 223091 -1.1019e+006 -7.6545e+005  7.1724e+004 122392 222964,223016,222990
 7.0000e+001 223068 -3.8122e+005 -5.6019e+005 -4.7823e+004 122392 222964,223042,223016
 7.0000e+001 223292 -7.9359e+005 -1.6787e+006  7.3539e+004 121852 223142,223220,223194
 7.0000e+001 223269 -3.4712e+006 -5.5161e+005  3.3937e+005 121852 223116,223220,223142
 7.0000e+001 223246 -3.4364e+006 -1.6262e+006 -2.9766e+006 121852 223142,223194,223168
 7.0000e+001 223493 -7.9918e+005 -3.5861e+005  5.6453e+005 121406 223343,223395,223369
 7.0000e+001 223470 -8.4266e+005 -3.4233e+005  5.3908e+005 121406 223343,223421,223395
 7.0000e+001 223447 -3.1674e+005 -4.5537e+005  3.0431e+005 121406 223317,223421,223343
 7.0000e+001 223645  3.1506e+005 -1.1945e+007  2.0737e+006 121002 223544,223596,223570
 7.0000e+001 223622 -1.1533e+006 -8.4655e+006  2.0869e+006 121002 223518,223596,223544
 7.0000e+001 223846  9.6138e-001 -1.0075e+000  4.8361e+000 120662 223670,223748,223696
 7.0000e+001 223823  3.1429e+000  1.1907e+000  1.7334e-001 120662 223670,223774,223748
 7.0000e+001 223800 -9.0456e+000  4.8032e+000  1.6091e+000 120662 223696,223748,223722
 7.0000e+001 224047 -9.9706e-001 -3.3332e+000  3.0944e+000 120222 223897,223949,223923
 7.0000e+001 224024 -2.0781e+000  2.7797e-001  1.3150e+000 120222 223871,223949,223897
 7.0000e+001 224001 -8.1298e-001 -5.4949e+000 -2.3626e+000 120222 223871,223975,223949
 7.0000e+001 224248 -1.1727e+000  7.3437e+000 -3.1924e+000 119875 224124,224176,224150
 7.0000e+001 224225  1.2669e+001 -9.9267e+000 -2.1731e+000 119875 224098,224176,224124
 7.0000e+001 224202 -9.5951e+000 -1.5079e+001  2.1852e+000 119875 224072,224176,224098
 7.0000e+001 224449  1.8231e+000 -1.3407e+000  1.0408e+000 119677 224325,224377,224351
 7.0000e+001 224426  1.7069e+000 -1.6104e+000  1.1613e+000 119677 224299,224377,224325
 7.0000e+001 224403 -9.1173e+000 -9.8252e+000  9.5474e+000 119677 224273,224377,224299
 7.0000e+001 224552  2.8074e+000  3.9929e+000  2.7193e+000 119273 224474,224526,224500
 7.0000e+001 224704 -2.4591e+004 -1.1805e+005  5.4108e+004 118983 224603,224655,224629
 7.0000e+001 224681 -2.6544e+004 -1.1566e+005  5.5238e+004 118983 224577,224655,224603
 7.0000e+001 224856 -2.3472e+005  1.3718e+004  1.4710e+004 118529 224755,224807,224781
 7.0000e+001 224833  3.1077e+004 -2.5129e+005  6.6238e+004 118529 224729,224807,224755
 7.0000e+001 225008  5.3741e-002 -2.8233e+000 -5.6320e-001 118353 224881,224933,224907
 7.0000e+001 224985  4.5143e-001  1.6434e+000 -5.1482e-001 118353 224881,224959,224933
 7.0000e+001 225209 -8.5934e+005 -5.1809e+006 -1.2598e+006 117949 225059,225137,225111
 7.0000e+001 225186 -2.8489e+005 -3.9279e+006  6.2430e+005 117949 225033,225137,225059
 7.0000e+001 225163  3.8033e+005 -8.6708e+006  4.8411e+005 117949 225059,225111,225085
 7.0000e+001 225410  5.7245e+004 -7.0744e+006  6.5146e+005 117559 225260,225338,225312
 7.0000e+001 225387 -1.7825e+006 -7.5616e+006  4.7746e+005 117559 225234,225338,225260
 7.0000e+001 225364 -5.7922e+005 -5.1080e+006 -1.7223e+006 117559 225260,225312,225286
 7.0000e+001 225611 -1.3351e+006 -9.8524e+006 -3.4090e+006 117361 225461,225513,225487
 7.0000e+001 225588 -1.7883e+006 -1.0808e+007  1.5381e+006 117361 225461,225539,225513
 7.0000e+001 225565 -8.1755e+005 -1.0983e+007  1.4647e+006 117361 225435,225539,225461
 7.0000e+001 225812  5.2845e+005 -8.0281e+006 -5.7231e+005 116900 225636,225714,225662
 7.0000e+001 225789 -1.7644e+006 -3.2673e+006 -1.0767e+006 116900 225636,225740,225714
 7.0000e+001 225766 -9.1930e+002 -8.1727e+006 -8.2332e+004 116900 225662,225714,225688
 7.0000e+001 225964 -1.2449e+005 -5.2369e+006 -1.4865e+005 116560 225837,225889,225863
 7.0000e+001 225941  2.1833e+005 -6.6344e+006  1.4535e+005 116560 225837,225915,225889
 7.0000e+001 226165  2.4050e+000 -1.2114e+001  1.1562e+001 116106 226015,226093,226041
 7.0000e+001 226142 -2.1117e+001  3.4768e+000 -1.6903e+001 116106 225989,226093,226015
 7.0000e+001 226119  3.5218e+000 -1.2543e+001  1.5850e+001 116106 226041,226093,226067
 7.0000e+001 226268 -1.6665e+006 -5.1383e+006  7.9922e+005 115716 226190,226242,226216
 7.0000e+001 226420  6.1994e+004 -1.0266e+007  1.8838e+006 115376 226293,226345,226319
 7.0000e+001 226397 -3.3351e+005 -1.0998e+007  3.0611e+006 115376 226293,226371,226345
 7.0000e+001 226621 -8.3415e+005 -2.2453e+006  5.7072e+005 114972 226497,226549,226523
 7.0000e+001 226598 -4.5140e+005 -1.1369e+007 -2.9757e+005 114972 226445,226549,226497
 7.0000e+001 226575  2.7187e+005 -6.0897e+006  8.5718e+005 114972 226445,226497,226471
 7.0000e+001 226773 -1.7721e+006 -3.0170e+006 -1.3574e+006 114670 226646,226698,226672
 7.0000e+001 226750  5.3733e+005 -7.6767e+006  8.4841e+005 114670 226646,226724,226698
 7.0000e+001 226974  5.6658e+004 -2.7699e+006 -5.0838e+005 114082 226798,226850,226824
 7.0000e+001 226951  1.6635e+005 -3.8193e+006 -1.3499e+005 114082 226798,226902,226850
 7.0000e+001 226928  6.3686e+004 -5.2285e+006 -5.2232e+005 114082 226850,226902,226876
 7.0000e+001 227175 -8.2444e+005 -5.1583e+006 -2.5822e+006 113678 226999,227051,227025
 7.0000e+001 227152 -2.1514e+006 -9.1005e+006 -4.0764e+006 113678 226999,227077,227051
 7.0000e+001 227129 -3.2244e+006 -5.3916e+006 -3.4525e+006 113678 226999,227103,227077
 7.0000e+001 227425 -3.7946e+006 -7.9535e+006 -8.6822e+006 113274 227226,227278,227252
 7.0000e+001 227402 -4.4461e+005 -7.6378e+006 -1.8931e+006 113274 227226,227330,227278
 7.0000e+001 227379 -3.5349e+006 -4.3399e+006 -1.9021e+006 113274 227200,227330,227226
 7.0000e+001 227356 -1.5751e+006 -1.3913e+006 -1.6582e+006 113274 227278,227330,227304
 7.0000e+001 227626 -6.4931e+005 -3.8028e+006 -2.6694e+006 112934 227502,227554,227528
 7.0000e+001 227603  7.5024e+005 -2.8719e+006  2.1753e+004 112934 227450,227554,227502
 7.0000e+001 227580 -1.7958e+006 -2.4825e+005  9.0010e+005 112934 227450,227502,227476
 7.0000e+001 227876 -1.5430e+005 -1.9938e+006 -1.6623e+005 112437 227677,227755,227703
 7.0000e+001 227853 -1.0863e+006 -2.3977e+006  1.4072e+006 112437 227677,227781,227755
 7.0000e+001 227830 -2.3521e+005 -1.0600e+006  3.7279e+005 112437 227703,227755,227729
 7.0000e+001 227807 -4.0858e+005 -7.3979e+006 -3.4057e+005 112437 227651,227781,227677
 7.0000e+001 228126 -2.0524e+005 -4.2107e+006 -4.1316e+005 112041 227927,228005,227953
 7.0000e+001 228103 -3.5076e+005 -4.4300e+006 -5.5367e+005 112041 227927,228031,228005
 7.0000e+001 228080 -7.5762e+004 -5.0972e+006 -3.4080e+005 112041 227953,228005,227979
 7.0000e+001 228057 -6.8622e+005 -3.4394e+006 -7.7071e+005 112041 227901,228031,227927
 7.0000e+001 228327 -2.1500e+006 -3.2474e+006  1.5496e+005 111693 228151,228203,228177
 7.0000e+001 228304 -3.3169e+004 -2.1330e+006 -1.2079e+006 111693 228151,228229,228203
 7.0000e+001 228281  8.1451e+005 -5.5235e+006  1.2895e+006 111693 228151,228255,228229
 7.0000e+001 228479 -3.3073e+006 -1.8726e+006 -3.2651e+006 111253 228352,228404,228378
 7.0000e+001 228456 -2.0508e+006 -3.5216e+005 -2.1926e+004 111253 228352,228430,228404
 7.0000e+001 228582  5.3507e-001 -2.3312e+000 -5.7286e-001 110906 228504,228556,228530
 7.0000e+001 228783  6.2946e+003 -2.0680e+006 -7.4409e+004 110416 228633,228711,228659
 7.0000e+001 228760  4.0648e+004 -1.9545e+006 -5.1675e+004 110416 228607,228711,228633
 7.0000e+001 228737  7.4769e+004 -2.5452e+006 -1.2812e+005 110416 228659,228711,228685
 7.0000e+001 228935 -6.1827e+004 -3.6669e+006 -1.0429e+006 110012 228808,228860,228834
 7.0000e+001 228912 -9.7571e+005 -6.5140e+006 -1.6561e+006 110012 228808,228886,228860
 7.0000e+001 229087 -1.2663e+006 -2.7974e+006 -1.7087e+006 109672 228960,229012,228986
 7.0000e+001 229064  4.6375e+005 -5.9008e+006 -8.8031e+005 109672 228960,229038,229012
 7.0000e+001 229190  1.1308e-004  5.2662e-004  1.1515e-004 109332 229112,229164,229138
 7.0000e+001 229391 -2.4960e+005 -1.9566e+005  1.3518e+005 109156 229267,229319,229293
 7.0000e+001 229368 -2.5707e+005 -1.4510e+006  3.5334e+005 109156 229215,229319,229267
 7.0000e+001 229345 -1.2733e+005 -6.1181e+005  5.3252e+005 109156 229215,229267,229241
 7.0000e+001 229543  8.3046e+005 -9.4215e+006  1.2536e+006 108752 229416,229468,229442
 7.0000e+001 229520 -5.7534e+005 -4.0260e+006 -5.5701e+005 108752 229416,229494,229468
 7.0000e+001 229744 -1.1087e+005 -5.4509e+006  1.1994e+005 108198 229594,229646,229620
 7.0000e+001 229721  1.1325e+005 -5.3778e+006 -1.2880e+005 108198 229594,229672,229646
 7.0000e+001 229698 -4.4208e+005 -5.2400e+006 -1.0093e+005 108198 229568,229672,229594
 7.0000e+001 229847 -1.7068e+005 -2.0477e+006 -4.8683e+005 107758 229769,229821,229795
 7.0000e+001 230048 -7.8093e+005 -2.3290e+006 -2.2305e+005 107468 229898,229950,229924
 7.0000e+001 230025 -5.8723e+005 -1.8584e+006  6.4855e+005 107468 229872,229950,229898
 7.0000e+001 230002 -1.1357e+006 -1.8691e+006  6.2358e+005 107468 229872,229976,229950
 7.0000e+001 230298  1.2427e+005 -1.3232e+006  4.2103e+005 107121 230099,230203,230177
 7.0000e+001 230275 -2.0366e+005 -2.2854e+006  1.7310e+005 107121 230073,230203,230099
 7.0000e+001 230252  5.1808e+005 -1.6061e+006 -2.9636e+005 107121 230099,230177,230151
 7.0000e+001 230229 -1.9784e+005 -1.4611e+006 -5.3786e+005 107121 230099,230151,230125
 7.0000e+001 230450  1.2635e+004 -1.1089e+006  4.2729e+004 106823 230349,230401,230375
 7.0000e+001 230427 -2.2291e+004 -1.1458e+006  2.1212e+004 106823 230323,230401,230349
 7.0000e+001 230602 -4.0870e+006 -1.0527e+007 -9.1370e+006 106533 230501,230553,230527
 7.0000e+001 230579  7.3657e+005 -1.3754e+007  3.2124e+006 106533 230475,230553,230501
 7.0000e+001 230803 -1.2310e+005 -2.5988e+006 -6.5369e+004 106029 230679,230731,230705
 7.0000e+001 230780  7.7856e+004 -1.7870e+006 -4.1481e+004 106029 230653,230731,230679
 7.0000e+001 230757 -3.3872e+003 -2.4345e+006 -1.6725e+005 106029 230627,230731,230653
 7.0000e+001 231004 -1.5603e+005 -2.0008e+006  2.3232e+005 105689 230854,230906,230880
 7.0000e+001 230981  3.3220e+004 -2.2490e+006 -5.3298e+004 105689 230828,230906,230854
 7.0000e+001 230958 -7.2518e+005 -1.8362e+006 -3.9237e+005 105689 230828,230932,230906
 7.0000e+001 231156  3.2068e+005 -7.3545e+006 -3.4618e+005 105377 231055,231107,231081
 7.0000e+001 231133 -2.6149e+005 -4.6003e+006  4.3457e+005 105377 231029,231107,231055
 7.0000e+001 231406 -4.6400e+005 -7.9431e+006 -1.6159e+006 104858 231207,231259,231233
 7.0000e+001 231383 -1.3011e+006 -7.9727e+006 -1.7850e+006 104858 231207,231311,231259
 7.0000e+001 231360 -6.4024e+005 -9.3925e+006 -2.4149e+006 104858 231259,231311,231285
 7.0000e+001 231337 -3.2283e+005 -9.1954e+006 -1.9288e+006 104858 231181,231311,231207
 7.0000e+001 231558 -1.3893e+006 -1.7539e+007  2.2353e+006 104418 231457,231509,231483
 7.0000e+001 231535 -3.4066e+006 -1.7221e+007 -8.1777e+006 104418 231431,231509,231457
 7.0000e+001 231710 -2.4220e+006 -8.9368e+005 -2.7415e+005 103978 231583,231635,231609
 7.0000e+001 231687 -1.2670e+006 -1.0559e+006 -9.1725e+005 103978 231583,231661,231635
 7.0000e+001 231862 -7.5032e+005 -6.2927e+006 -6.3411e+005 103588 231761,231813,231787
 7.0000e+001 231839  1.2463e+005 -3.3208e+006 -1.7981e+004 103588 231735,231813,231761
 7.0000e+001 232014 -2.0081e+006 -9.2138e+006 -3.3362e+006 103248 231887,231939,231913
 7.0000e+001 231991 -2.9964e+006 -1.7190e+007 -7.2715e+006 103248 231887,231965,231939
 7.0000e+001 232215 -3.9140e+001 -1.5360e+002 -1.7940e+002 102844 232039,232117,232065
 7.0000e+001 232192 -9.3816e+001  1.9886e+001 -1.2147e+001 102844 232039,232143,232117
 7.0000e+001 232169 -2.5915e+002 -1.2739e+002 -1.9567e+002 102844 232065,232117,232091
 7.0000e+001 232416 -3.8422e+006 -9.5292e+006 -5.1212e+006 102554 232240,232318,232292
 7.0000e+001 232393  7.4936e+005 -1.5698e+007 -1.3650e+006 102554 232240,232344,232318
 7.0000e+001 232370 -5.2839e+006 -2.7950e+006 -1.4704e+006 102554 232240,232292,232266
 7.0000e+001 232568 -8.0945e+004 -2.3124e+006  1.1214e+005 102100 232441,232493,232467
 7.0000e+001 232545 -4.3956e+005 -2.5312e+006  5.6216e+005 102100 232441,232519,232493
 7.0000e+001 232769 -1.2455e+005 -1.4127e+006  2.6773e+005 101596 232645,232697,232671
 7.0000e+001 232746  4.2203e+004 -7.7643e+005  1.4952e+005 101596 232593,232697,232645
 7.0000e+001 232723 -4.8250e+004 -1.3594e+006  2.6013e+005 101596 232593,232645,232619
 7.0000e+001 232921 -2.7936e+004 -1.0025e+004 -9.2386e+003 101420 232794,232846,232820
 7.0000e+001 232898 -1.4464e+004 -1.4706e+005 -4.9796e+004 101420 232794,232872,232846
 7.0000e+001 233073 -9.4209e+005 -1.5272e+006 -6.7403e+004 101023 232946,232998,232972
 7.0000e+001 233050 -6.7777e+004 -3.2822e+006  1.2743e+006 101023 232946,233024,232998
 7.0000e+001 233225  9.3226e+000 -5.5352e+000 -5.4177e+000 100661 233098,233150,233124
 7.0000e+001 233202  1.1232e+000 -1.1783e+001 -1.7918e+000 100661 233098,233176,233150
 7.0000e+001 233426 -1.7627e+006 -7.3518e+006 -2.4633e+006 100265 233276,233328,233302
 7.0000e+001 233403 -1.1393e+006 -6.6540e+006 -9.2364e+005 100265 233276,233354,233328
 7.0000e+001 233380 -1.4354e+006 -7.4645e+006 -1.2127e+006 100265 233250,233354,233276
 7.0000e+001 233578 -4.0654e+003 -1.3830e+006  7.4804e+004 100032 233451,233503,233477
 7.0000e+001 233555 -2.0493e+005 -1.4094e+006  2.4672e+005 100032 233451,233529,233503
 7.0000e+001 233681 -1.3455e+006  9.6424e+004 -1.5258e+005 99742 233603,233655,233629
 7.0000e+001 233784 -8.0930e+005 -1.9989e+006  3.3670e+005 99402 233706,233758,233732
 7.0000e+001 233936 -6.5416e+005 -1.8070e+006  6.8744e+005 99062 233835,233887,233861
 7.0000e+001 233913 -6.6318e+005 -1.8154e+006  5.7324e+005 99062 233809,233887,233835
 7.0000e+001 234088 -1.1343e+006 -2.2731e+006  8.6198e+005 98772 233987,234039,234013
 7.0000e+001 234065 -3.0879e+005 -2.1467e+006  7.1587e+005 98772 233961,234039,233987
 7.0000e+001 234240 -9.2116e+003 -1.1871e+005  3.1459e+004 98160 234139,234191,234165
 7.0000e+001 234217 -3.9297e+003 -9.8418e+004  2.9800e+004 98160 234113,234191,234139
 7.0000e+001 234441 -2.3666e+000 -2.1927e+002 -8.2284e+001 97820 234317,234369,234343
 7.0000e+001 234418 -4.3486e+001 -4.9204e+002 -2.4791e+002 97820 234291,234369,234317
 7.0000e+001 234395 -3.6257e+002 -1.3189e+003 -5.1334e+002 97820 234265,234369,234291
 7.0000e+001 234593 -1.4082e+005 -1.2716e+006 -3.3827e+004 97366 234466,234518,234492
 7.0000e+001 234570 -3.7526e+004 -2.3022e+006  7.0065e+003 97366 234466,234544,234518
 7.0000e+001 234794 -5.3351e+005 -7.9894e+005 -5.0455e+005 96976 234618,234670,234644
 7.0000e+001 234771 -2.1138e+005 -1.5608e+006 -3.9569e+005 96976 234618,234722,234670
 7.0000e+001 234748 -2.6443e+005 -1.3158e+006 -5.6134e+005 96976 234670,234722,234696
 7.0000e+001 234946 -4.7112e+005 -6.4142e+005  6.1028e+004 96568 234845,234897,234871
 7.0000e+001 234923 -2.2804e+005 -2.0087e+005  5.3340e+005 96568 234819,234897,234845
 7.0000e+001 235196 -1.0400e+005 -4.6533e+005 -1.2545e+005 96216 234997,235075,235049
 7.0000e+001 235173  5.8765e+004 -2.2563e+006  6.0774e+005 96216 234997,235101,235075
 7.0000e+001 235150 -2.4121e+005 -6.2856e+005  6.4353e+004 96216 234997,235049,235023
 7.0000e+001 235127 -8.6478e+004 -2.3627e+006  4.5217e+005 96216 234971,235101,234997
 7.0000e+001 235348 -1.7764e+006 -1.8754e+006 -1.7352e+006 95863 235247,235299,235273
 7.0000e+001 235325 -1.1718e+006 -1.3461e+006 -9.4542e+005 95863 235221,235299,235247
 7.0000e+001 235500 -1.4890e+005 -1.1983e+006  1.9974e+005 95339 235373,235425,235399
 7.0000e+001 235477 -2.5381e+005 -1.7458e+006  2.0070e+006 95339 235373,235451,235425
 7.0000e+001 235701  7.5914e+004 -2.0429e+006  4.0029e+005 95023 235525,235577,235551
 7.0000e+001 235678 -8.7558e+004 -2.0434e+006  3.9730e+005 95023 235525,235629,235577
 7.0000e+001 235655 -5.9666e+004 -3.4998e+006  6.8697e+005 95023 235577,235629,235603
 7.0000e+001 235853  1.8295e+005 -1.3964e+007 -2.4953e+005 94671 235726,235778,235752
 7.0000e+001 235830  1.6619e+005 -1.4739e+007  3.3232e+005 94671 235726,235804,235778
 7.0000e+001 236005 -1.7661e+006 -7.6162e+006  7.3681e+005 94261 235904,235956,235930
 7.0000e+001 235982 -6.2636e+005 -1.2475e+007 -4.0978e+006 94261 235878,235956,235904
 7.0000e+001 236206 -1.2516e+006 -7.6323e+005  1.0419e+006 93853 236056,236134,236082
 7.0000e+001 236183 -1.7551e+006 -9.0344e+005  7.3721e+005 93853 236030,236134,236056
 7.0000e+001 236160 -1.2028e+006 -1.1484e+006  9.6330e+005 93853 236082,236134,236108
 7.0000e+001 236407 -1.8007e+006 -4.1179e+006  6.4672e+005 93557 236257,236309,236283
 7.0000e+001 236384 -2.9658e+006 -5.0635e+006 -2.5490e+006 93557 236231,236309,236257
 7.0000e+001 236361  1.4110e+006 -1.9624e+007  2.0766e+006 93557 236231,236335,236309
 7.0000e+001 236559 -9.6610e+003 -4.5988e+004  1.0818e+004 93149 236432,236484,236458
 7.0000e+001 236536 -9.7585e+003 -4.3415e+004  8.1478e+003 93149 236432,236510,236484
 7.0000e+001 236711 -2.4630e+005 -4.1193e+005  2.8360e+005 92853 236584,236636,236610
 7.0000e+001 236688 -1.4806e+005 -3.1258e+005  2.2353e+005 92853 236584,236662,236636
 7.0000e+001 236912 -1.2842e+005 -6.9871e+005  3.0116e+005 92501 236736,236788,236762
 7.0000e+001 236889 -2.6010e+005 -3.9054e+005  1.3817e+005 92501 236736,236840,236788
 7.0000e+001 236866 -2.5977e+005 -7.2771e+005 -7.7071e+004 92501 236788,236840,236814
 7.0000e+001 237113 -9.8732e+004 -4.7468e+006  1.9247e+005 92291 236963,237041,237015
 7.0000e+001 237090  1.7927e+005 -2.6810e+006  1.0024e+005 92291 236937,237041,236963
 7.0000e+001 237067 -2.2032e+005 -4.3239e+006  9.7560e+005 92291 236963,237015,236989
 7.0000e+001 237265 -1.0634e+005 -5.3503e+005 -4.3014e+005 91871 237138,237190,237164
 7.0000e+001 237242 -4.0785e+005 -1.5341e+006 -6.1807e+005 91871 237138,237216,237190
 7.0000e+001 237368 -3.8709e+002 -2.1063e+006  2.6704e+002 91581 237290,237342,237316
 7.0000e+001 237520 -1.8323e+004 -1.0249e+005  4.1876e+004 91184 237419,237471,237445
 7.0000e+001 237497 -8.9491e+004 -4.1567e+004  1.0009e+005 91184 237393,237471,237419
 7.0000e+001 237672 -2.3272e+005 -7.2576e+005 -1.9686e+005 90894 237545,237597,237571
 7.0000e+001 237649 -9.6342e+004 -2.9525e+006  8.1394e+005 90894 237545,237623,237597
 7.0000e+001 237873 -6.5820e+005 -2.8130e+006  8.7213e+005 90490 237749,237801,237775
 7.0000e+001 237850 -3.9076e+005 -2.9286e+006  1.1195e+006 90490 237723,237801,237749
 7.0000e+001 237827 -1.1293e+006 -3.1034e+006 -3.6971e+005 90490 237697,237801,237723
 7.0000e+001 238074 -5.9563e+005 -5.9901e+006  3.7106e+005 90100 237898,237976,237950
 7.0000e+001 238051 -2.6033e+006 -5.7575e+006 -5.5538e+005 90100 237898,238002,237976
 7.0000e+001 238028 -6.5504e+005 -2.9876e+006  4.6492e+005 90100 237898,237950,237924
 7.0000e+001 238275 -1.2028e+005 -4.3941e+005 -2.8801e+004 89696 238125,238177,238151
 7.0000e+001 238252 -7.2026e+005 -3.0007e+005 -5.5391e+005 89696 238099,238177,238125
 7.0000e+001 238229 -7.6511e+005 -4.8492e+005 -5.1212e+005 89696 238099,238203,238177
 7.0000e+001 238427 -1.3291e+002 -1.0979e+003 -1.1195e+003 89206 238326,238378,238352
 7.0000e+001 238404 -1.6406e+003 -5.0647e+003 -2.2926e+003 89206 238300,238378,238326
 7.0000e+001 238579 -2.5189e+005 -9.1016e+005  5.6130e+005 88908 238452,238504,238478
 7.0000e+001 238556 -5.5298e+004 -6.1181e+005  1.5144e+004 88908 238452,238530,238504
 7.0000e+001 238682  2.2444e+000 -4.2660e+000 -1.1616e+000 88568 238604,238656,238630
 7.0000e+001 238883  4.1717e+004 -4.5145e+006  1.5129e+006 88278 238733,238811,238785
 7.0000e+001 238860 -7.1705e+005 -2.4775e+006  1.3446e+006 88278 238707,238811,238733
 7.0000e+001 238837 -1.6091e+005 -4.8480e+006  8.8312e+005 88278 238733,238785,238759
 7.0000e+001 239035 -2.0215e+006 -5.0013e+006 -5.9206e+005 87988 238908,238960,238934
 7.0000e+001 239012 -2.2869e+006 -2.7172e+006  2.7461e+005 87988 238908,238986,238960
 7.0000e+001 239138 -1.2313e+006 -1.1267e+006 -9.0901e+005 87648 239060,239112,239086
 7.0000e+001 239339 -2.3377e+006 -3.6405e+006 -2.9089e+006 87358 239163,239215,239189
 7.0000e+001 239316 -2.3114e+006 -1.7951e+006 -6.5845e+005 87358 239163,239241,239215
 7.0000e+001 239293 -1.3981e+006 -1.5934e+006 -9.4029e+005 87358 239163,239267,239241
 7.0000e+001 239589 -6.7967e+002 -3.8417e+004  2.8932e+003 86961 239390,239468,239416
 7.0000e+001 239566 -3.6866e+004 -2.8433e+004  3.1255e+004 86961 239390,239494,239468
 7.0000e+001 239543 -2.3221e+003 -6.9285e+003  6.9108e+002 86961 239416,239468,239442
 7.0000e+001 239520 -6.7918e+004 -2.0107e+004  2.4277e+004 86961 239364,239494,239390
 7.0000e+001 239741 -1.4254e+006 -1.4909e+006 -1.1426e+005 86621 239640,239692,239666
 7.0000e+001 239718 -5.8275e+005 -3.9264e+006 -1.8122e+006 86621 239614,239692,239640
 7.0000e+001 239893 -5.7324e+005 -3.7250e+006  1.2512e+006 86217 239792,239844,239818
 7.0000e+001 239870 -5.6914e+005 -3.6451e+006  1.2334e+006 86217 239766,239844,239792
 7.0000e+001 240045 -5.5811e+005 -3.3207e+006  3.8204e+005 85827 239918,239970,239944
 7.0000e+001 240022 -1.8836e+005 -3.2205e+006  1.8554e+005 85827 239918,239996,239970
 7.0000e+001 240197 -4.9638e+005 -6.0128e+006  8.9178e+005 85437 240096,240148,240122
 7.0000e+001 240174 -8.8794e+005 -5.5200e+005  1.1870e+003 85437 240070,240148,240096
 7.0000e+001 240349 -7.9494e+003 -9.8875e+004  3.6407e+004 85147 240222,240274,240248
 7.0000e+001 240326 -6.4331e+003 -5.4112e+004 -7.4121e+003 85147 240222,240300,240274
 7.0000e+001 240501 -7.9079e+004 -4.0215e+005  3.7008e+004 84807 240374,240426,240400
 7.0000e+001 240478 -7.9203e+005 -1.4969e+006  1.0864e+006 84807 240374,240452,240426
 7.0000e+001 240653  6.6398e+001 -1.2236e+002 -3.7678e+001 84303 240552,240604,240578
 7.0000e+001 240630 -6.0244e+001 -3.2221e+002 -2.0174e+002 84303 240526,240604,240552
 7.0000e+001 240854 -4.4483e+005 -8.5114e+006 -4.4963e+006 83929 240704,240756,240730
 7.0000e+001 240831  1.3010e+006 -6.5869e+006  2.1406e+006 83929 240704,240782,240756
 7.0000e+001 240808 -2.7721e+006  1.8634e+006  2.3000e+006 83929 240678,240782,240704
 7.0000e+001 241055 -1.7999e+002 -2.2451e+003 -2.6032e+003 83539 240879,240957,240931
 7.0000e+001 241032 -3.5287e+002 -5.3774e+003  2.2585e+003 83539 240879,240983,240957
 7.0000e+001 241009 -2.3217e+003 -2.4261e+003 -1.6292e+003 83539 240879,240931,240905
 7.0000e+001 241207 -1.6911e+003 -9.2066e+004  3.0627e+003 83079 241106,241158,241132
 7.0000e+001 241184 -1.6780e+004 -7.5138e+004 -1.8027e+003 83079 241080,241158,241106
 7.0000e+001 241408 -4.0716e+005 -1.3631e+006 -1.1566e+006 82665 241232,241284,241258
 7.0000e+001 241385 -4.2233e+005 -1.8890e+005 -3.1600e+006 82665 241232,241336,241284
 7.0000e+001 241362 -3.2214e+006 -1.1668e+007  5.4473e+006 82665 241284,241336,241310
 7.0000e+001 241658 -2.5596e+005 -3.7066e+006  4.8296e+005 82375 241485,241563,241511
 7.0000e+001 241635 -3.2296e+004 -2.1820e+006  2.4832e+005 82375 241433,241563,241485
 7.0000e+001 241612 -1.1940e+005 -2.5654e+006  2.3228e+005 82375 241433,241485,241459
 7.0000e+001 241589 -5.8543e+005 -4.1610e+006  7.1318e+005 82375 241511,241563,241537
 7.0000e+001 241810 -8.9087e+005 -1.7345e+006 -5.9451e+005 82035 241683,241735,241709
 7.0000e+001 241787 -1.0111e+006 -2.6615e+006  6.5668e+005 82035 241683,241761,241735
 7.0000e+001 241962 -1.0962e+006 -2.2974e+006  7.0217e+005 81695 241861,241913,241887
 7.0000e+001 241939 -3.9251e+005 -3.1437e+006 -9.5628e+005 81695 241835,241913,241861
 7.0000e+001 242114 -1.2798e+006 -5.4579e+006  1.3810e+006 81355 242013,242065,242039
 7.0000e+001 242091 -5.0541e+005 -2.6775e+006  8.6800e+005 81355 241987,242065,242013
 7.0000e+001 242266 -3.2735e+002 -9.1710e+004  4.8327e+003 80951 242139,242191,242165
 7.0000e+001 242243 -1.9601e+002 -9.1190e+004  4.8478e+003 80951 242139,242217,242191
 7.0000e+001 242467 -4.0227e+005 -4.6989e+006  5.7122e+005 80311 242291,242369,242343
 7.0000e+001 242444  1.5861e+005 -2.3762e+006  4.2313e+005 80311 242291,242395,242369
 7.0000e+001 242421 -1.7778e+005 -1.1720e+006  2.1829e+005 80311 242291,242343,242317
 7.0000e+001 242619 -1.3394e+006 -2.4638e+006  4.1907e+005 80021 242492,242544,242518
 7.0000e+001 242596 -1.2839e+006 -2.2911e+006  1.4050e+006 80021 242492,242570,242544
 7.0000e+001 242869 -5.4565e+003 -2.2361e+004 -5.7478e+003 79631 242644,242722,242696
 7.0000e+001 242846  9.9048e+003 -1.0371e+005  1.2643e+004 79631 242644,242774,242722
 7.0000e+001 242823  1.9907e+004 -5.2175e+004  2.1620e+004 79631 242722,242774,242748
 7.0000e+001 242800 -2.7086e+003 -1.7700e+004  1.3126e+003 79631 242644,242696,242670
 7.0000e+001 243070 -3.0676e+005 -1.3866e+007  3.4963e+006 79341 242920,242972,242946
 7.0000e+001 243047 -7.8697e+005 -6.5343e+006 -2.9669e+005 79341 242920,242998,242972
 7.0000e+001 243024 -7.8567e+005 -4.1322e+006  1.8021e+006 79341 242894,242998,242920
 7.0000e+001 243222 -4.7160e+005 -3.0976e+006  1.3447e+006 78801 243121,243173,243147
 7.0000e+001 243199 -4.6851e+005 -3.1238e+006  1.2969e+006 78801 243095,243173,243121
 7.0000e+001 243423 -1.0673e+006 -3.0470e+006 -7.9806e+005 78511 243273,243325,243299
 7.0000e+001 243400  8.6512e+005 -7.1171e+006  1.2448e+006 78511 243273,243351,243325
 7.0000e+001 243377 -3.3231e+003 -7.3941e+006  1.6766e+005 78511 243247,243351,243273
 7.0000e+001 243624 -4.6316e+005 -4.1818e+006 -1.5193e+006 78107 243474,243552,243526
 7.0000e+001 243601 -5.1774e+005 -4.6042e+006 -1.4898e+006 78107 243448,243552,243474
 7.0000e+001 243578 -2.5249e+005 -3.1251e+006 -5.3729e+005 78107 243474,243526,243500
 7.0000e+001 243776 -1.0443e+006 -4.7490e+006 -1.1863e+006 77653 243649,243701,243675
 7.0000e+001 243753 -1.5256e+006 -6.2286e+006 -8.7358e+005 77653 243649,243727,243701
 7.0000e+001 243977 -3.9084e+005 -5.4890e+006  3.3482e+004 77093 243801,243853,243827
 7.0000e+001 243954 -9.2522e+004 -4.6171e+006  7.0934e+005 77093 243801,243879,243853
 7.0000e+001 243931 -3.7480e+005 -1.7044e+006 -1.7749e+005 77093 243801,243905,243879
 7.0000e+001 244080 -6.0903e+005 -7.0888e+006  4.4511e+005 76791 244002,244054,244028
 7.0000e+001 244232 -1.1192e+005 -3.5131e+006 -1.2729e+005 76311 244131,244183,244157
 7.0000e+001 244209 -2.2217e+005 -6.7453e+006  7.2358e+004 76311 244105,244183,244131
 7.0000e+001 244433  8.4489e+003 -1.6263e+007  5.0045e+006 75903 244283,244335,244309
 7.0000e+001 244410 -1.5306e+006 -8.6011e+006 -7.7934e+005 75903 244283,244361,244335
 7.0000e+001 244387 -1.3847e+006 -8.7010e+006 -8.4848e+005 75903 244257,244361,244283
 7.0000e+001 244585  3.6917e+005 -1.5869e+007  1.3784e+006 75419 244458,244510,244484
 7.0000e+001 244562 -8.0012e+005 -7.9816e+006 -4.1757e+005 75419 244458,244536,244510
 7.0000e+001 244737 -3.9287e+005 -5.9869e+005 -1.7474e+005 75215 244636,244688,244662
 7.0000e+001 244714 -2.3115e+005 -3.9432e+006 -1.6373e+005 75215 244610,244688,244636
 7.0000e+001 244889 -9.1182e+005 -5.0653e+006 -4.7421e+005 74857 244788,244840,244814
 7.0000e+001 244866 -9.7847e+004 -1.9242e+006 -2.2815e+005 74857 244762,244840,244788
 7.0000e+001 245041 -3.0854e+005 -1.3588e+006 -6.8267e+005 74653 244940,244992,244966
 7.0000e+001 245018 -2.4657e+005 -3.1705e+005  6.4358e+005 74653 244914,244992,244940
 7.0000e+001 245144 -1.3049e+006 -5.0628e+006 -1.2199e+006 74359 245066,245118,245092
 7.0000e+001 245296  2.8846e+002 -6.3939e+005 -2.1610e+005 74007 245169,245221,245195
 7.0000e+001 245273 -1.1848e+005 -1.1095e+006 -2.7801e+005 74007 245169,245247,245221
 7.0000e+001 245448 -1.6887e+006 -5.0870e+006  2.2928e+005 73711 245321,245373,245347
 7.0000e+001 245425 -1.2632e+006 -4.9640e+006 -8.7210e+005 73711 245321,245399,245373
 7.0000e+001 245600  6.3695e+005 -1.1675e+007 -8.6533e+005 73301 245499,245551,245525
 7.0000e+001 245577 -1.4184e+006 -8.1688e+006  1.8463e+006 73301 245473,245551,245499
 7.0000e+001 245752 -2.0400e+006 -3.0282e+006 -1.8799e+006 72995 245625,245677,245651
 7.0000e+001 245729  4.3068e+005 -1.1443e+007 -1.4083e+006 72995 245625,245703,245677
 7.0000e+001 245953 -1.3899e+006 -9.4312e+006  4.3985e+005 72585 245777,245829,245803
 7.0000e+001 245930 -6.2813e+005 -1.4072e+007  2.5532e+006 72585 245777,245855,245829
 7.0000e+001 245907 -1.1342e+006 -5.3454e+006 -2.3280e+005 72585 245777,245881,245855
 7.0000e+001 246154 -3.9594e+005 -6.5574e+006  1.1661e+006 72127 246030,246082,246056
 7.0000e+001 246131 -8.8439e+005 -7.6182e+006  6.1463e+005 72127 245978,246082,246030
 7.0000e+001 246108 -7.9271e+004 -7.8027e+006  2.0654e+005 72127 245978,246030,246004
 7.0000e+001 246257 -1.6756e+006 -2.1449e+005 -1.2428e+005 71737 246179,246231,246205
 7.0000e+001 246360  1.0677e+005 -2.9059e+006  5.0289e+005 71447 246282,246334,246308
 7.0000e+001 246512 -1.0005e+005 -2.6533e+006  1.0252e+006 71157 246385,246437,246411
 7.0000e+001 246489 -7.6649e+004 -2.0497e+006 -1.0822e+005 71157 246385,246463,246437
 7.0000e+001 246664 -1.6657e+005 -2.1893e+006 -3.8428e+005 70753 246537,246589,246563
 7.0000e+001 246641 -6.3690e+005 -1.1070e+006 -1.7162e+005 70753 246537,246615,246589
 7.0000e+001 246865 -1.5178e+006 -8.1974e+006  5.0916e+006 70249 246715,246767,246741
 7.0000e+001 246842 -1.9820e+006 -7.6449e+006 -6.9603e+005 70249 246715,246793,246767
 7.0000e+001 246819  5.3982e+004 -1.1382e+007 -2.7882e+006 70249 246689,246793,246715
 7.0000e+001 247066 -2.4580e+004 -1.9689e+006  2.9865e+005 70023 246916,246994,246942
 7.0000e+001 247043 -5.6780e+004 -1.8376e+006  3.5600e+005 70023 246890,246994,246916
 7.0000e+001 247020  2.6734e+004 -1.8118e+006  3.5074e+005 70023 246942,246994,246968
 7.0000e+001 247267 -2.8655e+005 -3.4619e+006 -1.7594e+005 69633 247091,247143,247117
 7.0000e+001 247244 -6.1037e+004 -2.3865e+006 -4.4766e+004 69633 247091,247169,247143
 7.0000e+001 247221  3.9032e+004 -2.6680e+006 -2.1980e+005 69633 247091,247195,247169
 7.0000e+001 247419 -1.1746e+006 -5.2311e+006  6.2691e+005 69457 247318,247370,247344
 7.0000e+001 247396 -1.2244e+006 -2.7905e+006  9.1385e+005 69457 247292,247370,247318
 7.0000e+001 247522  3.2269e+000 -1.6876e+003 -2.6693e+000 69209 247444,247496,247470
 7.0000e+001 247625 -1.6352e+006 -2.1374e+006 -1.3426e+006 68919 247547,247599,247573
 7.0000e+001 247777  1.3745e+005 -6.7714e+006 -2.1531e+005 68579 247650,247702,247676
 7.0000e+001 247754 -1.4973e+005 -1.8746e+006 -1.3384e+005 68579 247650,247728,247702
 7.0000e+001 247929 -7.0700e+004 -2.7619e+006  7.5168e+005 68289 247802,247854,247828
 7.0000e+001 247906 -2.8752e+005 -1.4143e+006 -4.5814e+005 68289 247802,247880,247854
 7.0000e+001 248081 -5.6684e+005 -4.6798e+006  1.5201e+006 67949 247980,248032,248006
 7.0000e+001 248058 -6.8873e+005 -5.6936e+005  2.9313e+005 67949 247954,248032,247980
 7.0000e+001 248233 -2.0347e+006 -5.3985e+006 -7.2350e+005 67616 248132,248184,248158
 7.0000e+001 248210 -5.0430e+005 -5.8897e+006 -2.9702e+005 67616 248106,248184,248132
 7.0000e+001 248434 -1.4036e+005 -4.2987e+006 -1.9758e+005 67212 248284,248336,248310
 7.0000e+001 248411 -1.7084e+005 -4.3240e+006 -2.5990e+005 67212 248258,248336,248284
 7.0000e+001 248388 -1.6110e+006 -2.1715e+006 -6.0168e+005 67212 248258,248362,248336
 7.0000e+001 248586 -4.5034e+004 -5.2300e+006  8.9160e+005 66872 248485,248537,248511
 7.0000e+001 248563 -5.3627e+005 -8.2942e+005  9.9375e+004 66872 248459,248537,248485
 7.0000e+001 248738 -3.1091e+005 -5.0649e+006  1.3515e+005 66510 248637,248689,248663
 7.0000e+001 248715 -4.2528e+005 -7.6655e+006  1.8015e+005 66510 248611,248689,248637
 7.0000e+001 248890 -2.0625e+004 -5.3497e+005  1.0243e+005 66220 248789,248841,248815
 7.0000e+001 248867 -4.0070e+004 -6.9122e+005 -2.0763e+005 66220 248763,248841,248789
 7.0000e+001 249091 -1.1802e+006 -9.4017e+006  1.2000e+006 65759 248915,248967,248941
 7.0000e+001 249068 -8.6209e+005 -5.9309e+006  1.9508e+006 65759 248915,248993,248967
 7.0000e+001 249045 -4.8170e+005 -4.2748e+006  2.1124e+005 65759 248915,249019,248993
 7.0000e+001 249243 -1.3520e+005 -8.0170e+006  1.7330e+006 65419 249142,249194,249168
 7.0000e+001 249220  1.5894e+005 -2.5191e+006  5.8181e+005 65419 249116,249194,249142
 7.0000e+001 249395 -1.9888e+005 -1.6745e+006 -4.1458e+004 65079 249268,249320,249294
 7.0000e+001 249372 -2.4443e+005 -3.5377e+006 -5.3161e+005 65079 249268,249346,249320
 7.0000e+001 249547 -1.3504e+006 -3.6250e+006  1.1943e+006 64739 249420,249472,249446
 7.0000e+001 249524  7.7856e+004 -2.4972e+006 -7.0964e+005 64739 249420,249498,249472
 7.0000e+001 249650 -1.5066e+006 -3.3595e+006 -1.8632e+006 64342 249572,249624,249598
 7.0000e+001 249851 -1.4591e+005 -2.2687e+006 -2.0107e+005 63938 249701,249779,249753
 7.0000e+001 249828 -2.6662e+005 -2.3754e+006  2.5834e+005 63938 249675,249779,249701
 7.0000e+001 249805 -2.7382e+005 -1.6732e+006 -1.6049e+005 63938 249701,249753,249727
 7.0000e+001 250052 -4.5027e+005 -4.7525e+006 -1.8219e+005 63341 249876,249954,249902
 7.0000e+001 250029 -1.9552e+005 -6.4949e+006 -7.2082e+005 63341 249876,249980,249954
 7.0000e+001 250006 -1.5584e+005 -4.4109e+006 -4.4945e+005 63341 249902,249954,249928
 7.0000e+001 250253 -6.0832e+005 -9.2097e+005 -1.5241e+005 63058 250077,250129,250103
 7.0000e+001 250230 -2.0178e+006 -1.6533e+006  1.0726e+006 63058 250077,250155,250129
 7.0000e+001 250207 -3.4313e+005 -8.5440e+005  2.8172e+005 63058 250077,250181,250155
 7.0000e+001 250454 -7.7627e+005 -6.6585e+006  9.8061e+005 62832 250304,250382,250330
 7.0000e+001 250431  1.2427e+005 -8.2327e+006 -2.1473e+006 62832 250278,250382,250304
 7.0000e+001 250408 -1.6679e+006 -4.5884e+006  3.0599e+005 62832 250330,250382,250356
 7.0000e+001 250606 -6.7034e+005 -9.0191e+006 -1.5430e+006 62428 250479,250531,250505
 7.0000e+001 250583  3.2147e+005 -1.3297e+007 -1.2599e+006 62428 250479,250557,250531
 7.0000e+001 250758 -2.6609e+005 -7.4287e+006  8.4600e+005 62202 250631,250683,250657
 7.0000e+001 250735 -5.0246e+005 -7.3468e+006  6.6097e+005 62202 250631,250709,250683
 7.0000e+001 250861 -7.4138e+004 -2.9461e+006 -1.4572e+005 61954 250783,250835,250809
 7.0000e+001 251062 -2.4178e+006 -7.3569e+006 -6.4276e+005 61557 250912,250990,250938
 7.0000e+001 251039  3.4278e+005 -1.3413e+007 -2.3785e+006 61557 250886,250990,250912
 7.0000e+001 251016 -1.9207e+006 -1.0583e+007 -3.1855e+006 61557 250938,250990,250964
 7.0000e+001 251263 -4.6534e+005 -6.7239e+006 -2.1037e+004 61167 251113,251165,251139
 7.0000e+001 251240 -2.9228e+005 -6.2267e+006 -1.8022e+005 61167 251113,251191,251165
 7.0000e+001 251217 -1.1914e+006 -6.1336e+006  1.5807e+006 61167 251087,251191,251113
 7.0000e+001 251415 -8.5725e+005 -7.9596e+006  2.6273e+006 60827 251288,251340,251314
 7.0000e+001 251392 -6.0809e+005 -2.9829e+006 -6.8510e+005 60827 251288,251366,251340
 7.0000e+001 251567 -1.4036e+004 -3.2251e+006 -1.9416e+004 60487 251466,251518,251492
 7.0000e+001 251544 -3.0092e+005 -3.8116e+006 -3.1132e+005 60487 251440,251518,251466
 7.0000e+001 251719 -3.3905e+005 -8.7469e+006 -9.8558e+005 59983 251592,251644,251618
 7.0000e+001 251696 -1.3618e+006 -8.1975e+006 -5.3152e+005 59983 251592,251670,251644
 7.0000e+001 251920 -6.9884e+003 -1.4171e+006  1.5678e+003 59807 251770,251848,251796
 7.0000e+001 251897  4.1262e+003 -1.2971e+006 -1.3850e+004 59807 251744,251848,251770
 7.0000e+001 251874 -6.3092e+004 -1.6292e+006  2.1661e+004 59807 251796,251848,251822
 7.0000e+001 252023  2.3595e+005 -4.4401e+006 -9.4009e+004 59517 251945,251997,251971
 7.0000e+001 252175  1.5553e+006 -1.3409e+007 -2.6461e+005 59269 252074,252126,252100
 7.0000e+001 252152 -1.5039e+005 -8.5711e+006  1.2716e+005 59269 252048,252126,252074
 7.0000e+001 252278 -7.5748e+005 -1.0738e+007  1.9611e+006 58979 252200,252252,252226
 7.0000e+001 252381 -2.2157e+006 -2.0863e+006  1.7009e+006 58689 252303,252355,252329
 7.0000e+001 252533 -4.8571e+005 -3.8238e+006 -8.5486e+005 58249 252432,252484,252458
 7.0000e+001 252510 -9.8008e+005 -6.0615e+006 -9.7223e+005 58249 252406,252484,252432
 7.0000e+001 252734 -2.5151e+005 -2.4981e+006  4.0522e+005 57902 252584,252662,252610
 7.0000e+001 252711  2.8156e+005 -4.6607e+006 -6.4551e+005 57902 252558,252662,252584
 7.0000e+001 252688 -1.6356e+005 -1.4416e+006 -2.6535e+004 57902 252610,252662,252636
 7.0000e+001 252886  5.1668e+004 -4.8647e+006 -6.3048e+004 57540 252785,252837,252811
 7.0000e+001 252863  6.0594e+003 -4.4526e+006  4.5989e+004 57540 252759,252837,252785
 7.0000e+001 253038 -9.3721e+005 -6.1699e+006  1.5588e+006 57086 252937,252989,252963
 7.0000e+001 253015 -2.7815e+005 -1.5183e+006  5.3061e+005 57086 252911,252989,252937
 7.0000e+001 253239 -1.2717e+006 -8.0398e+006 -8.7796e+005 56796 253063,253141,253115
 7.0000e+001 253216  8.1047e+004 -8.8705e+006  9.4816e+005 56796 253063,253167,253141
 7.0000e+001 253193 -5.4177e+006 -4.1390e+006  7.0813e+005 56796 253063,253115,253089
 7.0000e+001 253342 -7.4163e+005 -1.7181e+007 -1.0043e+005 56349 253264,253316,253290
 7.0000e+001 253543 -3.2746e+005 -2.6646e+006 -1.2256e+006 56009 253367,253419,253393
 7.0000e+001 253520 -6.5592e+005 -1.2234e+006 -5.6411e+005 56009 253367,253445,253419
 7.0000e+001 253497 -3.8995e+005 -1.1831e+006 -6.2017e+005 56009 253367,253471,253445
 7.0000e+001 253695  6.1131e+004 -2.7970e+005  9.9572e+004 55733 253594,253646,253620
 7.0000e+001 253672 -7.6186e+004 -5.8418e+004  6.3845e+004 55733 253568,253646,253594
 7.0000e+001 253798 -5.9591e+005 -1.7091e+006 -6.8681e+004 55557 253720,253772,253746
 7.0000e+001 253950 -6.1113e+005 -3.4454e+006  2.8503e+005 55153 253849,253901,253875
 7.0000e+001 253927  1.2231e+004 -3.9641e+006 -3.4997e+005 55153 253823,253901,253849
 7.0000e+001 254151 -1.0300e+006 -4.1008e+006  5.9927e+005 54863 253975,254053,254001
 7.0000e+001 254128 -6.4310e+005 -3.8846e+006  1.7238e+005 54863 253975,254079,254053
 7.0000e+001 254105 -7.5990e+005 -4.5290e+006  7.4948e+005 54863 254001,254053,254027
 7.0000e+001 254303 -1.5271e+005 -1.7827e+005  1.3421e+005 54373 254176,254228,254202
 7.0000e+001 254280 -6.8572e+005 -2.7049e+005  3.7002e+005 54373 254176,254254,254228
 7.0000e+001 254455  1.0668e+004 -4.1305e+006 -4.0015e+005 53975 254354,254406,254380
 7.0000e+001 254432 -2.2698e+005 -9.1306e+005  1.2702e+005 53975 254328,254406,254354
 7.0000e+001 254607 -3.8603e+005 -4.9267e+006 -1.3411e+005 53585 254480,254532,254506
 7.0000e+001 254584 -2.3882e+005 -4.6122e+006 -2.5738e+005 53585 254480,254558,254532
 7.0000e+001 254808 -1.1925e+006 -3.3518e+006  3.0565e+005 53245 254658,254736,254684
 7.0000e+001 254785 -9.3916e+005 -7.2549e+005  2.3250e+005 53245 254632,254736,254658
 7.0000e+001 254762 -6.0947e+005 -2.1353e+006 -2.6784e+005 53245 254684,254736,254710
 7.0000e+001 254911 -1.7384e+005 -1.4457e+006 -3.4900e+005 52955 254833,254885,254859
 7.0000e+001 255063 -5.6113e+005 -6.7153e+006  3.6740e+003 52551 254962,255014,254988
 7.0000e+001 255040 -6.5493e+005 -7.0984e+006 -1.7882e+005 52551 254936,255014,254962
 7.0000e+001 255264 -1.1858e+006 -1.1314e+006 -6.0445e+005 52261 255114,255166,255140
 7.0000e+001 255241 -1.0344e+006 -2.5851e+006 -2.1469e+005 52261 255114,255192,255166
 7.0000e+001 255218 -5.3270e+006 -1.6386e+005  2.0651e+006 52261 255088,255192,255114
 7.0000e+001 255416 -9.0742e+005 -5.6021e+006  2.2288e+006 51971 255289,255341,255315
 7.0000e+001 255393 -5.1396e+005 -4.8969e+006 -6.2830e+005 51971 255289,255367,255341
 7.0000e+001 255568  6.4841e+003 -1.6353e+006 -4.4514e+005 51681 255441,255493,255467
 7.0000e+001 255545 -1.6350e+005 -1.1006e+006 -5.1465e+005 51681 255441,255519,255493
 7.0000e+001 255769 -2.4657e+005 -2.9967e+006  1.6258e+004 51291 255619,255697,255671
 7.0000e+001 255746 -2.2332e+005 -2.6448e+006 -2.8306e+005 51291 255593,255697,255619
 7.0000e+001 255723 -2.4510e+005 -5.4508e+006 -5.7755e+005 51291 255619,255671,255645
 7.0000e+001 255921 -5.7963e+005 -3.4698e+006  8.5801e+005 50951 255820,255872,255846
 7.0000e+001 255898 -6.9107e+004 -1.7058e+006  8.9482e+004 50951 255794,255872,255820
 7.0000e+001 256171 -1.0220e+006 -4.8829e+006  4.2712e+005 50547 256024,256076,256050
 7.0000e+001 256148 -8.8362e+005 -4.0993e+006  4.2207e+005 50547 255972,256076,256024
 7.0000e+001 256125 -1.5894e+005 -4.6240e+006  3.9276e+004 50547 255946,256076,255972
 7.0000e+001 256102 -7.2425e+005 -4.1212e+006  3.8474e+005 50547 255972,256024,255998
 7.0000e+001 256323  1.5900e+005 -4.0481e+006  3.1218e+005 50093 256196,256248,256222
 7.0000e+001 256300 -9.9031e+005 -2.6304e+006 -8.1818e+005 50093 256196,256274,256248
 7.0000e+001 256426  5.8312e+002 -4.5978e+003  7.8262e+002 49845 256348,256400,256374
 7.0000e+001 256627 -1.7017e+004 -5.4482e+006  1.2775e+005 49555 256477,256555,256503
 7.0000e+001 256604 -1.4767e+005 -3.3486e+006  2.1007e+005 49555 256451,256555,256477
 7.0000e+001 256581 -4.1875e+005 -4.8388e+006  3.7163e+005 49555 256503,256555,256529
 7.0000e+001 256828 -3.4174e+005 -2.7412e+006 -4.1748e+005 49056 256652,256730,256678
 7.0000e+001 256805 -6.3083e+005 -2.3074e+006 -2.1985e+005 49056 256652,256756,256730
 7.0000e+001 256782 -4.0047e+005 -3.5484e+006  1.3871e+005 49056 256678,256730,256704
 7.0000e+001 256931 -7.6584e+003 -3.5201e+004  8.7106e+003 48766 256853,256905,256879
 7.0000e+001 257083 -1.5414e+006 -4.8722e+006 -6.7255e+005 48568 256982,257034,257008
 7.0000e+001 257060 -6.1080e+005 -1.1972e+006 -1.7881e+005 48568 256956,257034,256982
 7.0000e+001 257186 -9.2323e+003 -2.1901e+006  5.2353e+003 48228 257108,257160,257134
 7.0000e+001 257338 -1.3808e+006 -5.9633e+005  2.8755e+005 47888 257237,257289,257263
 7.0000e+001 257315 -8.2986e+005 -4.2449e+006  2.5479e+006 47888 257211,257289,257237
 7.0000e+001 257539 -3.7430e+005 -3.1555e+006  7.4372e+004 47548 257363,257441,257415
 7.0000e+001 257516 -7.5768e+005 -2.9479e+006 -3.5701e+005 47548 257363,257467,257441
 7.0000e+001 257493 -8.2117e+005 -2.0485e+006 -1.5180e+005 47548 257363,257415,257389
 7.0000e+001 257740 -2.2409e+005 -4.6563e+006  3.9379e+005 46994 257564,257642,257616
 7.0000e+001 257717 -4.1426e+005 -3.6594e+006  1.0525e+004 46994 257564,257668,257642
 7.0000e+001 257694 -7.5694e+005 -4.6522e+006 -4.0031e+004 46994 257564,257616,257590
 7.0000e+001 257843 -3.9651e+005 -1.3548e+006 -2.4399e+005 46654 257765,257817,257791
 7.0000e+001 257995 -6.3441e+005 -2.4875e+006  3.9116e+005 46364 257894,257946,257920
 7.0000e+001 257972 -6.2886e+005 -2.7198e+006  2.6038e+005 46364 257868,257946,257894
 7.0000e+001 258147 -9.7360e+004 -3.0615e+006  1.2359e+005 46024 258046,258098,258072
 7.0000e+001 258124 -3.4601e+005 -2.3456e+006  3.5763e+005 46024 258020,258098,258046
 7.0000e+001 258250 -1.0763e+005 -3.0591e+005  8.3851e+004 45741 258172,258224,258198
 7.0000e+001 258402 -1.1942e+006 -3.5210e+006  1.0067e+006 45401 258301,258353,258327
 7.0000e+001 258379 -5.4430e+005 -3.4378e+006  1.3449e+006 45401 258275,258353,258301
 7.0000e+001 258603 -6.9852e+005 -1.6331e+006 -1.2176e+004 45071 258427,258505,258479
 7.0000e+001 258580 -2.3298e+005 -3.9380e+006  1.9248e+005 45071 258427,258531,258505
 7.0000e+001 258557 -2.9413e+005 -2.5012e+006  1.6992e+005 45071 258427,258479,258453
 7.0000e+001 258755 -2.3241e+005 -3.5773e+006 -4.4274e+005 44681 258654,258706,258680
 7.0000e+001 258732 -2.7442e+005 -3.2455e+006 -4.3769e+005 44681 258628,258706,258654
 7.0000e+001 258907 -3.5456e+005 -2.9174e+006 -2.4224e+005 44157 258806,258858,258832
 7.0000e+001 258884 -6.2147e+005 -2.3496e+006 -1.3564e+005 44157 258780,258858,258806
 7.0000e+001 259010 -5.4615e+005 -2.2084e+006 -1.0936e+005 43705 258932,258984,258958
 7.0000e+001 259113 -3.5189e+005 -3.8008e+006  2.9192e+005 43284 259035,259087,259061
 7.0000e+001 259216 -3.9437e+005 -4.3102e+006 -2.1868e+005 42954 259138,259190,259164
 7.0000e+001 259319 -6.8680e+005 -1.1412e+006 -2.7339e+004 42116 259241,259293,259267
 7.0000e+001 259422 -9.4466e+005 -8.4170e+006  2.2087e+006 41804 259344,259396,259370
 7.0000e+001 259525 -6.0236e+005 -5.6800e+006  7.6372e+005 41219 259447,259499,259473
 7.0000e+001 259628 -7.0982e+005 -2.2198e+006 -5.4598e+005 385 259550,259602,259576
 7.2000e+001 190120 -2.3528e+005 -2.2039e+006 -4.1234e+005 189630 189993,190045,190019
 7.2000e+001 190097 -6.7324e+005 -1.6202e+006 -2.5526e+005 189630 189993,190071,190045
 7.2000e+001 190319 -1.4953e+006 -4.9430e+006 -8.6150e+005 189312 190169,190221,190195
 7.2000e+001 190296 -4.4775e+005 -4.7427e+006 -9.5451e+005 189312 190169,190247,190221
 7.2000e+001 190273 -8.7369e+005 -4.1401e+006  2.4682e+005 189312 190143,190247,190169
 7.2000e+001 190518 -4.7762e+005  4.8605e+004  1.5875e+004 189124 190368,190446,190420
 7.2000e+001 190495 -5.6185e+005  2.1498e+004 -4.3242e+003 189124 190342,190446,190368
 7.2000e+001 190472 -9.8769e+005 -5.2990e+004 -4.8511e+004 189124 190368,190420,190394
 7.2000e+001 190619 -4.5042e+005 -4.5871e+004 -6.1638e+003 188926 190541,190593,190567
 7.2000e+001 190771 -4.8929e+005 -7.4025e+004  1.1247e+004 188614 190670,190722,190696
 7.2000e+001 190748 -5.5695e+005  1.6592e+005  5.3158e+004 188614 190644,190722,190670
 7.2000e+001 190972 -4.8803e+005 -5.3427e+005 -3.8524e+005 188324 190848,190900,190874
 7.2000e+001 190949 -4.8429e+005 -7.4201e+005 -5.0192e+005 188324 190796,190900,190848
 7.2000e+001 190926 -1.2490e+005 -3.4580e+005 -2.6063e+005 188324 190796,190848,190822
 7.2000e+001 191124 -7.1180e+005 -8.9752e+005 -1.6206e+005 188034 191023,191075,191049
 7.2000e+001 191101 -1.3778e+005 -1.0456e+006 -1.1000e+005 188034 190997,191075,191023
 7.2000e+001 191276 -2.3892e+005 -1.5239e+006 -1.0836e+005 187836 191149,191201,191175
 7.2000e+001 191253 -3.1754e+005 -8.1240e+005  2.7622e+005 187836 191149,191227,191201
 7.2000e+001 191379 -4.7357e+005 -5.9225e+005 -1.1410e+005 187546 191301,191353,191327
 7.2000e+001 191531 -3.1054e+005 -4.4444e+006  3.8527e+005 187256 191430,191482,191456
 7.2000e+001 191508 -1.0859e+006 -6.3809e+006 -2.0111e+006 187256 191404,191482,191430
 7.2000e+001 191634 -7.4057e+005  2.0656e+004 -1.5478e+004 187058 191556,191608,191582
 7.2000e+001 191835 -5.1056e+005  1.9842e+004 -2.1691e+004 186860 191659,191711,191685
 7.2000e+001 191812 -3.3265e+005 -1.0359e+005  7.8778e+003 186860 191659,191737,191711
 7.2000e+001 191789 -2.9122e+005 -6.3043e+003 -4.3313e+004 186860 191659,191763,191737
 7.2000e+001 191987 -2.3304e+005 -1.0963e+006 -1.1979e+005 186662 191886,191938,191912
 7.2000e+001 191964  1.1682e+005 -2.4252e+006  7.3386e+005 186662 191860,191938,191886
 7.2000e+001 192090 -4.2502e+005 -2.8931e+006 -5.4015e+005 186486 192012,192064,192038
 7.2000e+001 192242 -1.0326e+005 -9.3436e+006 -3.5288e+005 186288 192115,192167,192141
 7.2000e+001 192219 -9.0331e+005 -5.7059e+006  2.4314e+005 186288 192115,192193,192167
 7.2000e+001 192394  2.3471e+005 -7.6761e+006 -2.1535e+005 185935 192293,192345,192319
 7.2000e+001 192371 -6.1392e+005 -5.1332e+006 -7.9629e+005 185935 192267,192345,192293
 7.2000e+001 192546 -5.0104e+005 -3.3896e+006 -8.5111e+005 185675 192419,192471,192445
 7.2000e+001 192523 -1.0139e+006 -1.6742e+006 -9.0542e+005 185675 192419,192497,192471
 7.2000e+001 192649 -7.3487e+005 -2.6702e+006 -5.0640e+005 185499 192571,192623,192597
 7.2000e+001 192801 -1.7118e+005 -1.0173e+006  1.6557e+005 185301 192674,192726,192700
 7.2000e+001 192778 -2.8530e+005 -1.1344e+006  4.1269e+005 185301 192674,192752,192726
 7.2000e+001 193002 -9.3769e+004 -7.2835e+005 -4.3074e+005 185046 192852,192930,192878
 7.2000e+001 192979 -3.9972e+005 -1.8163e+006 -2.6600e+005 185046 192826,192930,192852
 7.2000e+001 192956  4.8915e+005 -2.3201e+006  1.6250e+004 185046 192878,192930,192904
 7.2000e+001 193203  1.4442e+005 -6.4957e+006 -8.9312e+005 184798 193079,193131,193105
 7.2000e+001 193180 -9.4470e+005 -4.0880e+006 -4.4176e+005 184798 193027,193131,193079
 7.2000e+001 193157 -1.3259e+006 -4.2352e+006  3.5676e+005 184798 193027,193079,193053
 7.2000e+001 193404 -2.2395e+005 -5.4409e+006 -1.5142e+006 184600 193254,193306,193280
 7.2000e+001 193381 -6.5665e+005 -1.5967e+006 -2.2163e+005 184600 193254,193332,193306
 7.2000e+001 193358 -9.3973e+005 -4.8267e+005 -4.7797e+005 184600 193228,193332,193254
 7.2000e+001 193556 -7.7821e+005 -4.9832e+005 -5.1703e+005 184402 193429,193481,193455
 7.2000e+001 193533 -5.8891e+005 -5.1439e+005 -5.0465e+005 184402 193429,193507,193481
 7.2000e+001 193708  2.1033e+004 -1.8733e+006  8.7704e+004 184204 193607,193659,193633
 7.2000e+001 193685 -4.9373e+005 -7.3810e+006 -1.3972e+006 184204 193581,193659,193607
 7.2000e+001 193860 -5.6830e+005 -6.9547e+005  3.9780e+005 183908 193759,193811,193785
 7.2000e+001 193837 -5.9444e+004 -1.3906e+006  4.6495e+005 183908 193733,193811,193759
 7.2000e+001 194061 -3.2000e+005 -6.2623e+005  3.1322e+005 183710 193911,193989,193937
 7.2000e+001 194038 -6.5360e+005 -1.2902e+006  6.3738e+005 183710 193885,193989,193911
 7.2000e+001 194015 -4.6499e+005 -1.5841e+006  5.4057e+005 183710 193937,193989,193963
 7.2000e+001 194262 -4.9724e+005 -2.9199e+006 -7.4451e+005 183420 194086,194164,194112
 7.2000e+001 194239 -4.9925e+005 -2.8578e+006 -6.3638e+005 183420 194086,194190,194164
 7.2000e+001 194216  5.5775e+005 -6.8120e+006  1.1252e+006 183420 194112,194164,194138
 7.2000e+001 194414 -6.6325e+005 -5.8876e+006 -4.7864e+005 183222 194287,194339,194313
 7.2000e+001 194391 -2.9245e+005 -2.1466e+006 -5.2282e+005 183222 194287,194365,194339
 7.2000e+001 194517 -1.0222e+006 -1.1379e+006 -1.0428e+005 183024 194439,194491,194465
 7.2000e+001 194718  1.9037e+006 -1.6153e+007  1.2715e+006 182734 194568,194620,194594
 7.2000e+001 194695 -1.2055e+006 -4.7941e+006 -3.6188e+006 182734 194542,194620,194568
 7.2000e+001 194672 -3.6329e+006 -2.2403e+006 -1.7775e+006 182734 194542,194646,194620
 7.2000e+001 194870 -4.1868e+005 -3.5960e+005  2.5333e+005 182444 194769,194821,194795
 7.2000e+001 194847 -4.2222e+005 -4.8228e+005  3.4460e+005 182444 194743,194821,194769
 7.2000e+001 195071 -2.9523e+005 -1.2913e+006  7.7324e+005 182154 194895,194947,194921
 7.2000e+001 195048 -3.4190e+005 -4.3803e+005  1.4619e+005 182154 194895,194999,194947
 7.2000e+001 195025 -3.1002e+005 -1.4397e+005  1.8998e+005 182154 194947,194999,194973
 7.2000e+001 195223 -3.6319e+005 -4.0715e+005 -1.7439e+005 181814 195096,195148,195122
 7.2000e+001 195200 -6.0495e+005 -1.9880e+006 -1.3768e+006 181814 195096,195174,195148
 7.2000e+001 195375 -2.4479e+004 -3.9852e+004 -2.2474e+004 181524 195248,195300,195274
 7.2000e+001 195352  1.3667e+004 -1.9482e+005 -2.1976e+003 181524 195248,195326,195300
 7.2000e+001 195527 -2.4902e+005 -2.8435e+005  4.3755e+005 181326 195426,195478,195452
 7.2000e+001 195504 -1.3701e+006 -1.3097e+006  1.2146e+006 181326 195400,195478,195426
 7.2000e+001 195679 -9.4964e+004 -9.7706e+006 -6.9887e+005 180936 195578,195630,195604
 7.2000e+001 195656 -5.2890e+005 -4.3642e+006 -4.7087e+005 180936 195552,195630,195578
 7.2000e+001 195831 -4.6024e+005 -3.7775e+005 -1.7909e+005 180646 195704,195756,195730
 7.2000e+001 195808 -7.3409e+005 -2.4676e+004  1.4824e+004 180646 195704,195782,195756
 7.2000e+001 196032 -2.6023e+005 -2.0529e+006  3.5387e+005 180306 195882,195960,195934
 7.2000e+001 196009 -2.9002e+005 -8.4856e+005 -2.0095e+005 180306 195856,195960,195882
 7.2000e+001 195986  1.9571e+004 -2.2023e+006  1.6417e+005 180306 195882,195934,195908
 7.2000e+001 196233 -1.9955e+005 -2.1560e+005 -9.3461e+005 179944 196057,196109,196083
 7.2000e+001 196210 -9.6213e+005 -3.8413e+006  4.7714e+005 179944 196057,196135,196109
 7.2000e+001 196187 -2.1474e+006  4.8773e+006 -1.6135e+006 179944 196057,196161,196135
 7.2000e+001 196385 -5.9317e+005 -7.6315e+005 -5.4296e+005 179604 196258,196310,196284
 7.2000e+001 196362 -7.6338e+005 -9.8982e+005 -9.4350e+005 179604 196258,196336,196310
 7.2000e+001 196586 -9.9338e+005 -6.4359e+005 -7.9457e+005 179114 196410,196488,196436
 7.2000e+001 196563 -7.0440e+005 -2.1590e+006 -7.9771e+005 179114 196410,196514,196488
 7.2000e+001 196540 -5.8241e+003 -5.8977e+005 -5.8673e+004 179114 196436,196488,196462
 7.2000e+001 196738 -7.5359e+005 -1.6360e+006 -7.4168e+005 178674 196611,196663,196637
 7.2000e+001 196715  6.3568e+004 -3.7530e+006 -1.8856e+005 178674 196611,196689,196663
 7.2000e+001 196939  3.3544e+004 -8.9220e+006 -3.6342e+006 178334 196789,196867,196841
 7.2000e+001 196916 -2.2554e+006 -9.3371e+006  4.8647e+005 178334 196763,196867,196789
 7.2000e+001 196893 -3.0577e+006 -7.2035e+006 -4.9391e+006 178334 196789,196841,196815
 7.2000e+001 197091 -2.8190e+005 -2.2884e+006 -4.1063e+005 177930 196990,197042,197016
 7.2000e+001 197068 -3.0169e+005 -2.2781e+006 -2.2398e+005 177930 196964,197042,196990
 7.2000e+001 197194 -2.0419e+002 -4.1215e+004 -2.9442e+002 177732 197116,197168,197142
 7.2000e+001 197346 -4.8595e+005 -5.4542e+006  1.3739e+005 177534 197219,197271,197245
 7.2000e+001 197323 -1.4363e+005 -6.3594e+006  6.1484e+005 177534 197219,197297,197271
 7.2000e+001 197547 -1.7621e+006 -9.1589e+006 -3.9912e+006 177130 197397,197449,197423
 7.2000e+001 197524 -2.2603e+006 -9.5166e+006 -3.6049e+006 177130 197397,197475,197449
 7.2000e+001 197501 -1.0730e+006 -7.8571e+006 -2.7574e+006 177130 197371,197475,197397
 7.2000e+001 197748 -5.2868e+005 -5.4165e+006  4.0463e+005 176790 197598,197676,197624
 7.2000e+001 197725 -2.8393e+005 -4.3624e+006  6.2514e+005 176790 197572,197676,197598
 7.2000e+001 197702 -3.6004e+005 -4.6630e+006  3.3243e+005 176790 197624,197676,197650
 7.2000e+001 197900 -3.0110e+005 -2.9925e+006 -5.0909e+005 176300 197773,197825,197799
 7.2000e+001 197877 -2.3207e+004 -4.4456e+006 -3.9919e+005 176300 197773,197851,197825
 7.2000e+001 198052 -1.6697e+005 -6.5733e+006 -1.1711e+006 176010 197925,197977,197951
 7.2000e+001 198029 -3.4207e+005 -4.1100e+006 -9.1342e+005 176010 197925,198003,197977
 7.2000e+001 198204 -1.3948e+006 -2.7485e+006 -7.3782e+005 175670 198103,198155,198129
 7.2000e+001 198181 -1.3949e+006 -1.9570e+006 -3.6304e+005 175670 198077,198155,198103
 7.2000e+001 198405  8.0928e+004 -4.3897e+006 -6.8926e+005 175266 198255,198307,198281
 7.2000e+001 198382  1.0493e+005 -4.5490e+006 -8.2290e+005 175266 198229,198307,198255
 7.2000e+001 198359 -8.4751e+005 -3.3749e+006 -1.6933e+006 175266 198229,198333,198307
 7.2000e+001 198606  8.4601e+002 -2.0203e+004  8.0244e+002 174876 198430,198508,198482
 7.2000e+001 198583  3.6466e+003 -1.9071e+004 -3.3618e+003 174876 198430,198534,198508
 7.2000e+001 198560 -1.4661e+003 -6.8715e+003 -3.6614e+003 174876 198430,198482,198456
 7.2000e+001 198758  8.4146e+001  2.6980e+001  6.3800e+002 174536 198657,198709,198683
 7.2000e+001 198735  4.4789e+001 -1.3841e+002  6.2765e+002 174536 198631,198709,198657
 7.2000e+001 199008 -9.8604e+005 -5.7579e+006 -2.5529e+004 174132 198835,198913,198887
 7.2000e+001 198985 -7.1116e+005 -2.4680e+006  2.7575e+005 174132 198809,198913,198835
 7.2000e+001 198962 -7.0398e+005 -2.7148e+006 -1.3562e+006 174132 198783,198913,198809
 7.2000e+001 198939 -4.2894e+005 -5.9368e+006  6.6219e+004 174132 198835,198887,198861
 7.2000e+001 199160 -9.7676e+005 -2.9937e+006 -5.2589e+005 173842 199059,199111,199085
 7.2000e+001 199137 -5.0769e+005 -1.6748e+006 -1.9854e+005 173842 199033,199111,199059
 7.2000e+001 199361 -7.7654e+005 -3.4000e+006  1.0017e+006 173438 199237,199289,199263
 7.2000e+001 199338 -1.7971e+005 -4.1933e+006  1.0575e+006 173438 199211,199289,199237
 7.2000e+001 199315  8.3382e+003 -6.3508e+006 -7.6042e+005 173438 199185,199289,199211
 7.2000e+001 199513 -7.2529e+005 -4.9782e+006 -2.7681e+005 173190 199386,199438,199412
 7.2000e+001 199490 -1.4101e+006 -5.7549e+006  2.8471e+005 173190 199386,199464,199438
 7.2000e+001 199665 -4.7826e+005 -1.7048e+006  2.5745e+005 172750 199564,199616,199590
 7.2000e+001 199642 -9.2454e+005 -9.2326e+005 -2.7225e+004 172750 199538,199616,199564
 7.2000e+001 199817 -1.2215e+005 -2.9750e+006 -1.0066e+006 172524 199690,199742,199716
 7.2000e+001 199794 -1.2390e+006 -1.0094e+006 -6.0759e+005 172524 199690,199768,199742
 7.2000e+001 199969 -5.5884e+003 -6.0043e+006 -1.8583e+005 172348 199842,199894,199868
 7.2000e+001 199946  2.7797e+002 -6.0104e+006 -9.2328e+004 172348 199842,199920,199894
 7.2000e+001 200121  8.2837e+004 -1.5688e+006 -3.0693e+005 172008 199994,200046,200020
 7.2000e+001 200098 -1.8348e+005 -4.1000e+005 -1.3428e+005 172008 199994,200072,200046
 7.2000e+001 200273 -2.0931e+006 -8.3382e+006 -3.2485e+006 171668 200172,200224,200198
 7.2000e+001 200250 -1.4362e+006 -7.5751e+006 -2.3775e+006 171668 200146,200224,200172
 7.2000e+001 200474  1.7613e+005 -4.4504e+006 -5.5330e+005 171264 200350,200402,200376
 7.2000e+001 200451 -1.5971e+005 -4.9952e+006 -8.2332e+005 171264 200324,200402,200350
 7.2000e+001 200428 -3.5299e+005 -3.4422e+006  1.1025e+006 171264 200298,200402,200324
 7.2000e+001 200626 -1.1065e+006 -4.8595e+006 -6.8610e+005 170832 200525,200577,200551
 7.2000e+001 200603 -2.7965e+005 -3.2548e+006 -6.6814e+004 170832 200499,200577,200525
 7.2000e+001 200827  3.1725e+003 -1.4265e+006  3.2559e+005 170492 200677,200729,200703
 7.2000e+001 200804 -8.9964e+005 -5.1577e+005 -4.0906e+005 170492 200651,200729,200677
 7.2000e+001 200781 -7.2074e+005 -9.1395e+005 -5.3832e+005 170492 200651,200755,200729
 7.2000e+001 201077 -3.9654e+005 -1.8079e+006 -1.4148e+005 170088 200878,200956,200904
 7.2000e+001 201054 -3.9807e+005 -1.1815e+006 -2.4990e+005 170088 200852,200956,200878
 7.2000e+001 201031 -5.9367e+005 -1.1219e+006  1.6619e+006 170088 200904,200956,200930
 7.2000e+001 201008  1.8207e+005 -1.8331e+006  2.0338e+005 170088 200852,200982,200956
 7.2000e+001 201278 -3.2212e+004 -6.4990e+005 -3.2291e+005 169798 201102,201154,201128
 7.2000e+001 201255 -3.0980e+005 -1.2114e+006 -5.6081e+005 169798 201102,201206,201154
 7.2000e+001 201232 -1.9141e+005 -1.2149e+005  3.7084e+004 169798 201154,201206,201180
 7.2000e+001 201430 -1.1073e+005 -2.4572e+006 -6.2797e+005 169337 201303,201355,201329
 7.2000e+001 201407 -1.5774e+005 -7.5463e+005 -1.8474e+005 169337 201303,201381,201355
 7.2000e+001 201631 -2.6750e+005 -2.8876e+006  3.7585e+005 168883 201481,201559,201507
 7.2000e+001 201608 -2.0604e+005 -2.3455e+006  7.1495e+005 168883 201455,201559,201481
 7.2000e+001 201585 -2.0782e+005 -1.5354e+006  4.6691e+005 168883 201507,201559,201533
 7.2000e+001 201832  2.8887e+005 -7.6493e+006  3.4242e+005 168479 201682,201734,201708
 7.2000e+001 201809 -1.9916e+006 -5.7568e+006 -1.3229e+006 168479 201656,201734,201682
 7.2000e+001 201786 -1.6298e+006 -4.3203e+006 -3.3252e+004 168479 201656,201760,201734
 7.2000e+001 202033 -1.9180e+005 -2.7061e+006  2.4877e+005 167825 201883,201935,201909
 7.2000e+001 202010 -1.0721e+006 -3.5283e+006 -1.2356e+006 167825 201857,201935,201883
 7.2000e+001 201987  3.3710e+005 -9.3953e+006 -3.9348e+005 167825 201857,201961,201935
 7.2000e+001 202234 -9.1535e+005 -1.1246e+006 -3.2975e+005 167435 202058,202136,202084
 7.2000e+001 202211 -1.0459e+006 -1.2837e+006 -1.7835e+005 167435 202058,202162,202136
 7.2000e+001 202188 -8.6072e+005 -5.3607e+005  1.3364e+005 167435 202084,202136,202110
 7.2000e+001 202386  2.9531e+004 -1.4067e+006  1.7844e+005 167002 202285,202337,202311
 7.2000e+001 202363 -2.2838e+005 -3.4640e+005  2.0592e+005 167002 202259,202337,202285
 7.2000e+001 202538 -2.4923e+006 -2.4031e+006 -2.2238e+006 166662 202411,202463,202437
 7.2000e+001 202515 -1.0510e+006 -4.2622e+006 -3.2049e+006 166662 202411,202489,202463
 7.2000e+001 202690  1.9287e+003 -1.9148e+006 -8.5605e+005 166322 202589,202641,202615
 7.2000e+001 202667 -4.0666e+004 -8.1654e+005 -1.5502e+004 166322 202563,202641,202589
 7.2000e+001 202891 -7.4114e+005 -2.1627e+005 -1.0147e+005 165918 202715,202767,202741
 7.2000e+001 202868 -8.2586e+005 -6.5836e+005 -3.3774e+005 165918 202715,202793,202767
 7.2000e+001 202845 -7.5948e+005 -1.5790e+006  9.8420e+004 165918 202715,202819,202793
 7.2000e+001 203092  2.5195e+005 -2.6640e+006 -3.6054e+005 165628 202916,202968,202942
 7.2000e+001 203069 -3.9772e+005 -8.1736e+005 -4.1172e+005 165628 202916,202994,202968
 7.2000e+001 203046 -1.5002e+005 -8.5633e+005 -3.5805e+005 165628 202916,203020,202994
 7.2000e+001 203293 -3.9580e+006 -2.1552e+006 -2.8630e+006 165266 203143,203195,203169
 7.2000e+001 203270 -1.6096e+006 -5.8746e+006 -5.2237e+005 165266 203143,203221,203195
 7.2000e+001 203247 -9.3911e+005 -6.5349e+006 -1.2701e+006 165266 203117,203221,203143
 7.2000e+001 203445 -3.3260e+005 -9.7582e+005  2.7293e+005 164826 203318,203370,203344
 7.2000e+001 203422 -9.7611e+004 -6.4226e+005 -9.6533e+004 164826 203318,203396,203370
 7.2000e+001 203597 -2.8007e+005 -2.4375e+006 -4.4713e+003 164386 203470,203522,203496
 7.2000e+001 203574 -4.6016e+005 -2.5746e+006 -4.1957e+005 164386 203470,203548,203522
 7.2000e+001 203798 -9.7774e+004 -2.7838e+005  2.3785e+004 163996 203622,203674,203648
 7.2000e+001 203775 -4.9877e+005 -2.0348e+005  1.2741e+005 163996 203622,203726,203674
 7.2000e+001 203752 -4.4223e+005 -8.1316e+004 -3.7044e+004 163996 203674,203726,203700
 7.2000e+001 203901 -4.0788e+005 -1.9489e+006 -1.8284e+005 163770 203823,203875,203849
 7.2000e+001 204053 -1.5387e+006 -3.1153e+006 -9.8371e+005 163474 203952,204004,203978
 7.2000e+001 204030 -2.0264e+006 -3.5451e+006 -1.5676e+006 163474 203926,204004,203952
 7.2000e+001 204205  3.2859e+005 -1.5276e+006 -6.0029e+005 163034 204104,204156,204130
 7.2000e+001 204182 -1.3560e+005 -1.3014e+006 -2.6862e+005 163034 204078,204156,204104
 7.2000e+001 204357 -3.6794e+004 -2.3653e+005  4.8590e+004 162624 204256,204308,204282
 7.2000e+001 204334  8.7254e+004 -1.8224e+005  2.2584e+005 162624 204230,204308,204256
 7.2000e+001 204509 -4.5360e+004  7.5999e+003  3.2863e+004 162200 204382,204434,204408
 7.2000e+001 204486 -4.6193e+004 -3.6883e+004  5.0359e+004 162200 204382,204460,204434
 7.2000e+001 204710 -1.2535e+006 -1.6762e+005  3.6826e+004 161810 204560,204638,204586
 7.2000e+001 204687 -1.0047e+006 -5.5686e+005 -4.9544e+005 161810 204534,204638,204560
 7.2000e+001 204664 -1.0192e+006 -1.4450e+005  3.2720e+005 161810 204586,204638,204612
 7.2000e+001 204862 -9.0452e+005 -1.3010e+006 -3.1432e+005 161406 204735,204787,204761
 7.2000e+001 204839 -1.4415e+006 -8.3231e+005 -4.2219e+005 161406 204735,204813,204787
 7.2000e+001 205014  1.3640e+003  6.3738e+002  2.5511e+002 161180 204887,204939,204913
 7.2000e+001 204991  7.7269e+002  1.2308e+003 -1.4231e+001 161180 204887,204965,204939
 7.2000e+001 205215 -7.9098e+005 -1.4360e+006 -1.4876e+006 160726 205039,205091,205065
 7.2000e+001 205192 -1.3864e+006 -3.8468e+006 -1.4459e+006 160726 205039,205143,205091
 7.2000e+001 205169 -1.7144e+006 -1.6082e+006 -1.6228e+006 160726 205091,205143,205117
 7.2000e+001 205416 -3.1358e+005 -1.5945e+005  2.4419e+005 160272 205292,205344,205318
 7.2000e+001 205393 -3.5903e+005 -1.2944e+004  2.1308e+005 160272 205240,205344,205292
 7.2000e+001 205370 -3.1699e+005 -1.9679e+005 -2.4326e+005 160272 205240,205292,205266
 7.2000e+001 205568 -4.1114e+002 -1.8446e+003  1.1530e+003 159932 205441,205493,205467
 7.2000e+001 205545 -2.5417e+002 -4.1751e+003  6.9216e+002 159932 205441,205519,205493
 7.2000e+001 205720  4.8354e+002  1.2472e+002 -6.2403e+002 159542 205593,205645,205619
 7.2000e+001 205697  9.7322e+002 -3.6600e+002 -1.1265e+003 159542 205593,205671,205645
 7.2000e+001 205872  7.9036e+002  8.6511e+002 -1.0981e+003 159252 205745,205797,205771
 7.2000e+001 205849 -2.4250e+002 -2.8036e+003  3.8862e+002 159252 205745,205823,205797
 7.2000e+001 206024 -1.3547e+005 -5.2410e+005  1.3932e+005 159004 205923,205975,205949
 7.2000e+001 206001 -1.0071e+005 -8.2957e+005  2.1774e+005 159004 205897,205975,205923
 7.2000e+001 206127 -5.1685e+006 -4.3637e+006  5.3095e+003 158364 206049,206101,206075
 7.2000e+001 206328 -3.8576e+004 -1.4778e+004  2.4400e+004 157960 206178,206256,206204
 7.2000e+001 206305 -2.8133e+004 -3.4407e+004  5.2555e+003 157960 206152,206256,206178
 7.2000e+001 206282 -3.4898e+004 -2.0327e+004  2.6549e+004 157960 206204,206256,206230
 7.2000e+001 206529 -1.7949e+006 -5.2324e+006  1.2177e+006 157648 206405,206457,206431
 7.2000e+001 206506 -2.9864e+006 -1.8215e+006  1.0189e+006 157648 206379,206457,206405
 7.2000e+001 206483 -3.0255e+006 -1.4146e+006  1.5203e+006 157648 206353,206457,206379
 7.2000e+001 206730 -2.5410e+005 -1.6439e+005  1.8264e+005 157208 206554,206606,206580
 7.2000e+001 206707 -1.5890e+005 -1.3784e+005  1.3570e+005 157208 206554,206632,206606
 7.2000e+001 206684 -4.1791e+005 -2.0882e+005  8.0186e+004 157208 206554,206658,206632
 7.2000e+001 206882 -3.5556e+003 -1.5787e+003  6.8224e+002 157010 206755,206807,206781
 7.2000e+001 206859 -2.4358e+003 -1.9038e+003  6.8358e+002 157010 206755,206833,206807
 7.2000e+001 207034 -3.5121e+003 -8.0289e+002  1.4860e+003 156620 206907,206959,206933
 7.2000e+001 207011 -1.1118e+003 -8.9938e+000  5.4380e+001 156620 206907,206985,206959
 7.2000e+001 207186 -4.1752e+004 -1.0919e+006  4.4894e+003 156330 207085,207137,207111
 7.2000e+001 207163 -2.5133e+005 -1.1909e+006 -5.4096e+005 156330 207059,207137,207085
 7.2000e+001 207387 -9.4583e+005 -1.7021e+006 -8.2480e+004 155890 207211,207289,207237
 7.2000e+001 207364 -1.8585e+006 -1.9809e+006 -1.0344e+006 155890 207211,207315,207289
 7.2000e+001 207341 -4.3696e+005 -1.3217e+006  1.8700e+005 155890 207237,207289,207263
 7.2000e+001 207588 -5.0999e+005 -2.0873e+007  7.5669e+006 155436 207438,207490,207464
 7.2000e+001 207565 -1.3568e+006 -1.4892e+007 -9.7704e+005 155436 207412,207490,207438
 7.2000e+001 207542 -2.5158e+006 -7.9225e+006 -1.2290e+006 155436 207412,207516,207490
 7.2000e+001 207789  1.8255e+006 -3.0854e+007 -2.1113e+006 155260 207639,207691,207665
 7.2000e+001 207766 -3.7680e+006 -9.8473e+006  4.5121e+006 155260 207613,207691,207639
 7.2000e+001 207743 -1.1206e+006 -7.4347e+006  1.1103e+003 155260 207613,207717,207691
 7.2000e+001 207990 -1.1070e+003  1.1669e+002  6.7330e+002 154920 207840,207918,207892
 7.2000e+001 207967  5.4917e+002  2.5608e+002 -1.1816e+002 154920 207814,207918,207840
 7.2000e+001 207944  1.0351e+003 -3.9232e+002  8.0473e+002 154920 207840,207892,207866
 7.2000e+001 208191 -5.3408e+003 -2.0368e+005  1.8778e+004 154630 208015,208093,208041
 7.2000e+001 208168  6.7786e+003 -1.9683e+005  4.2594e+003 154630 208015,208119,208093
 7.2000e+001 208145 -3.4602e+004 -4.8521e+004 -4.7485e+004 154630 208041,208093,208067
 7.2000e+001 208343 -4.6474e+002 -3.1248e+003  1.4472e+003 154240 208216,208268,208242
 7.2000e+001 208320 -1.0859e+002 -9.4598e+002  7.1464e+002 154240 208216,208294,208268
 7.2000e+001 208495  5.2763e+005 -6.8668e+006 -5.2382e+005 153950 208394,208446,208420
 7.2000e+001 208472 -1.3116e+006 -3.7646e+006  1.6386e+006 153950 208368,208446,208394
 7.2000e+001 208647 -1.7836e+006 -1.3695e+006  3.2021e+006 153603 208520,208572,208546
 7.2000e+001 208624 -1.3506e+006 -2.1090e+006 -1.0670e+006 153603 208520,208598,208572
 7.2000e+001 208848 -1.1792e+006 -2.2767e+005  1.0268e+005 153149 208698,208776,208724
 7.2000e+001 208825 -1.5740e+006 -8.2747e+004  1.3298e+005 153149 208672,208776,208698
 7.2000e+001 208802 -5.5872e+005 -3.3714e+005  4.3341e+005 153149 208724,208776,208750
 7.2000e+001 209000 -5.7737e+005 -1.6682e+006  9.8884e+004 152859 208873,208925,208899
 7.2000e+001 208977  3.3178e+005 -5.7022e+006  6.7189e+005 152859 208873,208951,208925
 7.2000e+001 209152  3.2002e+005 -3.1083e+006  3.5667e+005 152569 209051,209103,209077
 7.2000e+001 209129  6.4909e+005 -4.9585e+006 -6.6230e+005 152569 209025,209103,209051
 7.2000e+001 209304  3.2334e+002 -2.1430e+002  1.3227e+002 152065 209177,209229,209203
 7.2000e+001 209281  7.7831e+002  2.8335e+002 -1.5155e+002 152065 209177,209255,209229
 7.2000e+001 209456 -1.5028e+006 -2.0374e+006 -3.7253e+005 151775 209355,209407,209381
 7.2000e+001 209433 -1.0112e+006 -7.5147e+006 -5.3886e+005 151775 209329,209407,209355
 7.2000e+001 209608 -1.0853e+006 -4.8407e+006 -1.6690e+006 151371 209481,209533,209507
 7.2000e+001 209585  9.9614e+005 -9.6666e+006 -3.6188e+005 151371 209481,209559,209533
 7.2000e+001 209760 -4.9939e+004 -3.8313e+004  5.6178e+004 150981 209659,209711,209685
 7.2000e+001 209737 -3.1941e+004 -1.5859e+005 -1.2801e+005 150981 209633,209711,209659
 7.2000e+001 209912  2.3142e+006 -3.1784e+007 -2.8054e+006 150619 209811,209863,209837
 7.2000e+001 209889 -2.9342e+006 -1.3265e+007  3.5570e+006 150619 209785,209863,209811
 7.2000e+001 210064 -6.7352e+004 -1.3720e+005  4.3657e+004 150279 209937,209989,209963
 7.2000e+001 210041 -1.7918e+004 -3.9489e+005  2.0824e+004 150279 209937,210015,209989
 7.2000e+001 210265 -3.1890e+006 -6.3653e+006 -2.4206e+005 149989 210115,210167,210141
 7.2000e+001 210242 -5.9624e+005 -6.8794e+006 -1.1330e+006 149989 210115,210193,210167
 7.2000e+001 210219 -5.4991e+005 -7.9056e+006 -1.1333e+006 149989 210089,210193,210115
 7.2000e+001 210417 -2.2751e+005 -9.0765e+004  9.2199e+004 149599 210316,210368,210342
 7.2000e+001 210394 -8.3674e+003 -4.9631e+005  4.1377e+004 149599 210290,210368,210316
 7.2000e+001 210618 -2.4852e+006 -1.3632e+007  3.3627e+006 149095 210468,210520,210494
 7.2000e+001 210595 -2.8034e+006 -1.3690e+007  3.1407e+006 149095 210442,210520,210468
 7.2000e+001 210572 -1.1606e+006 -1.6481e+007  2.9297e+006 149095 210442,210546,210520
 7.2000e+001 210819 -2.3122e+003 -7.1068e+004  9.0377e+003 148748 210695,210747,210721
 7.2000e+001 210796 -2.4444e+003 -4.3071e+004 -2.9256e+003 148748 210669,210747,210695
 7.2000e+001 210773 -6.3975e+003 -2.0644e+004  1.1534e+004 148748 210643,210747,210669
 7.2000e+001 210971  1.4074e+003 -2.2933e+002  7.7160e+002 148408 210870,210922,210896
 7.2000e+001 210948 -1.0440e+003  1.6363e+003 -1.2781e+003 148408 210844,210922,210870
 7.2000e+001 211123 -3.8375e+005 -3.1065e+006  7.5071e+005 148118 210996,211048,211022
 7.2000e+001 211100 -1.7772e+006 -3.2150e+006  1.9468e+006 148118 210996,211074,211048
 7.2000e+001 211275 -1.1672e+006 -2.6887e+006  1.3840e+006 147778 211148,211200,211174
 7.2000e+001 211252 -1.9054e+006 -4.7171e+006  2.8547e+006 147778 211148,211226,211200
 7.2000e+001 211427 -8.0837e+005 -5.2879e+005  4.4763e+005 147324 211326,211378,211352
 7.2000e+001 211404  7.1022e+004 -1.4706e+006  3.4177e+005 147324 211300,211378,211326
 7.2000e+001 211628 -1.6342e+006 -1.1781e+006  6.5988e+005 147012 211452,211504,211478
 7.2000e+001 211605 -1.5687e+006  7.1766e+005  9.5747e+005 147012 211452,211556,211504
 7.2000e+001 211582 -1.3466e+006 -5.5619e+005  1.6974e+006 147012 211504,211556,211530
 7.2000e+001 211829 -1.4847e+006 -2.1117e+006  3.7805e+005 146636 211679,211757,211731
 7.2000e+001 211806  8.8800e+005 -3.2084e+006  5.7519e+005 146636 211653,211757,211679
 7.2000e+001 211783 -2.4026e+005 -3.9754e+006  3.1688e+006 146636 211679,211731,211705
 7.2000e+001 211981 -1.1541e+003  9.5602e+002 -3.8259e+002 146246 211880,211932,211906
 7.2000e+001 211958 -2.5281e+002 -2.2315e+002  3.0605e+002 146246 211854,211932,211880
 7.2000e+001 212133  1.0931e+003 -2.1951e+003 -8.6491e+002 145956 212006,212058,212032
 7.2000e+001 212110  1.0526e+003 -4.4922e+003  1.3391e+002 145956 212006,212084,212058
 7.2000e+001 212285  3.7011e+002  1.2257e+003 -3.6433e+002 145544 212184,212236,212210
 7.2000e+001 212262  6.2363e+002 -8.6332e+001 -3.4094e+001 145544 212158,212236,212184
 7.2000e+001 212486 -1.1668e+006 -1.5295e+007  4.4679e+006 144990 212362,212414,212388
 7.2000e+001 212463  2.8596e+005 -1.3068e+007  5.8416e+006 144990 212310,212414,212362
 7.2000e+001 212440 -4.7365e+006 -2.2848e+006  2.4371e+006 144990 212310,212362,212336
 7.2000e+001 212638  8.1063e+003 -1.4052e+005  5.9250e+004 144600 212537,212589,212563
 7.2000e+001 212615  9.4384e+003 -9.8217e+004  1.0900e+005 144600 212511,212589,212537
 7.2000e+001 212839 -1.9846e+005 -1.3600e+006  2.6605e+005 144210 212689,212741,212715
 7.2000e+001 212816 -2.1978e+005 -1.4826e+006  4.4236e+005 144210 212663,212741,212689
 7.2000e+001 212793 -2.2992e+005 -1.5300e+006  4.7065e+005 144210 212663,212767,212741
 7.2000e+001 212991  1.6984e+003 -2.1960e+004  9.6480e+003 143920 212890,212942,212916
 7.2000e+001 212968  5.4469e+003 -8.5073e+004  7.4498e+003 143920 212864,212942,212890
 7.2000e+001 213143  8.7688e+000  3.5026e+002 -5.4979e+002 143480 213016,213068,213042
 7.2000e+001 213120  2.1842e+002 -2.8263e+002  7.5109e+001 143480 213016,213094,213068
 7.2000e+001 213295 -3.3771e+005 -1.5295e+006  7.0117e+005 142990 213194,213246,213220
 7.2000e+001 213272 -2.8069e+005 -8.6394e+005  3.0723e+005 142990 213168,213246,213194
 7.2000e+001 213447  1.5889e+005 -2.4288e+006  1.1172e+006 142600 213320,213372,213346
 7.2000e+001 213424 -4.0534e+005 -1.9074e+006  6.6201e+005 142600 213320,213398,213372
 7.2000e+001 213599 -1.0649e+004 -1.4673e+005  1.5510e+004 142260 213472,213524,213498
 7.2000e+001 213576 -7.2348e+004 -1.7433e+005  7.0332e+004 142260 213472,213550,213524
 7.2000e+001 213751 -2.5669e+005 -7.8176e+005 -4.2548e+005 141870 213624,213676,213650
 7.2000e+001 213728 -3.5158e+005 -7.5151e+005 -5.0681e+005 141870 213624,213702,213676
 7.2000e+001 213903 -1.1230e+006 -1.2793e+006 -1.1983e+006 141530 213776,213828,213802
 7.2000e+001 213880 -3.0992e+005 -1.5061e+006 -6.0441e+005 141530 213776,213854,213828
 7.2000e+001 214055 -3.6186e+006 -8.3169e+004  4.3534e+005 141218 213928,213980,213954
 7.2000e+001 214032 -2.1995e+006 -4.4588e+005  1.2171e+005 141218 213928,214006,213980
 7.2000e+001 214207 -3.5086e+003 -1.3030e+003  5.7857e+002 140928 214080,214132,214106
 7.2000e+001 214184 -2.3953e+003 -2.7364e+003  5.3048e+003 140928 214080,214158,214132
 7.2000e+001 214359 -1.4915e+004 -6.8569e+004 -3.6599e+003 140538 214232,214284,214258
 7.2000e+001 214336 -2.9353e+004 -2.3402e+005  1.3288e+005 140538 214232,214310,214284
 7.2000e+001 214560 -2.5239e+005 -4.2476e+006  8.0971e+005 140248 214384,214462,214410
 7.2000e+001 214537  1.2176e+005 -2.2385e+006  3.8464e+005 140248 214384,214488,214462
 7.2000e+001 214514 -3.2076e+005 -2.7625e+006 -1.4521e+005 140248 214410,214462,214436
 7.2000e+001 214712 -1.5963e+005 -8.1007e+005  4.7012e+005 140000 214611,214663,214637
 7.2000e+001 214689 -2.0461e+005 -8.8958e+005  4.2840e+005 140000 214585,214663,214611
 7.2000e+001 214913 -2.0866e+005 -1.4111e+006 -3.8998e+005 139596 214737,214815,214763
 7.2000e+001 214890 -1.6864e+005 -7.4007e+005 -2.8855e+004 139596 214737,214841,214815
 7.2000e+001 214867  6.1918e+005 -4.8640e+006  4.9576e+005 139596 214763,214815,214789
 7.2000e+001 215016  2.3467e+003 -1.3025e+003  1.5015e+003 139420 214938,214990,214964
 7.2000e+001 215168 -4.2597e+006 -1.0124e+007  6.6520e+006 139130 215067,215119,215093
 7.2000e+001 215145 -1.9226e+006 -1.1607e+007  3.5469e+006 139130 215041,215119,215067
 7.2000e+001 215320 -2.3934e+006 -5.5267e+006  3.5441e+006 138790 215219,215271,215245
 7.2000e+001 215297 -2.1483e+006 -1.0965e+007  5.7404e+006 138790 215193,215271,215219
 7.2000e+001 215472 -2.4822e+004 -2.3670e+005  9.7771e+004 138514 215345,215397,215371
 7.2000e+001 215449 -7.7891e+003 -1.7442e+005  4.7695e+004 138514 215345,215423,215397
 7.2000e+001 215624 -2.5658e+005 -6.8837e+006  1.7457e+006 138174 215497,215549,215523
 7.2000e+001 215601 -4.4262e+005 -5.3138e+006  1.5171e+006 138174 215497,215575,215549
 7.2000e+001 215776  1.1182e+001  1.8394e+002  3.2614e+001 137734 215649,215701,215675
 7.2000e+001 215753 -6.3576e+001  2.3700e+002 -1.6185e+002 137734 215649,215727,215701
 7.2000e+001 215977  5.6393e+005 -1.1512e+007  1.8184e+006 137344 215801,215879,215827
 7.2000e+001 215954 -1.5246e+006 -3.2258e+006 -2.0190e+006 137344 215801,215905,215879
 7.2000e+001 215931  9.9702e+005 -1.6624e+007 -4.7312e+006 137344 215827,215879,215853
 7.2000e+001 216129 -5.9270e+005 -2.1705e+006  4.4531e+005 136940 216028,216080,216054
 7.2000e+001 216106 -5.2711e+005 -3.3378e+006  1.0656e+006 136940 216002,216080,216028
 7.2000e+001 216330 -2.3573e+006 -6.9650e+006  1.4032e+006 136600 216180,216232,216206
 7.2000e+001 216307 -6.4680e+005 -6.5945e+006  2.3990e+006 136600 216154,216232,216180
 7.2000e+001 216284 -2.0870e+006 -3.1062e+006  3.8548e+005 136600 216154,216258,216232
 7.2000e+001 216482  6.5280e+005 -4.5286e+006  9.6937e+005 136260 216381,216433,216407
 7.2000e+001 216459  4.8851e+005 -3.1653e+006  1.0547e+006 136260 216355,216433,216381
 7.2000e+001 216634 -3.8854e+005 -8.8458e+005  4.9721e+005 135970 216533,216585,216559
 7.2000e+001 216611 -2.2079e+005 -1.6583e+006  7.6052e+005 135970 216507,216585,216533
 7.2000e+001 216835 -1.3036e+005 -2.3460e+006  6.6858e+004 135608 216685,216763,216711
 7.2000e+001 216812  3.6980e+004 -2.4804e+006 -1.6958e+005 135608 216659,216763,216685
 7.2000e+001 216789 -2.7912e+004 -1.3229e+006  1.0109e+004 135608 216711,216763,216737
 7.2000e+001 217036 -7.0085e+005 -1.3420e+006  6.7562e+005 135312 216912,216964,216938
 7.2000e+001 217013 -6.1951e+005 -3.1933e+006  1.6377e+006 135312 216886,216964,216912
 7.2000e+001 216990  4.0762e+005 -5.6961e+006  1.1197e+006 135312 216860,216964,216886
 7.2000e+001 217237 -1.2736e+005 -8.3139e+005  3.0942e+005 134908 217061,217139,217113
 7.2000e+001 217214 -2.2932e+005 -8.8990e+005  4.6823e+005 134908 217061,217165,217139
 7.2000e+001 217191 -1.9849e+005 -1.1459e+006  4.5744e+005 134908 217061,217113,217087
 7.2000e+001 217438 -7.7039e+005 -1.5110e+007 -1.5980e+006 134568 217288,217366,217314
 7.2000e+001 217415 -5.6697e+005 -1.7334e+007 -2.3432e+006 134568 217262,217366,217288
 7.2000e+001 217392 -9.7838e+005 -1.8826e+007 -2.9566e+006 134568 217314,217366,217340
 7.2000e+001 217590 -3.1370e+004 -2.7062e+005  1.3310e+005 134106 217463,217515,217489
 7.2000e+001 217567 -3.4322e+004 -2.3395e+005  7.2781e+004 134106 217463,217541,217515
 7.2000e+001 217791 -1.5978e+006 -1.3699e+007 -4.6789e+006 133816 217641,217693,217667
 7.2000e+001 217768  8.9975e+006 -9.6890e+006 -7.5843e+006 133816 217641,217719,217693
 7.2000e+001 217745 -2.8090e+007 -2.0411e+007  2.3945e+007 133816 217615,217719,217641
 7.2000e+001 217992 -4.4027e+006 -5.0010e+006  5.0763e+006 133355 217842,217920,217894
 7.2000e+001 217969 -1.3668e+006 -9.5551e+006  3.5717e+006 133355 217816,217920,217842
 7.2000e+001 217946 -1.2701e+006 -2.8264e+006  9.6542e+005 133355 217842,217894,217868
 7.2000e+001 218193 -1.8670e+005 -7.2233e+006  8.0300e+005 132851 218017,218095,218069
 7.2000e+001 218170 -5.2235e+006 -7.6181e+006  6.8688e+006 132851 218017,218121,218095
 7.2000e+001 218147 -1.5694e+006 -2.8552e+006 -5.9848e+005 132851 218017,218069,218043
 7.2000e+001 218345 -2.1602e+004 -8.8585e+004  3.2817e+004 132511 218244,218296,218270
 7.2000e+001 218322 -1.6036e+004 -2.1895e+005  6.7388e+004 132511 218218,218296,218244
 7.2000e+001 218497  1.8108e+006 -2.4837e+007  3.9871e+004 132235 218396,218448,218422
 7.2000e+001 218474 -1.1641e+005 -8.0426e+006  9.3182e+005 132235 218370,218448,218396
 7.2000e+001 218698 -4.3556e+005 -8.6401e+006 -2.3076e+006 131945 218574,218626,218600
 7.2000e+001 218675 -1.9098e+006 -1.7685e+007 -1.3025e+006 131945 218522,218626,218574
 7.2000e+001 218652 -2.9198e+006 -7.5357e+006 -3.2884e+006 131945 218522,218574,218548
 7.2000e+001 218850 -3.0167e+005 -1.5671e+007  6.6390e+005 131655 218723,218775,218749
 7.2000e+001 218827  1.8177e+005 -1.0241e+007  4.8990e+005 131655 218723,218801,218775
 7.2000e+001 218953  4.4443e+000 -1.3617e+002 -7.5365e+001 131215 218875,218927,218901
 7.2000e+001 219105 -6.2330e+004 -1.5926e+006 -2.1101e+005 130875 218978,219030,219004
 7.2000e+001 219082 -7.2191e+004 -6.1550e+005 -3.2079e+004 130875 218978,219056,219030
 7.2000e+001 219306 -3.8625e+005 -1.1623e+006  1.4704e+005 130429 219156,219234,219208
 7.2000e+001 219283 -3.9523e+005 -7.4577e+005  2.4393e+005 130429 219130,219234,219156
 7.2000e+001 219260 -1.2730e+006 -1.4196e+006  8.6455e+005 130429 219156,219208,219182
 7.2000e+001 219507 -3.6826e+005 -1.2152e+006  5.3565e+005 130025 219383,219435,219409
 7.2000e+001 219484 -3.3782e+005 -1.5289e+006  6.8354e+005 130025 219331,219435,219383
 7.2000e+001 219461 -3.6843e+005 -9.6843e+005  4.2880e+005 130025 219331,219383,219357
 7.2000e+001 219659 -1.1204e-002 -8.0417e-001  9.4919e-002 129685 219558,219610,219584
 7.2000e+001 219636  2.5788e-002  1.8510e+000 -2.1848e-001 129685 219532,219610,219558
 7.2000e+001 219860 -2.0225e+005 -8.2056e+005  5.4727e+005 129395 219710,219788,219762
 7.2000e+001 219837 -1.9571e+005 -1.0761e+006  5.3441e+005 129395 219684,219788,219710
 7.2000e+001 219814 -8.8665e+004 -1.1285e+006  3.2864e+005 129395 219710,219762,219736
 7.2000e+001 220061  1.2180e+004 -1.2207e+005  6.6709e+004 128991 219937,219989,219963
 7.2000e+001 220038  6.6434e+003 -2.2622e+005  4.7470e+004 128991 219885,219989,219937
 7.2000e+001 220015 -3.6740e+003 -2.8999e+005  9.4801e+004 128991 219885,219937,219911
 7.2000e+001 220262 -5.5401e+004 -5.9449e+004  1.2915e+004 128701 220086,220164,220112
 7.2000e+001 220239 -1.4594e+004 -2.1316e+005  8.5021e+004 128701 220086,220190,220164
 7.2000e+001 220216 -4.1754e+003 -4.9528e+004  1.4705e+004 128701 220112,220164,220138
 7.2000e+001 220463 -3.1719e+006 -8.4405e+006  3.9384e+006 128297 220339,220391,220365
 7.2000e+001 220440 -1.3406e+006 -1.1050e+007  3.1064e+006 128297 220313,220391,220339
 7.2000e+001 220417 -1.5186e+006 -1.5176e+007 -7.5782e+006 128297 220287,220391,220313
 7.2000e+001 220615 -5.8776e-002 -2.1001e-002 -3.5133e-002 128007 220488,220540,220514
 7.2000e+001 220592  6.3940e-002  2.2846e-002  3.8220e-002 128007 220488,220566,220540
 7.2000e+001 220767 -7.0025e+004 -4.5890e+006  3.8833e+005 127567 220640,220692,220666
 7.2000e+001 220744 -4.6137e+004 -2.2583e+006  4.4496e+004 127567 220640,220718,220692
 7.2000e+001 220919 -1.4096e+006 -1.3538e+007 -1.5360e+006 127163 220792,220844,220818
 7.2000e+001 220896 -1.6312e+005 -1.6037e+007  1.9460e+006 127163 220792,220870,220844
 7.2000e+001 221071 -3.1496e+006 -4.2616e+006  3.2001e+006 126915 220970,221022,220996
 7.2000e+001 221048 -2.6343e+006 -6.0068e+006  2.8047e+006 126915 220944,221022,220970
 7.2000e+001 221272 -1.5918e+006 -4.5628e+006  3.0906e+006 126461 221122,221174,221148
 7.2000e+001 221249  1.6073e+005 -4.9656e+006  7.8532e+005 126461 221122,221200,221174
 7.2000e+001 221226 -1.2538e+006 -2.5739e+006  1.7965e+006 126461 221096,221200,221122
 7.2000e+001 221375  6.8483e+000 -1.2602e+001 -6.9405e-001 126213 221297,221349,221323
 7.2000e+001 221478  1.7131e-131 -1.2869e-131 -2.8982e-131 125766 221400,221452,221426
 7.2000e+001 221679 -1.8418e+004 -1.3469e+005  4.0676e+004 125212 221503,221555,221529
 7.2000e+001 221656 -9.7087e+003 -1.1803e+005  3.0398e+004 125212 221503,221581,221555
 7.2000e+001 221633 -2.5790e+004 -3.5136e+005  1.5283e+005 125212 221503,221607,221581
 7.2000e+001 221929 -3.4670e+002 -6.7256e+002  7.4624e+002 124872 221782,221834,221808
 7.2000e+001 221906  1.2105e+002 -8.8471e+002  2.6605e+002 124872 221756,221834,221782
 7.2000e+001 221883 -1.3605e+002 -1.4702e+002 -3.3726e+002 124872 221704,221834,221756
 7.2000e+001 221860 -4.8331e+002  7.2362e+001  1.9520e+002 124872 221704,221756,221730
 7.2000e+001 222130 -8.9623e+005 -7.0810e+006 -5.4580e+004 124582 221980,222058,222006
 7.2000e+001 222107 -1.3541e+006 -6.3036e+006  5.5743e+005 124582 221954,222058,221980
 7.2000e+001 222084 -2.3829e+006 -6.8941e+006 -6.7869e+005 124582 222006,222058,222032
 7.2000e+001 222282 -2.0119e+006 -5.6184e+006 -1.4172e+006 124192 222181,222233,222207
 7.2000e+001 222259 -9.0870e+005 -4.1994e+006 -1.7099e+005 124192 222155,222233,222181
 7.2000e+001 222483 -6.9810e+004 -1.1315e+005 -9.4955e+004 123702 222333,222385,222359
 7.2000e+001 222460 -3.4274e+004 -6.5028e+004 -4.8162e+004 123702 222333,222411,222385
 7.2000e+001 222437 -6.2563e+004 -1.0983e+005 -8.0454e+004 123702 222307,222411,222333
 7.2000e+001 222635 -4.9052e+004 -1.2604e+005  7.7151e+004 123312 222508,222560,222534
 7.2000e+001 222612 -4.4099e+004 -1.1870e+005  7.3616e+004 123312 222508,222586,222560
 7.2000e+001 222787 -2.1543e+000 -9.5260e-002  4.5131e-001 122858 222686,222738,222712
 7.2000e+001 222764  7.4514e-001  3.3096e-002 -1.5771e-001 122858 222660,222738,222686
 7.2000e+001 222939 -1.4720e+004 -3.5403e+005 -1.8586e+003 122568 222812,222864,222838
 7.2000e+001 222916  2.2263e+004 -2.0530e+005 -8.2569e+003 122568 222812,222890,222864
 7.2000e+001 223091 -1.0241e+006 -2.3804e+005  2.6537e+005 122392 222964,223016,222990
 7.2000e+001 223068 -2.9306e+005 -6.9107e+004  1.9064e+005 122392 222964,223042,223016
 7.2000e+001 223292 -7.3964e+005 -1.5867e+006  2.2822e+005 121852 223142,223220,223194
 7.2000e+001 223269 -3.1741e+006 -3.7382e+005  5.5598e+005 121852 223116,223220,223142
 7.2000e+001 223246 -2.7654e+006 -1.5009e+006 -2.4112e+006 121852 223142,223194,223168
 7.2000e+001 223493 -9.4842e+005 -3.9053e+005  6.3970e+005 121406 223343,223395,223369
 7.2000e+001 223470 -9.7870e+005 -3.6035e+005  5.9804e+005 121406 223343,223421,223395
 7.2000e+001 223447 -3.6412e+005 -4.9727e+005  3.3918e+005 121406 223317,223421,223343
 7.2000e+001 223645  2.8824e+005 -1.2565e+007  2.4634e+006 121002 223544,223596,223570
 7.2000e+001 223622 -1.1221e+006 -9.6436e+006  2.3867e+006 121002 223518,223596,223544
 7.2000e+001 223846 -2.7274e+002  2.2570e+001  1.4174e+002 120662 223670,223748,223696
 7.2000e+001 223823 -2.5352e+002 -1.1044e+002  3.8903e+001 120662 223670,223774,223748
 7.2000e+001 223800 -1.6074e+002  1.2692e+002  7.3117e+001 120662 223696,223748,223722
 7.2000e+001 224047 -1.8402e+002 -3.1148e+002  2.3574e+002 120222 223897,223949,223923
 7.2000e+001 224024 -1.1039e+002 -3.9223e+002  1.5937e+002 120222 223871,223949,223897
 7.2000e+001 224001 -1.4460e+002 -3.5368e+001 -4.6686e+000 120222 223871,223975,223949
 7.2000e+001 224248 -1.6272e+003 -8.1414e+002 -3.9264e+002 119875 224124,224176,224150
 7.2000e+001 224225  4.1105e+002 -4.8423e+002  6.3184e+002 119875 224098,224176,224124
 7.2000e+001 224202  9.6717e+002 -1.4696e+003 -4.5089e+002 119875 224072,224176,224098
 7.2000e+001 224449 -6.0996e+001 -1.8815e+002  7.8197e+001 119677 224325,224377,224351
 7.2000e+001 224426 -1.4936e+002 -5.4288e+002  1.7564e+002 119677 224299,224377,224325
 7.2000e+001 224403 -1.4305e+002 -1.6486e+002  1.8933e+002 119677 224273,224377,224299
 7.2000e+001 224552  6.7467e+001 -3.2594e+001 -1.7518e+002 119273 224474,224526,224500
 7.2000e+001 224704 -2.2579e+004 -1.2375e+005  5.6153e+004 118983 224603,224655,224629
 7.2000e+001 224681 -2.7296e+004 -1.2140e+005  5.7055e+004 118983 224577,224655,224603
 7.2000e+001 224856 -2.4070e+005  1.2104e+004  9.5442e+003 118529 224755,224807,224781
 7.2000e+001 224833  2.8341e+004 -2.5761e+005  6.9441e+004 118529 224729,224807,224755
 7.2000e+001 225008 -1.5784e+002  7.3838e+000  3.7572e+001 118353 224881,224933,224907
 7.2000e+001 224985 -8.6169e+001 -1.0463e+002 -2.2845e+001 118353 224881,224959,224933
 7.2000e+001 225209 -1.1054e+006 -5.1000e+006 -1.2069e+006 117949 225059,225137,225111
 7.2000e+001 225186 -2.3239e+005 -3.6638e+006  8.5436e+005 117949 225033,225137,225059
 7.2000e+001 225163  7.3299e+005 -9.8151e+006  1.1591e+006 117949 225059,225111,225085
 7.2000e+001 225410  1.2050e+005 -7.2471e+006  5.0726e+005 117559 225260,225338,225312
 7.2000e+001 225387 -2.1690e+006 -7.7986e+006  4.4541e+005 117559 225234,225338,225260
 7.2000e+001 225364 -5.9682e+005 -5.3812e+006 -1.7919e+006 117559 225260,225312,225286
 7.2000e+001 225611 -1.2996e+006 -1.0710e+007 -3.5886e+006 117361 225461,225513,225487
 7.2000e+001 225588 -2.2779e+006 -1.1849e+007  1.6753e+006 117361 225461,225539,225513
 7.2000e+001 225565 -7.4013e+005 -1.2478e+007  1.3265e+006 117361 225435,225539,225461
 7.2000e+001 225812  5.9941e+005 -8.6067e+006 -2.9687e+005 116900 225636,225714,225662
 7.2000e+001 225789 -1.9587e+006 -3.2456e+006 -8.9434e+005 116900 225636,225740,225714
 7.2000e+001 225766 -6.5310e+002 -8.7609e+006 -6.4019e+004 116900 225662,225714,225688
 7.2000e+001 225964 -1.0411e+005 -6.3439e+006 -1.0826e+005 116560 225837,225889,225863
 7.2000e+001 225941  2.6572e+005 -7.6170e+006  1.4752e+005 116560 225837,225915,225889
 7.2000e+001 226165  2.0471e+003  6.9724e+002 -7.7033e+002 116106 226015,226093,226041
 7.2000e+001 226142 -1.2498e+003  1.5775e+003 -2.6671e+003 116106 225989,226093,226015
 7.2000e+001 226119  1.1146e+002  1.6422e+003  1.5952e+003 116106 226041,226093,226067
 7.2000e+001 226268 -1.8295e+006 -5.4907e+006  1.0512e+006 115716 226190,226242,226216
 7.2000e+001 226420 -6.3425e+004 -1.1031e+007  1.8049e+006 115376 226293,226345,226319
 7.2000e+001 226397 -4.8728e+005 -1.2127e+007  3.6495e+006 115376 226293,226371,226345
 7.2000e+001 226621 -9.8942e+005 -2.6208e+006  6.9402e+005 114972 226497,226549,226523
 7.2000e+001 226598 -4.2409e+005 -1.3056e+007 -2.3070e+005 114972 226445,226549,226497
 7.2000e+001 226575  4.8737e+005 -7.0564e+006  8.5995e+005 114972 226445,226497,226471
 7.2000e+001 226773 -1.8036e+006 -3.7607e+006 -1.5210e+006 114670 226646,226698,226672
 7.2000e+001 226750  6.0499e+005 -8.9350e+006  9.8160e+005 114670 226646,226724,226698
 7.2000e+001 226974  7.3272e+004 -3.4852e+006 -5.8363e+005 114082 226798,226850,226824
 7.2000e+001 226951  2.0089e+005 -4.6987e+006 -1.5051e+005 114082 226798,226902,226850
 7.2000e+001 226928  5.2366e+004 -6.4760e+006 -5.9743e+005 114082 226850,226902,226876
 7.2000e+001 227175 -8.5242e+005 -5.2451e+006 -2.6532e+006 113678 226999,227051,227025
 7.2000e+001 227152 -2.1656e+006 -9.1771e+006 -4.1334e+006 113678 226999,227077,227051
 7.2000e+001 227129 -3.2965e+006 -5.3623e+006 -3.4879e+006 113678 226999,227103,227077
 7.2000e+001 227425 -3.6235e+006 -7.7080e+006 -8.3370e+006 113274 227226,227278,227252
 7.2000e+001 227402 -2.6393e+005 -7.3848e+006 -1.6884e+006 113274 227226,227330,227278
 7.2000e+001 227379 -3.0644e+006 -3.9167e+006 -1.5558e+006 113274 227200,227330,227226
 7.2000e+001 227356 -1.3870e+006 -1.2051e+006 -1.4505e+006 113274 227278,227330,227304
 7.2000e+001 227626 -8.5143e+005 -4.1537e+006 -3.0598e+006 112934 227502,227554,227528
 7.2000e+001 227603  8.3048e+005 -3.2164e+006 -5.7088e+004 112934 227450,227554,227502
 7.2000e+001 227580 -2.0176e+006 -3.2283e+005  1.0203e+006 112934 227450,227502,227476
 7.2000e+001 227876 -1.5069e+005 -2.1013e+006 -2.0966e+005 112437 227677,227755,227703
 7.2000e+001 227853 -1.1392e+006 -2.5071e+006  1.4778e+006 112437 227677,227781,227755
 7.2000e+001 227830 -2.4418e+005 -1.0579e+006  3.8214e+005 112437 227703,227755,227729
 7.2000e+001 227807 -2.0788e+005 -8.8731e+006 -6.8461e+005 112437 227651,227781,227677
 7.2000e+001 228126 -2.4718e+005 -4.6670e+006 -5.0543e+005 112041 227927,228005,227953
 7.2000e+001 228103 -4.4153e+005 -4.7575e+006 -5.7508e+005 112041 227927,228031,228005
 7.2000e+001 228080 -4.9639e+004 -5.6213e+006 -3.8631e+005 112041 227953,228005,227979
 7.2000e+001 228057 -9.3223e+005 -3.6794e+006 -9.0046e+005 112041 227901,228031,227927
 7.2000e+001 228327 -2.6743e+006 -3.5088e+006  2.1062e+005 111693 228151,228203,228177
 7.2000e+001 228304  7.4805e+004 -2.3080e+006 -1.5385e+006 111693 228151,228229,228203
 7.2000e+001 228281  1.0149e+006 -6.6303e+006  1.6534e+006 111693 228151,228255,228229
 7.2000e+001 228479 -2.8786e+006 -1.6060e+006 -2.8274e+006 111253 228352,228404,228378
 7.2000e+001 228456 -1.7981e+006 -3.1089e+005  1.2711e+004 111253 228352,228430,228404
 7.2000e+001 228582 -5.8519e-005 -6.1843e-003  1.3822e-003 110906 228504,228556,228530
 7.2000e+001 228783 -2.1165e+004 -2.2006e+006 -5.2523e+004 110416 228633,228711,228659
 7.2000e+001 228760  2.7351e+004 -1.9765e+006 -6.2491e+004 110416 228607,228711,228633
 7.2000e+001 228737  5.2298e+004 -2.5158e+006 -1.0767e+005 110416 228659,228711,228685
 7.2000e+001 228935 -1.1552e+005 -4.0686e+006 -1.2506e+006 110012 228808,228860,228834
 7.2000e+001 228912 -1.1856e+006 -7.2816e+006 -1.9959e+006 110012 228808,228886,228860
 7.2000e+001 229087 -1.4767e+006 -3.2025e+006 -1.9946e+006 109672 228960,229012,228986
 7.2000e+001 229064  5.4063e+005 -6.5833e+006 -1.1196e+006 109672 228960,229038,229012
 7.2000e+001 229190 -1.3391e+001  1.8292e+002 -3.0396e+001 109332 229112,229164,229138
 7.2000e+001 229391 -2.4648e+005 -1.8777e+005  1.3262e+005 109156 229267,229319,229293
 7.2000e+001 229368 -2.5258e+005 -1.3913e+006  3.5012e+005 109156 229215,229319,229267
 7.2000e+001 229345 -1.3420e+005 -5.9364e+005  5.2676e+005 109156 229215,229267,229241
 7.2000e+001 229543  8.4726e+005 -9.5284e+006  1.2206e+006 108752 229416,229468,229442
 7.2000e+001 229520 -5.4123e+005 -4.2769e+006 -5.3704e+005 108752 229416,229494,229468
 7.2000e+001 229744 -1.2530e+005 -5.5491e+006  5.6937e+004 108198 229594,229646,229620
 7.2000e+001 229721  7.2414e+004 -5.4907e+006 -7.2824e+004 108198 229594,229672,229646
 7.2000e+001 229698 -4.8709e+005 -5.5072e+006 -1.3373e+005 108198 229568,229672,229594
 7.2000e+001 229847 -1.3783e+005 -1.8323e+006 -4.0541e+005 107758 229769,229821,229795
 7.2000e+001 230048 -7.8757e+005 -2.5602e+006 -3.1580e+005 107468 229898,229950,229924
 7.2000e+001 230025 -6.3737e+005 -1.9751e+006  8.0619e+005 107468 229872,229950,229898
 7.2000e+001 230002 -1.2210e+006 -1.5887e+006  4.2411e+005 107468 229872,229976,229950
 7.2000e+001 230298  1.4791e+005 -1.4726e+006  5.4084e+005 107121 230099,230203,230177
 7.2000e+001 230275 -3.2196e+005 -2.1956e+006  1.8945e+005 107121 230073,230203,230099
 7.2000e+001 230252  6.0800e+005 -1.8395e+006 -3.5006e+005 107121 230099,230177,230151
 7.2000e+001 230229 -2.2411e+005 -1.6910e+006 -6.1562e+005 107121 230099,230151,230125
 7.2000e+001 230450 -1.6876e+004 -9.9608e+005  8.9214e+004 106823 230349,230401,230375
 7.2000e+001 230427 -1.3045e+004 -1.2748e+006  1.2326e+004 106823 230323,230401,230349
 7.2000e+001 230602 -4.1533e+006 -1.0028e+007 -8.9812e+006 106533 230501,230553,230527
 7.2000e+001 230579  1.1241e+006 -1.3858e+007  3.8167e+006 106533 230475,230553,230501
 7.2000e+001 230803 -1.1986e+005 -2.6790e+006 -4.1519e+004 106029 230679,230731,230705
 7.2000e+001 230780  7.5994e+004 -1.8900e+006 -3.0469e+004 106029 230653,230731,230679
 7.2000e+001 230757  1.2432e+003 -2.4276e+006 -1.3739e+005 106029 230627,230731,230653
 7.2000e+001 231004 -1.7380e+005 -2.3334e+006  2.5721e+005 105689 230854,230906,230880
 7.2000e+001 230981  6.4771e+004 -2.6330e+006 -8.8721e+004 105689 230828,230906,230854
 7.2000e+001 230958 -7.8548e+005 -2.0960e+006 -5.2751e+005 105689 230828,230932,230906
 7.2000e+001 231156  2.8676e+005 -7.3720e+006 -3.0944e+005 105377 231055,231107,231081
 7.2000e+001 231133 -2.4587e+005 -4.8882e+006  3.9271e+005 105377 231029,231107,231055
 7.2000e+001 231406 -5.9131e+005 -7.4808e+006 -1.4723e+006 104858 231207,231259,231233
 7.2000e+001 231383 -1.4435e+006 -7.4724e+006 -1.6993e+006 104858 231207,231311,231259
 7.2000e+001 231360 -7.4131e+005 -8.8481e+006 -2.3623e+006 104858 231259,231311,231285
 7.2000e+001 231337 -3.2410e+005 -8.5267e+006 -1.7492e+006 104858 231181,231311,231207
 7.2000e+001 231558 -1.3068e+006 -1.7744e+007  2.0266e+006 104418 231457,231509,231483
 7.2000e+001 231535 -3.4236e+006 -1.7486e+007 -8.0521e+006 104418 231431,231509,231457
 7.2000e+001 231710 -2.7409e+006 -8.1763e+005 -2.2795e+005 103978 231583,231635,231609
 7.2000e+001 231687 -1.4001e+006 -9.8620e+005 -9.7600e+005 103978 231583,231661,231635
 7.2000e+001 231862 -8.7198e+005 -6.9437e+006 -6.8219e+005 103588 231761,231813,231787
 7.2000e+001 231839  1.3462e+005 -3.4935e+006  9.9299e+003 103588 231735,231813,231761
 7.2000e+001 232014 -1.6787e+006 -8.8346e+006 -3.2078e+006 103248 231887,231939,231913
 7.2000e+001 231991 -2.7503e+006 -1.5915e+007 -6.5322e+006 103248 231887,231965,231939
 7.2000e+001 232215 -1.1794e+003 -8.1434e+002 -5.6830e+001 102844 232039,232117,232065
 7.2000e+001 232192 -1.0739e+003 -6.4368e+001  3.4590e+001 102844 232039,232143,232117
 7.2000e+001 232169 -1.5148e+003  1.0407e+003 -1.3646e+003 102844 232065,232117,232091
 7.2000e+001 232416 -3.4769e+006 -8.9432e+006 -4.7866e+006 102554 232240,232318,232292
 7.2000e+001 232393  6.4885e+005 -1.4612e+007 -1.3306e+006 102554 232240,232344,232318
 7.2000e+001 232370 -4.7161e+006 -2.5086e+006 -1.4908e+006 102554 232240,232292,232266
 7.2000e+001 232568 -7.3857e+004 -2.7388e+006  1.5741e+005 102100 232441,232493,232467
 7.2000e+001 232545 -3.3301e+005 -2.9242e+006  5.8873e+005 102100 232441,232519,232493
 7.2000e+001 232769 -1.4765e+005 -1.6442e+006  3.1772e+005 101596 232645,232697,232671
 7.2000e+001 232746  4.7829e+004 -9.0378e+005  1.7824e+005 101596 232593,232697,232645
 7.2000e+001 232723 -5.8892e+004 -1.5808e+006  3.0953e+005 101596 232593,232645,232619
 7.2000e+001 232921 -5.1843e+004 -1.8888e+004 -9.5269e+003 101420 232794,232846,232820
 7.2000e+001 232898 -3.9646e+004 -2.1803e+005 -5.9613e+004 101420 232794,232872,232846
 7.2000e+001 233073 -1.0814e+006 -1.8884e+006 -4.2426e+004 101023 232946,232998,232972
 7.2000e+001 233050  7.0576e+004 -3.9577e+006  1.5452e+006 101023 232946,233024,232998
 7.2000e+001 233225  8.8182e+002 -7.4071e+002  4.4060e+002 100661 233098,233150,233124
 7.2000e+001 233202  6.1738e+002  1.1270e+003  2.6765e+002 100661 233098,233176,233150
 7.2000e+001 233426 -1.7849e+006 -7.0306e+006 -2.3085e+006 100265 233276,233328,233302
 7.2000e+001 233403 -1.1876e+006 -6.4350e+006 -1.0374e+006 100265 233276,233354,233328
 7.2000e+001 233380 -1.3700e+006 -6.9438e+006 -1.2174e+006 100265 233250,233354,233276
 7.2000e+001 233578 -5.1817e+003 -1.6103e+006  9.2060e+004 100032 233451,233503,233477
 7.2000e+001 233555 -2.2873e+005 -1.6353e+006  3.0369e+005 100032 233451,233529,233503
 7.2000e+001 233681 -1.5897e+006  1.0148e+005 -1.9066e+005 99742 233603,233655,233629
 7.2000e+001 233784 -7.6838e+005 -1.9494e+006  3.8543e+005 99402 233706,233758,233732
 7.2000e+001 233936 -6.7204e+005 -1.8221e+006  7.0431e+005 99062 233835,233887,233861
 7.2000e+001 233913 -7.0258e+005 -1.9225e+006  6.1322e+005 99062 233809,233887,233835
 7.2000e+001 234088 -1.0707e+006 -2.1119e+006  7.9356e+005 98772 233987,234039,234013
 7.2000e+001 234065 -2.9401e+005 -1.9888e+006  6.7597e+005 98772 233961,234039,233987
 7.2000e+001 234240 -8.3330e+003 -1.1206e+005  3.0505e+004 98160 234139,234191,234165
 7.2000e+001 234217 -3.9676e+003 -9.5866e+004  2.8487e+004 98160 234113,234191,234139
 7.2000e+001 234441  7.5696e+002  6.1511e+000 -5.2141e+002 97820 234317,234369,234343
 7.2000e+001 234418  7.4961e+002 -1.5611e+002 -7.1561e+002 97820 234291,234369,234317
 7.2000e+001 234395  1.2581e+003  4.4250e+001 -4.1871e+002 97820 234265,234369,234291
 7.2000e+001 234593 -1.4526e+005 -1.2784e+006  3.2152e+004 97366 234466,234518,234492
 7.2000e+001 234570 -7.9889e+004 -2.2160e+006  8.5522e+004 97366 234466,234544,234518
 7.2000e+001 234794 -5.4952e+005 -7.9557e+005 -4.9569e+005 96976 234618,234670,234644
 7.2000e+001 234771 -2.3620e+005 -1.4252e+006 -4.2009e+005 96976 234618,234722,234670
 7.2000e+001 234748 -1.8587e+005 -1.1519e+006 -4.2524e+005 96976 234670,234722,234696
 7.2000e+001 234946 -3.5445e+005 -5.4516e+005  1.4565e+005 96568 234845,234897,234871
 7.2000e+001 234923 -1.8196e+005 -1.2226e+005  3.9217e+005 96568 234819,234897,234845
 7.2000e+001 235196 -9.5792e+004 -4.2979e+005 -1.1785e+005 96216 234997,235075,235049
 7.2000e+001 235173  5.3499e+004 -2.0779e+006  5.6839e+005 96216 234997,235101,235075
 7.2000e+001 235150 -2.2231e+005 -5.6756e+005  5.7854e+004 96216 234997,235049,235023
 7.2000e+001 235127 -8.4571e+004 -2.1770e+006  4.2829e+005 96216 234971,235101,234997
 7.2000e+001 235348 -1.7168e+006 -1.8214e+006 -1.6303e+006 95863 235247,235299,235273
 7.2000e+001 235325 -1.0750e+006 -1.2368e+006 -7.9866e+005 95863 235221,235299,235247
 7.2000e+001 235500 -1.3938e+005 -1.1092e+006  1.9061e+005 95339 235373,235425,235399
 7.2000e+001 235477 -2.4864e+005 -1.5956e+006  1.8888e+006 95339 235373,235451,235425
 7.2000e+001 235701  6.6370e+004 -1.8784e+006  3.7353e+005 95023 235525,235577,235551
 7.2000e+001 235678 -8.0117e+004 -1.8803e+006  3.7200e+005 95023 235525,235629,235577
 7.2000e+001 235655 -6.1196e+004 -3.2403e+006  6.4587e+005 95023 235577,235629,235603
 7.2000e+001 235853  1.4623e+005 -1.3648e+007 -2.9708e+005 94671 235726,235778,235752
 7.2000e+001 235830  1.7951e+005 -1.4523e+007  3.5980e+005 94671 235726,235804,235778
 7.2000e+001 236005 -1.8626e+006 -7.3957e+006  7.8840e+005 94261 235904,235956,235930
 7.2000e+001 235982 -6.6295e+005 -1.2205e+007 -4.0011e+006 94261 235878,235956,235904
 7.2000e+001 236206 -1.3761e+006 -7.8787e+005  1.0338e+006 93853 236056,236134,236082
 7.2000e+001 236183 -1.9254e+006 -9.3663e+005  7.9029e+005 93853 236030,236134,236056
 7.2000e+001 236160 -1.2985e+006 -1.1634e+006  9.6786e+005 93853 236082,236134,236108
 7.2000e+001 236407 -1.7215e+006 -3.9453e+006  6.1159e+005 93557 236257,236309,236283
 7.2000e+001 236384 -2.8564e+006 -4.8591e+006 -2.4652e+006 93557 236231,236309,236257
 7.2000e+001 236361  1.4529e+006 -1.9248e+007  2.1101e+006 93557 236231,236335,236309
 7.2000e+001 236559 -2.0014e+003 -3.8120e+004  8.0161e+003 93149 236432,236484,236458
 7.2000e+001 236536 -4.0967e+003 -4.2707e+004  4.1065e+003 93149 236432,236510,236484
 7.2000e+001 236711 -2.7894e+005 -4.8379e+005  3.1977e+005 92853 236584,236636,236610
 7.2000e+001 236688 -1.6080e+005 -3.5326e+005  2.4513e+005 92853 236584,236662,236636
 7.2000e+001 236912 -9.1825e+004 -4.5722e+005  1.9975e+005 92501 236736,236788,236762
 7.2000e+001 236889 -1.9186e+005 -2.5575e+005  9.4420e+004 92501 236736,236840,236788
 7.2000e+001 236866 -1.9173e+005 -5.0636e+005 -6.4944e+004 92501 236788,236840,236814
 7.2000e+001 237113 -1.0688e+005 -4.7184e+006  2.4298e+005 92291 236963,237041,237015
 7.2000e+001 237090  1.3949e+005 -2.5794e+006  9.2191e+004 92291 236937,237041,236963
 7.2000e+001 237067 -2.2025e+005 -4.3235e+006  9.7464e+005 92291 236963,237015,236989
 7.2000e+001 237265 -1.9246e+005 -5.8714e+005 -4.6740e+005 91871 237138,237190,237164
 7.2000e+001 237242 -3.4025e+005 -1.4467e+006 -5.0414e+005 91871 237138,237216,237190
 7.2000e+001 237368 -3.3426e+003 -2.1920e+006 -6.0206e+003 91581 237290,237342,237316
 7.2000e+001 237520 -2.5407e+004 -1.3698e+005  5.9043e+004 91184 237419,237471,237445
 7.2000e+001 237497 -1.0021e+005 -7.2487e+004  1.2063e+005 91184 237393,237471,237419
 7.2000e+001 237672 -2.1325e+005 -6.7126e+005 -1.7554e+005 90894 237545,237597,237571
 7.2000e+001 237649 -9.1752e+004 -2.7134e+006  7.5313e+005 90894 237545,237623,237597
 7.2000e+001 237873 -5.7766e+005 -2.7985e+006  9.2605e+005 90490 237749,237801,237775
 7.2000e+001 237850 -3.5737e+005 -2.8543e+006  1.1274e+006 90490 237723,237801,237749
 7.2000e+001 237827 -9.5231e+005 -2.9946e+006 -2.6195e+005 90490 237697,237801,237723
 7.2000e+001 238074 -5.9731e+005 -5.8746e+006  5.5097e+005 90100 237898,237976,237950
 7.2000e+001 238051 -2.6114e+006 -5.5600e+006 -5.0347e+005 90100 237898,238002,237976
 7.2000e+001 238028 -6.0547e+005 -2.8700e+006  6.0418e+005 90100 237898,237950,237924
 7.2000e+001 238275 -1.0341e+005 -3.6095e+005 -6.3900e+004 89696 238125,238177,238151
 7.2000e+001 238252 -6.7943e+005 -2.5713e+005 -5.1466e+005 89696 238099,238177,238125
 7.2000e+001 238229 -7.1424e+005 -4.0197e+005 -4.8194e+005 89696 238099,238203,238177
 7.2000e+001 238427 -8.7083e+002 -1.8815e+002  5.8297e+002 89206 238326,238378,238352
 7.2000e+001 238404 -5.4049e+002 -1.3708e+002  8.0319e+002 89206 238300,238378,238326
 7.2000e+001 238579 -1.8234e+005 -5.9916e+005  3.7528e+005 88908 238452,238504,238478
 7.2000e+001 238556 -3.9170e+004 -3.9958e+005  1.5352e+004 88908 238452,238530,238504
 7.2000e+001 238682  6.5634e+002 -3.1115e+002 -4.5567e+002 88568 238604,238656,238630
 7.2000e+001 238883  4.1067e+004 -4.5152e+006  1.5078e+006 88278 238733,238811,238785
 7.2000e+001 238860 -7.1447e+005 -2.4911e+006  1.3391e+006 88278 238707,238811,238733
 7.2000e+001 238837 -1.6080e+005 -4.8463e+006  8.8360e+005 88278 238733,238785,238759
 7.2000e+001 239035 -2.1951e+006 -4.9931e+006 -6.4414e+005 87988 238908,238960,238934
 7.2000e+001 239012 -2.4608e+006 -2.7287e+006  2.1842e+005 87988 238908,238986,238960
 7.2000e+001 239138 -1.1873e+006 -9.9660e+005 -8.3221e+005 87648 239060,239112,239086
 7.2000e+001 239339 -2.6540e+006 -3.7013e+006 -3.0972e+006 87358 239163,239215,239189
 7.2000e+001 239316 -2.6420e+006 -1.7246e+006 -5.9915e+005 87358 239163,239241,239215
 7.2000e+001 239293 -1.4690e+006 -1.6191e+006 -9.0224e+005 87358 239163,239267,239241
 7.2000e+001 239589  3.8705e+002 -3.8675e+004  6.9249e+003 86961 239390,239468,239416
 7.2000e+001 239566 -3.7359e+004 -1.9445e+004  5.1143e+004 86961 239390,239494,239468
 7.2000e+001 239543 -1.9291e+003 -4.1649e+003  4.0931e+003 86961 239416,239468,239442
 7.2000e+001 239520 -1.2991e+005  9.9519e+003  3.1696e+004 86961 239364,239494,239390
 7.2000e+001 239741 -1.4536e+006 -1.2586e+006 -1.4307e+005 86621 239640,239692,239666
 7.2000e+001 239718 -4.9358e+005 -3.6365e+006 -1.7968e+006 86621 239614,239692,239640
 7.2000e+001 239893 -5.5905e+005 -3.7234e+006  1.2602e+006 86217 239792,239844,239818
 7.2000e+001 239870 -5.5667e+005 -3.6539e+006  1.2428e+006 86217 239766,239844,239792
 7.2000e+001 240045 -6.3482e+005 -3.1868e+006  5.2510e+005 85827 239918,239970,239944
 7.2000e+001 240022 -2.0405e+005 -3.0657e+006  1.8689e+005 85827 239918,239996,239970
 7.2000e+001 240197 -5.0470e+005 -5.9526e+006  8.4225e+005 85437 240096,240148,240122
 7.2000e+001 240174 -7.9252e+005 -5.8817e+005  5.9709e+004 85437 240070,240148,240096
 7.2000e+001 240349  4.0562e+003 -6.6555e+004  9.9822e+003 85147 240222,240274,240248
 7.2000e+001 240326 -3.5702e+003 -4.7113e+004 -1.0003e+004 85147 240222,240300,240274
 7.2000e+001 240501 -1.0765e+005 -3.8312e+005 -2.6409e+004 84807 240374,240426,240400
 7.2000e+001 240478 -6.8844e+005 -1.4111e+006  9.7078e+005 84807 240374,240452,240426
 7.2000e+001 240653 -2.2830e+002  2.3558e+002  3.2573e+002 84303 240552,240604,240578
 7.2000e+001 240630 -6.0441e+002 -1.0321e+003  1.1336e+002 84303 240526,240604,240552
 7.2000e+001 240854 -5.5823e+005 -9.0450e+006 -4.8098e+006 83929 240704,240756,240730
 7.2000e+001 240831  1.3768e+006 -6.9693e+006  2.2946e+006 83929 240704,240782,240756
 7.2000e+001 240808 -2.9690e+006  2.0380e+006  2.4628e+006 83929 240678,240782,240704
 7.2000e+001 241055 -9.0977e+002 -2.2817e+002  9.3645e+002 83539 240879,240957,240931
 7.2000e+001 241032 -9.5683e+003 -5.8708e+003  7.1931e+003 83539 240879,240983,240957
 7.2000e+001 241009 -2.1483e+003 -1.3827e+003  1.6874e+003 83539 240879,240931,240905
 7.2000e+001 241207  7.0627e+003 -1.6614e+005 -5.6778e+002 83079 241106,241158,241132
 7.2000e+001 241184 -2.5275e+004 -9.1837e+004 -5.6266e+003 83079 241080,241158,241106
 7.2000e+001 241408 -4.3086e+005 -1.2383e+006 -1.1471e+006 82665 241232,241284,241258
 7.2000e+001 241385 -3.5221e+005  2.4827e+005 -3.0404e+006 82665 241232,241336,241284
 7.2000e+001 241362 -3.0960e+006 -1.1775e+007  5.2349e+006 82665 241284,241336,241310
 7.2000e+001 241658 -2.1334e+005 -3.8624e+006  5.5373e+005 82375 241485,241563,241511
 7.2000e+001 241635 -6.3526e+003 -2.1779e+006  2.0702e+005 82375 241433,241563,241485
 7.2000e+001 241612 -1.0250e+005 -2.5928e+006  1.9658e+005 82375 241433,241485,241459
 7.2000e+001 241589 -6.7274e+005 -4.2273e+006  8.0665e+005 82375 241511,241563,241537
 7.2000e+001 241810 -8.5124e+005 -1.6213e+006 -5.7848e+005 82035 241683,241735,241709
 7.2000e+001 241787 -9.2936e+005 -2.4946e+006  6.0863e+005 82035 241683,241761,241735
 7.2000e+001 241962 -9.8219e+005 -2.2080e+006  6.6093e+005 81695 241861,241913,241887
 7.2000e+001 241939 -3.7380e+005 -3.0096e+006 -8.8996e+005 81695 241835,241913,241861
 7.2000e+001 242114 -1.2101e+006 -5.4276e+006  1.2343e+006 81355 242013,242065,242039
 7.2000e+001 242091 -4.4932e+005 -2.6396e+006  8.1387e+005 81355 241987,242065,242013
 7.2000e+001 242266 -2.1692e+003 -1.4713e+005  3.3775e+003 80951 242139,242191,242165
 7.2000e+001 242243  5.3728e+001 -1.3849e+005  4.7799e+003 80951 242139,242217,242191
 7.2000e+001 242467 -4.2184e+005 -4.8418e+006  5.4615e+005 80311 242291,242369,242343
 7.2000e+001 242444  1.4751e+005 -2.4109e+006  4.2370e+005 80311 242291,242395,242369
 7.2000e+001 242421 -1.6599e+005 -1.1959e+006  2.0835e+005 80311 242291,242343,242317
 7.2000e+001 242619 -1.4010e+006 -2.5664e+006  3.9572e+005 80021 242492,242544,242518
 7.2000e+001 242596 -1.3372e+006 -2.3523e+006  1.4434e+006 80021 242492,242570,242544
 7.2000e+001 242869 -6.3832e+003 -4.9024e+004 -9.2083e+003 79631 242644,242722,242696
 7.2000e+001 242846  1.6995e+004 -1.5551e+005  1.4093e+004 79631 242644,242774,242722
 7.2000e+001 242823  2.5447e+004 -1.0460e+005  2.8068e+004 79631 242722,242774,242748
 7.2000e+001 242800 -2.3102e+003 -3.9387e+004 -1.4679e+003 79631 242644,242696,242670
 7.2000e+001 243070 -1.4330e+005 -1.4205e+007  3.4303e+006 79341 242920,242972,242946
 7.2000e+001 243047 -7.2398e+005 -6.7571e+006 -4.3410e+005 79341 242920,242998,242972
 7.2000e+001 243024 -7.9987e+005 -4.1611e+006  1.8246e+006 79341 242894,242998,242920
 7.2000e+001 243222 -3.9688e+005 -2.9848e+006  1.2184e+006 78801 243121,243173,243147
 7.2000e+001 243199 -4.4609e+005 -3.1784e+006  1.2284e+006 78801 243095,243173,243121
 7.2000e+001 243423 -1.0533e+006 -2.8128e+006 -8.2327e+005 78511 243273,243325,243299
 7.2000e+001 243400  8.6287e+005 -6.7600e+006  1.1498e+006 78511 243273,243351,243325
 7.2000e+001 243377 -3.5024e+003 -7.0308e+006  1.5285e+005 78511 243247,243351,243273
 7.2000e+001 243624 -4.2430e+005 -4.0910e+006 -1.5293e+006 78107 243474,243552,243526
 7.2000e+001 243601 -4.6283e+005 -4.6624e+006 -1.4376e+006 78107 243448,243552,243474
 7.2000e+001 243578 -2.6647e+005 -2.8645e+006 -3.8718e+005 78107 243474,243526,243500
 7.2000e+001 243776 -1.0648e+006 -4.7724e+006 -1.2366e+006 77653 243649,243701,243675
 7.2000e+001 243753 -1.5176e+006 -6.0058e+006 -8.9816e+005 77653 243649,243727,243701
 7.2000e+001 243977 -3.8148e+005 -5.6982e+006  4.2596e+004 77093 243801,243853,243827
 7.2000e+001 243954 -6.6280e+004 -4.7392e+006  6.9319e+005 77093 243801,243879,243853
 7.2000e+001 243931 -3.9004e+005 -1.7785e+006 -2.0182e+005 77093 243801,243905,243879
 7.2000e+001 244080 -5.9070e+005 -6.8629e+006  4.2873e+005 76791 244002,244054,244028
 7.2000e+001 244232 -8.7640e+004 -3.3555e+006 -1.4394e+005 76311 244131,244183,244157
 7.2000e+001 244209 -2.1859e+005 -6.3671e+006  1.4691e+004 76311 244105,244183,244131
 7.2000e+001 244433  1.6025e+005 -1.6153e+007  4.7553e+006 75903 244283,244335,244309
 7.2000e+001 244410 -1.4234e+006 -9.0403e+006 -6.4220e+005 75903 244283,244361,244335
 7.2000e+001 244387 -1.4805e+006 -8.9936e+006 -6.0994e+005 75903 244257,244361,244283
 7.2000e+001 244585  3.5038e+005 -1.5895e+007  1.3639e+006 75419 244458,244510,244484
 7.2000e+001 244562 -7.5665e+005 -8.3987e+006 -3.5931e+005 75419 244458,244536,244510
 7.2000e+001 244737 -4.0855e+005 -7.7644e+005 -1.8097e+005 75215 244636,244688,244662
 7.2000e+001 244714 -2.7205e+005 -3.6847e+006 -1.7423e+005 75215 244610,244688,244636
 7.2000e+001 244889 -9.2306e+005 -4.9550e+006 -5.3935e+005 74857 244788,244840,244814
 7.2000e+001 244866 -1.3622e+005 -1.9524e+006 -2.5404e+005 74857 244762,244840,244788
 7.2000e+001 245041 -2.3351e+005 -1.4531e+006 -7.7550e+005 74653 244940,244992,244966
 7.2000e+001 245018 -2.4809e+005 -3.3602e+005  6.6337e+005 74653 244914,244992,244940
 7.2000e+001 245144 -1.3899e+006 -5.7409e+006 -1.3645e+006 74359 245066,245118,245092
 7.2000e+001 245296 -2.8187e+004 -5.0941e+005 -1.5907e+005 74007 245169,245221,245195
 7.2000e+001 245273 -1.7091e+005 -8.7748e+005 -2.6384e+005 74007 245169,245247,245221
 7.2000e+001 245448 -1.7766e+006 -5.3806e+006 -2.4868e+004 73711 245321,245373,245347
 7.2000e+001 245425 -1.5187e+006 -5.2986e+006 -1.1167e+006 73711 245321,245399,245373
 7.2000e+001 245600  8.2912e+005 -1.2370e+007 -1.1896e+006 73301 245499,245551,245525
 7.2000e+001 245577 -1.5067e+006 -8.3585e+006  1.8923e+006 73301 245473,245551,245499
 7.2000e+001 245752 -2.3517e+006 -3.5130e+006 -2.1592e+006 72995 245625,245677,245651
 7.2000e+001 245729  6.2355e+005 -1.3244e+007 -1.7241e+006 72995 245625,245703,245677
 7.2000e+001 245953 -1.2860e+006 -1.1151e+007  5.5337e+005 72585 245777,245829,245803
 7.2000e+001 245930 -5.7306e+005 -1.4165e+007  2.2088e+006 72585 245777,245855,245829
 7.2000e+001 245907 -1.3477e+006 -6.7856e+006 -4.1842e+004 72585 245777,245881,245855
 7.2000e+001 246154 -3.9456e+005 -6.8128e+006  1.2352e+006 72127 246030,246082,246056
 7.2000e+001 246131 -9.3214e+005 -7.9453e+006  6.0872e+005 72127 245978,246082,246030
 7.2000e+001 246108 -8.5023e+004 -8.6227e+006  2.3790e+005 72127 245978,246030,246004
 7.2000e+001 246257 -1.6421e+006 -3.0771e+005 -2.2829e+005 71737 246179,246231,246205
 7.2000e+001 246360  1.5266e+005 -3.0308e+006  4.9861e+005 71447 246282,246334,246308
 7.2000e+001 246512 -1.1016e+005 -2.5014e+006  9.8947e+005 71157 246385,246437,246411
 7.2000e+001 246489 -7.3471e+004 -1.9213e+006 -9.8923e+004 71157 246385,246463,246437
 7.2000e+001 246664 -1.6911e+005 -2.1909e+006 -4.6176e+005 70753 246537,246589,246563
 7.2000e+001 246641 -7.0521e+005 -9.9391e+005 -2.1873e+005 70753 246537,246615,246589
 7.2000e+001 246865 -1.4735e+006 -8.0653e+006  4.6727e+006 70249 246715,246767,246741
 7.2000e+001 246842 -2.5511e+006 -7.6879e+006 -4.4831e+005 70249 246715,246793,246767
 7.2000e+001 246819 -9.5104e+003 -1.2901e+007 -3.4346e+006 70249 246689,246793,246715
 7.2000e+001 247066 -6.1981e+003 -1.9460e+006  2.8007e+005 70023 246916,246994,246942
 7.2000e+001 247043 -8.6361e+004 -1.6899e+006  3.8891e+005 70023 246890,246994,246916
 7.2000e+001 247020  5.3727e+004 -1.7906e+006  3.6719e+005 70023 246942,246994,246968
 7.2000e+001 247267 -2.3036e+005 -3.6549e+006 -2.4603e+005 69633 247091,247143,247117
 7.2000e+001 247244 -4.1598e+004 -2.3179e+006 -1.6679e+005 69633 247091,247169,247143
 7.2000e+001 247221  2.1485e+004 -2.7240e+006 -3.1892e+005 69633 247091,247195,247169
 7.2000e+001 247419 -1.1394e+006 -5.2063e+006  5.6049e+005 69457 247318,247370,247344
 7.2000e+001 247396 -1.2436e+006 -2.5640e+006  8.4450e+005 69457 247292,247370,247318
 7.2000e+001 247522 -2.5512e+002  4.8827e+001  4.3698e+001 69209 247444,247496,247470
 7.2000e+001 247625 -1.4541e+006 -1.8750e+006 -1.1880e+006 68919 247547,247599,247573
 7.2000e+001 247777  1.2671e+005 -5.9707e+006 -1.9339e+005 68579 247650,247702,247676
 7.2000e+001 247754 -5.9973e+004 -1.6117e+006 -1.6707e+005 68579 247650,247728,247702
 7.2000e+001 247929 -5.3774e+004 -3.0744e+006  7.7477e+005 68289 247802,247854,247828
 7.2000e+001 247906 -3.0648e+005 -1.6217e+006 -5.3033e+005 68289 247802,247880,247854
 7.2000e+001 248081 -5.2103e+005 -4.1411e+006  1.3163e+006 67949 247980,248032,248006
 7.2000e+001 248058 -6.1703e+005 -5.3942e+005  2.1500e+005 67949 247954,248032,247980
 7.2000e+001 248233 -1.9403e+006 -5.5179e+006 -7.2572e+005 67616 248132,248184,248158
 7.2000e+001 248210 -5.1115e+005 -5.5489e+006 -2.2187e+005 67616 248106,248184,248132
 7.2000e+001 248434 -1.1877e+005 -3.7984e+006 -2.0902e+005 67212 248284,248336,248310
 7.2000e+001 248411 -2.5736e+005 -3.8284e+006 -1.9926e+005 67212 248258,248336,248284
 7.2000e+001 248388 -1.5408e+006 -1.8428e+006 -5.2565e+005 67212 248258,248362,248336
 7.2000e+001 248586 -1.2486e+005 -4.9728e+006  4.0912e+005 66872 248485,248537,248511
 7.2000e+001 248563 -3.2561e+005 -1.2049e+006 -5.9105e+004 66872 248459,248537,248485
 7.2000e+001 248738 -3.6706e+005 -5.2236e+006  1.5998e+005 66510 248637,248689,248663
 7.2000e+001 248715 -4.9333e+005 -7.1575e+006  1.5735e+005 66510 248611,248689,248637
 7.2000e+001 248890 -2.3543e+004 -6.1458e+005  1.2022e+005 66220 248789,248841,248815
 7.2000e+001 248867 -4.3195e+004 -7.9881e+005 -2.4523e+005 66220 248763,248841,248789
 7.2000e+001 249091 -1.1327e+006 -8.8282e+006  1.2056e+006 65759 248915,248967,248941
 7.2000e+001 249068 -8.6934e+005 -5.4743e+006  1.8857e+006 65759 248915,248993,248967
 7.2000e+001 249045 -4.4733e+005 -3.9756e+006  2.1644e+005 65759 248915,249019,248993
 7.2000e+001 249243 -1.0093e+005 -7.9641e+006  1.6783e+006 65419 249142,249194,249168
 7.2000e+001 249220  1.8554e+005 -2.3365e+006  4.7385e+005 65419 249116,249194,249142
 7.2000e+001 249395 -1.4948e+005 -1.7185e+006 -1.1817e+005 65079 249268,249320,249294
 7.2000e+001 249372 -2.3788e+005 -3.7275e+006 -5.8093e+005 65079 249268,249346,249320
 7.2000e+001 249547 -1.4562e+006 -4.3010e+006  1.3724e+006 64739 249420,249472,249446
 7.2000e+001 249524 -8.8793e+004 -3.0646e+006 -8.1493e+005 64739 249420,249498,249472
 7.2000e+001 249650 -1.6222e+006 -3.5557e+006 -1.8883e+006 64342 249572,249624,249598
 7.2000e+001 249851 -7.9523e+004 -2.5461e+006 -2.4159e+005 63938 249701,249779,249753
 7.2000e+001 249828 -1.6046e+005 -2.6647e+006  3.4732e+005 63938 249675,249779,249701
 7.2000e+001 249805 -2.8951e+005 -1.6364e+006 -1.7052e+005 63938 249701,249753,249727
 7.2000e+001 250052 -3.9894e+005 -4.8305e+006 -2.2869e+005 63341 249876,249954,249902
 7.2000e+001 250029 -1.9837e+005 -6.1600e+006 -6.4197e+005 63341 249876,249980,249954
 7.2000e+001 250006 -5.3381e+004 -4.4770e+006 -5.0512e+005 63341 249902,249954,249928
 7.2000e+001 250253 -6.1617e+005 -9.0747e+005 -9.3503e+004 63058 250077,250129,250103
 7.2000e+001 250230 -2.1192e+006 -1.9155e+006  1.1970e+006 63058 250077,250155,250129
 7.2000e+001 250207 -3.7547e+005 -1.0489e+006  3.1396e+005 63058 250077,250181,250155
 7.2000e+001 250454 -7.3353e+005 -6.5294e+006  8.8153e+005 62832 250304,250382,250330
 7.2000e+001 250431  9.6331e+004 -8.0653e+006 -2.1440e+006 62832 250278,250382,250304
 7.2000e+001 250408 -1.6001e+006 -4.5276e+006  2.2377e+005 62832 250330,250382,250356
 7.2000e+001 250606 -7.2221e+005 -8.0340e+006 -1.5482e+006 62428 250479,250531,250505
 7.2000e+001 250583  2.4951e+005 -1.2381e+007 -1.3329e+006 62428 250479,250557,250531
 7.2000e+001 250758 -1.8106e+005 -7.3696e+006  8.4089e+005 62202 250631,250683,250657
 7.2000e+001 250735 -4.2197e+005 -7.1729e+006  4.8431e+005 62202 250631,250709,250683
 7.2000e+001 250861  7.0970e+004 -3.1660e+006 -2.1153e+005 61954 250783,250835,250809
 7.2000e+001 251062 -2.4909e+006 -6.5667e+006 -5.8536e+005 61557 250912,250990,250938
 7.2000e+001 251039  3.0959e+005 -1.2532e+007 -2.4383e+006 61557 250886,250990,250912
 7.2000e+001 251016 -2.0712e+006 -9.6175e+006 -3.1701e+006 61557 250938,250990,250964
 7.2000e+001 251263 -3.8184e+005 -6.7061e+006  1.3885e+004 61167 251113,251165,251139
 7.2000e+001 251240 -3.6563e+005 -5.9191e+006 -1.1581e+005 61167 251113,251191,251165
 7.2000e+001 251217 -1.2718e+006 -5.8944e+006  1.2629e+006 61167 251087,251191,251113
 7.2000e+001 251415 -9.6703e+005 -7.1745e+006  2.4520e+006 60827 251288,251340,251314
 7.2000e+001 251392 -5.4947e+005 -2.7677e+006 -6.1790e+005 60827 251288,251366,251340
 7.2000e+001 251567 -4.3940e+004 -3.1126e+006 -1.1474e+005 60487 251466,251518,251492
 7.2000e+001 251544 -4.0243e+005 -4.1095e+006 -3.8929e+005 60487 251440,251518,251466
 7.2000e+001 251719 -2.4123e+005 -8.7257e+006 -9.3063e+005 59983 251592,251644,251618
 7.2000e+001 251696 -1.2418e+006 -7.6402e+006 -5.6117e+005 59983 251592,251670,251644
 7.2000e+001 251920 -5.4802e+004 -1.5313e+006  3.7561e+003 59807 251770,251848,251796
 7.2000e+001 251897 -2.7627e+004 -1.2544e+006 -2.9723e+004 59807 251744,251848,251770
 7.2000e+001 251874 -8.9378e+004 -1.5928e+006  5.8499e+004 59807 251796,251848,251822
 7.2000e+001 252023  3.3833e+005 -4.4631e+006 -1.0229e+005 59517 251945,251997,251971
 7.2000e+001 252175  1.4484e+006 -1.2452e+007 -2.3762e+005 59269 252074,252126,252100
 7.2000e+001 252152 -1.2034e+005 -8.0999e+006  1.0141e+005 59269 252048,252126,252074
 7.2000e+001 252278 -8.7804e+005 -9.8368e+006  1.6879e+006 58979 252200,252252,252226
 7.2000e+001 252381 -2.3366e+006 -1.9661e+006  1.6041e+006 58689 252303,252355,252329
 7.2000e+001 252533 -4.8872e+005 -3.7049e+006 -8.9487e+005 58249 252432,252484,252458
 7.2000e+001 252510 -1.0142e+006 -5.8706e+006 -8.4942e+005 58249 252406,252484,252432
 7.2000e+001 252734 -3.1645e+005 -2.3968e+006  4.1613e+005 57902 252584,252662,252610
 7.2000e+001 252711  2.1994e+005 -4.8406e+006 -7.7311e+005 57902 252558,252662,252584
 7.2000e+001 252688 -2.7811e+005 -1.3930e+006 -1.2735e+005 57902 252610,252662,252636
 7.2000e+001 252886  8.9627e+004 -5.1247e+006 -1.5193e+005 57540 252785,252837,252811
 7.2000e+001 252863  3.4005e+004 -4.3041e+006  7.5834e+004 57540 252759,252837,252785
 7.2000e+001 253038 -9.1529e+005 -6.3157e+006  1.6055e+006 57086 252937,252989,252963
 7.2000e+001 253015 -2.5921e+005 -1.4797e+006  4.5889e+005 57086 252911,252989,252937
 7.2000e+001 253239 -9.2078e+005 -7.4939e+006 -6.5216e+005 56796 253063,253141,253115
 7.2000e+001 253216  8.3370e+004 -8.1585e+006  9.1157e+005 56796 253063,253167,253141
 7.2000e+001 253193 -5.6715e+006 -2.6830e+006  9.4500e+005 56796 253063,253115,253089
 7.2000e+001 253342 -7.1944e+005 -1.6001e+007 -1.1172e+005 56349 253264,253316,253290
 7.2000e+001 253543 -3.2302e+005 -2.7195e+006 -1.2436e+006 56009 253367,253419,253393
 7.2000e+001 253520 -6.4040e+005 -1.2527e+006 -6.0254e+005 56009 253367,253445,253419
 7.2000e+001 253497 -4.0336e+005 -1.2311e+006 -6.4469e+005 56009 253367,253471,253445
 7.2000e+001 253695  2.5811e+004 -2.8356e+005  1.2412e+005 55733 253594,253646,253620
 7.2000e+001 253672 -1.1028e+005 -7.3196e+004  8.6852e+004 55733 253568,253646,253594
 7.2000e+001 253798 -6.2362e+005 -1.7100e+006 -1.4581e+005 55557 253720,253772,253746
 7.2000e+001 253950 -6.2216e+005 -3.3641e+006  2.0186e+005 55153 253849,253901,253875
 7.2000e+001 253927 -8.2921e+004 -3.9228e+006 -4.6347e+005 55153 253823,253901,253849
 7.2000e+001 254151 -1.0828e+006 -4.1033e+006  5.2045e+005 54863 253975,254053,254001
 7.2000e+001 254128 -7.3458e+005 -3.8972e+006  1.3890e+005 54863 253975,254079,254053
 7.2000e+001 254105 -8.3844e+005 -4.8099e+006  8.0265e+005 54863 254001,254053,254027
 7.2000e+001 254303 -1.6181e+005 -1.6318e+005  1.3485e+005 54373 254176,254228,254202
 7.2000e+001 254280 -7.7125e+005 -2.8472e+005  4.0287e+005 54373 254176,254254,254228
 7.2000e+001 254455 -1.3020e+004 -4.4188e+006 -4.1044e+005 53975 254354,254406,254380
 7.2000e+001 254432 -2.6477e+005 -9.9037e+005  1.5191e+005 53975 254328,254406,254354
 7.2000e+001 254607 -2.9522e+005 -5.1524e+006 -1.2467e+005 53585 254480,254532,254506
 7.2000e+001 254584 -3.0774e+005 -4.6672e+006 -2.1462e+005 53585 254480,254558,254532
 7.2000e+001 254808 -1.1254e+006 -3.3947e+006  2.9091e+005 53245 254658,254736,254684
 7.2000e+001 254785 -8.6241e+005 -4.9918e+005  1.9016e+005 53245 254632,254736,254658
 7.2000e+001 254762 -5.6889e+005 -2.0580e+006 -1.9762e+005 53245 254684,254736,254710
 7.2000e+001 254911 -1.6883e+005 -1.4757e+006 -3.5363e+005 52955 254833,254885,254859
 7.2000e+001 255063 -5.3567e+005 -6.9020e+006 -5.8795e+003 52551 254962,255014,254988
 7.2000e+001 255040 -6.5291e+005 -7.2056e+006 -1.5845e+005 52551 254936,255014,254962
 7.2000e+001 255264 -1.2485e+006 -1.2171e+006 -6.9811e+005 52261 255114,255166,255140
 7.2000e+001 255241 -1.3162e+006 -2.5867e+006 -2.6153e+005 52261 255114,255192,255166
 7.2000e+001 255218 -5.4130e+006 -7.6095e+005  1.4562e+006 52261 255088,255192,255114
 7.2000e+001 255416 -8.7868e+005 -5.7121e+006  2.2146e+006 51971 255289,255341,255315
 7.2000e+001 255393 -4.0423e+005 -4.9921e+006 -6.2935e+005 51971 255289,255367,255341
 7.2000e+001 255568  3.6177e+005 -1.7407e+006 -4.6984e+005 51681 255441,255493,255467
 7.2000e+001 255545 -1.6009e+005 -9.3845e+005 -4.8451e+005 51681 255441,255519,255493
 7.2000e+001 255769 -2.3875e+005 -2.9129e+006  2.8210e+004 51291 255619,255697,255671
 7.2000e+001 255746 -2.1228e+005 -2.5611e+006 -2.6176e+005 51291 255593,255697,255619
 7.2000e+001 255723 -2.7399e+005 -5.7025e+006 -6.5591e+005 51291 255619,255671,255645
 7.2000e+001 255921 -6.6277e+005 -3.5301e+006  8.0097e+005 50951 255820,255872,255846
 7.2000e+001 255898 -8.1724e+004 -1.4802e+006  6.3034e+004 50951 255794,255872,255820
 7.2000e+001 256171 -9.6769e+005 -5.1750e+006  5.3489e+005 50547 256024,256076,256050
 7.2000e+001 256148 -8.8991e+005 -4.1950e+006  3.8822e+005 50547 255972,256076,256024
 7.2000e+001 256125 -1.1998e+005 -4.5979e+006  9.6859e+004 50547 255946,256076,255972
 7.2000e+001 256102 -6.9451e+005 -4.5843e+006  4.5969e+005 50547 255972,256024,255998
 7.2000e+001 256323  1.5338e+005 -4.3524e+006  4.0261e+005 50093 256196,256248,256222
 7.2000e+001 256300 -1.0261e+006 -2.7379e+006 -8.8356e+005 50093 256196,256274,256248
 7.2000e+001 256426  1.8849e+002 -7.6057e+001 -3.0850e+001 49845 256348,256400,256374
 7.2000e+001 256627  2.3331e+004 -5.7395e+006  8.1647e+004 49555 256477,256555,256503
 7.2000e+001 256604 -8.8894e+004 -3.1983e+006  2.0515e+005 49555 256451,256555,256477
 7.2000e+001 256581 -3.9312e+005 -5.1661e+006  3.3490e+005 49555 256503,256555,256529
 7.2000e+001 256828 -3.6085e+005 -2.5022e+006 -4.7819e+005 49056 256652,256730,256678
 7.2000e+001 256805 -7.1628e+005 -2.0551e+006 -2.3740e+005 49056 256652,256756,256730
 7.2000e+001 256782 -3.2136e+005 -3.7754e+006  4.0336e+005 49056 256678,256730,256704
 7.2000e+001 256931 -1.0855e+004 -4.1678e+004  8.1978e+003 48766 256853,256905,256879
 7.2000e+001 257083 -1.6977e+006 -5.0976e+006 -7.5530e+005 48568 256982,257034,257008
 7.2000e+001 257060 -6.3800e+005 -9.0437e+005 -1.7994e+005 48568 256956,257034,256982
 7.2000e+001 257186 -3.6794e+003 -2.3084e+006  2.1140e+003 48228 257108,257160,257134
 7.2000e+001 257338 -1.3673e+006 -5.7687e+005  2.7525e+005 47888 257237,257289,257263
 7.2000e+001 257315 -7.8050e+005 -4.2125e+006  2.4700e+006 47888 257211,257289,257237
 7.2000e+001 257539 -3.7277e+005 -3.4323e+006  1.1196e+005 47548 257363,257441,257415
 7.2000e+001 257516 -7.2185e+005 -3.1974e+006 -3.5230e+005 47548 257363,257467,257441
 7.2000e+001 257493 -7.9553e+005 -2.3319e+006 -1.1936e+005 47548 257363,257415,257389
 7.2000e+001 257740 -1.6102e+005 -5.1086e+006  4.0986e+005 46994 257564,257642,257616
 7.2000e+001 257717 -4.1768e+005 -3.8699e+006 -6.4358e+004 46994 257564,257668,257642
 7.2000e+001 257694 -8.1313e+005 -5.0451e+006 -1.2460e+005 46994 257564,257616,257590
 7.2000e+001 257843 -3.2197e+005 -1.0494e+006 -6.2984e+004 46654 257765,257817,257791
 7.2000e+001 257995 -6.1845e+005 -2.7679e+006  3.7121e+005 46364 257894,257946,257920
 7.2000e+001 257972 -6.5509e+005 -2.9719e+006  2.5242e+005 46364 257868,257946,257894
 7.2000e+001 258147 -8.0614e+004 -3.3268e+006  1.2658e+005 46024 258046,258098,258072
 7.2000e+001 258124 -3.6526e+005 -2.5188e+006  3.8948e+005 46024 258020,258098,258046
 7.2000e+001 258250 -1.4190e+005 -3.0285e+005  1.1087e+005 45741 258172,258224,258198
 7.2000e+001 258402 -1.1757e+006 -3.4573e+006  9.6505e+005 45401 258301,258353,258327
 7.2000e+001 258379 -5.0591e+005 -3.4204e+006  1.2989e+006 45401 258275,258353,258301
 7.2000e+001 258603 -7.0465e+005 -1.7925e+006 -2.9993e+003 45071 258427,258505,258479
 7.2000e+001 258580 -2.2286e+005 -4.2783e+006  2.2803e+005 45071 258427,258531,258505
 7.2000e+001 258557 -2.8589e+005 -2.6772e+006  1.8729e+005 45071 258427,258479,258453
 7.2000e+001 258755 -2.2135e+005 -3.9290e+006 -4.1640e+005 44681 258654,258706,258680
 7.2000e+001 258732 -3.0143e+005 -3.3982e+006 -4.1607e+005 44681 258628,258706,258654
 7.2000e+001 258907 -1.3286e+005 -3.3903e+006 -3.7233e+005 44157 258806,258858,258832
 7.2000e+001 258884 -7.8716e+005 -2.4494e+006 -2.6242e+005 44157 258780,258858,258806
 7.2000e+001 259010 -5.3144e+005 -2.3072e+006 -1.2612e+005 43705 258932,258984,258958
 7.2000e+001 259113 -3.7209e+005 -3.6627e+006  2.6968e+005 43284 259035,259087,259061
 7.2000e+001 259216 -3.5156e+005 -4.6862e+006 -2.4872e+005 42954 259138,259190,259164
 7.2000e+001 259319 -7.1495e+005 -1.3281e+006 -5.7187e+003 42116 259241,259293,259267
 7.2000e+001 259422 -9.0957e+005 -8.3000e+006  2.1078e+006 41804 259344,259396,259370
 7.2000e+001 259525 -6.1979e+005 -6.0209e+006  8.5986e+005 41219 259447,259499,259473
 7.2000e+001 259628 -6.3780e+005 -2.5613e+006 -5.8951e+005 385 259550,259602,259576
 7.4000e+001 190120 -2.1667e+005 -2.2607e+006 -4.1797e+005 189630 189993,190045,190019
 7.4000e+001 190097 -6.8391e+005 -1.6627e+006 -2.6006e+005 189630 189993,190071,190045
 7.4000e+001 190319 -1.5076e+006 -4.7572e+006 -6.5312e+005 189312 190169,190221,190195
 7.4000e+001 190296 -5.2270e+005 -4.2945e+006 -1.0104e+006 189312 190169,190247,190221
 7.4000e+001 190273 -8.8576e+005 -3.6595e+006  2.3158e+005 189312 190143,190247,190169
 7.4000e+001 190518 -4.7667e+005  4.8913e+004  1.6175e+004 189124 190368,190446,190420
 7.4000e+001 190495 -5.6205e+005  2.1583e+004 -4.1887e+003 189124 190342,190446,190368
 7.4000e+001 190472 -9.8855e+005 -5.2890e+004 -4.8952e+004 189124 190368,190420,190394
 7.4000e+001 190619 -4.5033e+005 -4.5841e+004 -6.1170e+003 188926 190541,190593,190567
 7.4000e+001 190771 -4.8934e+005 -7.4024e+004  1.1195e+004 188614 190670,190722,190696
 7.4000e+001 190748 -5.5674e+005  1.6576e+005  5.3146e+004 188614 190644,190722,190670
 7.4000e+001 190972 -4.9839e+005 -5.2142e+005 -3.6837e+005 188324 190848,190900,190874
 7.4000e+001 190949 -4.9887e+005 -7.7408e+005 -5.1100e+005 188324 190796,190900,190848
 7.4000e+001 190926 -1.0537e+005 -3.5697e+005 -2.4857e+005 188324 190796,190848,190822
 7.4000e+001 191124 -7.0052e+005 -9.4109e+005 -1.6165e+005 188034 191023,191075,191049
 7.4000e+001 191101 -1.4758e+005 -1.0806e+006 -1.1382e+005 188034 190997,191075,191023
 7.4000e+001 191276 -2.2578e+005 -1.2426e+006 -9.6567e+004 187836 191149,191201,191175
 7.4000e+001 191253 -2.8730e+005 -6.5547e+005  2.2186e+005 187836 191149,191227,191201
 7.4000e+001 191379 -4.6149e+005 -3.3341e+005 -9.8858e+004 187546 191301,191353,191327
 7.4000e+001 191531 -2.8274e+005 -3.9957e+006  3.4366e+005 187256 191430,191482,191456
 7.4000e+001 191508 -1.1126e+006 -5.7506e+006 -1.8051e+006 187256 191404,191482,191430
 7.4000e+001 191634 -7.4065e+005  2.1229e+004 -1.5770e+004 187058 191556,191608,191582
 7.4000e+001 191835 -5.1040e+005  1.9774e+004 -2.1607e+004 186860 191659,191711,191685
 7.4000e+001 191812 -3.3329e+005 -1.0318e+005  7.5047e+003 186860 191659,191737,191711
 7.4000e+001 191789 -2.9221e+005 -6.0320e+003 -4.3108e+004 186860 191659,191763,191737
 7.4000e+001 191987 -1.8411e+005 -8.5028e+005 -2.0592e+005 186662 191886,191938,191912
 7.4000e+001 191964  1.7669e+005 -2.0270e+006  5.4766e+005 186662 191860,191938,191886
 7.4000e+001 192090 -6.2917e+005 -2.3024e+006 -4.4694e+005 186486 192012,192064,192038
 7.4000e+001 192242 -1.3015e+005 -8.3598e+006 -3.2883e+005 186288 192115,192167,192141
 7.4000e+001 192219 -8.5383e+005 -5.0901e+006  2.0522e+005 186288 192115,192193,192167
 7.4000e+001 192394  1.5079e+005 -6.8224e+006 -2.4184e+005 185935 192293,192345,192319
 7.4000e+001 192371 -5.7297e+005 -4.6212e+006 -7.4644e+005 185935 192267,192345,192293
 7.4000e+001 192546 -4.4706e+005 -3.3669e+006 -7.9072e+005 185675 192419,192471,192445
 7.4000e+001 192523 -9.9549e+005 -1.6632e+006 -8.6344e+005 185675 192419,192497,192471
 7.4000e+001 192649 -7.8497e+005 -2.4689e+006 -4.3000e+005 185499 192571,192623,192597
 7.4000e+001 192801 -2.3925e+005 -1.1416e+006  1.0127e+005 185301 192674,192726,192700
 7.4000e+001 192778 -2.1750e+005 -1.2816e+006  4.9411e+005 185301 192674,192752,192726
 7.4000e+001 193002 -9.1200e+004 -6.4893e+005 -4.1219e+005 185046 192852,192930,192878
 7.4000e+001 192979 -3.7915e+005 -1.6684e+006 -2.5343e+005 185046 192826,192930,192852
 7.4000e+001 192956  4.6118e+005 -2.1124e+006 -5.0837e+003 185046 192878,192930,192904
 7.4000e+001 193203  1.5809e+005 -5.7684e+006 -8.2321e+005 184798 193079,193131,193105
 7.4000e+001 193180 -9.6291e+005 -3.6635e+006 -3.2575e+005 184798 193027,193131,193079
 7.4000e+001 193157 -1.5078e+006 -3.8415e+006  3.0254e+005 184798 193027,193079,193053
 7.4000e+001 193404 -2.1938e+005 -5.1636e+006 -1.3781e+006 184600 193254,193306,193280
 7.4000e+001 193381 -5.7999e+005 -1.4935e+006 -1.9903e+005 184600 193254,193332,193306
 7.4000e+001 193358 -8.9256e+005 -4.3185e+005 -4.2870e+005 184600 193228,193332,193254
 7.4000e+001 193556 -7.0928e+005 -5.2447e+005 -5.4319e+005 184402 193429,193481,193455
 7.4000e+001 193533 -6.1099e+005 -5.3673e+005 -5.3388e+005 184402 193429,193507,193481
 7.4000e+001 193708  3.5982e+004 -1.7512e+006  1.1232e+005 184204 193607,193659,193633
 7.4000e+001 193685 -5.0806e+005 -6.6725e+006 -1.2492e+006 184204 193581,193659,193607
 7.4000e+001 193860 -5.9320e+005 -7.1409e+005  4.2764e+005 183908 193759,193811,193785
 7.4000e+001 193837 -6.6349e+004 -1.4355e+006  4.9612e+005 183908 193733,193811,193759
 7.4000e+001 194061 -2.9251e+005 -4.2544e+005  2.3063e+005 183710 193911,193989,193937
 7.4000e+001 194038 -6.2822e+005 -1.1146e+006  5.5063e+005 183710 193885,193989,193911
 7.4000e+001 194015 -4.4151e+005 -1.3825e+006  4.5970e+005 183710 193937,193989,193963
 7.4000e+001 194262 -6.1381e+005 -2.7756e+006 -7.5642e+005 183420 194086,194164,194112
 7.4000e+001 194239 -6.2644e+005 -2.6475e+006 -4.7747e+005 183420 194086,194190,194164
 7.4000e+001 194216  5.0438e+005 -7.0663e+006  1.3033e+006 183420 194112,194164,194138
 7.4000e+001 194414 -6.1042e+005 -5.7245e+006 -3.0533e+005 183222 194287,194339,194313
 7.4000e+001 194391 -3.2993e+005 -1.7207e+006 -4.6558e+005 183222 194287,194365,194339
 7.4000e+001 194517 -1.0465e+006 -9.5840e+005 -5.8002e+004 183024 194439,194491,194465
 7.4000e+001 194718  1.8191e+006 -1.5785e+007  1.4100e+006 182734 194568,194620,194594
 7.4000e+001 194695 -1.1632e+006 -4.5873e+006 -3.4068e+006 182734 194542,194620,194568
 7.4000e+001 194672 -3.4589e+006 -2.1432e+006 -1.6580e+006 182734 194542,194646,194620
 7.4000e+001 194870 -4.4610e+005 -3.2038e+005  3.1894e+005 182444 194769,194821,194795
 7.4000e+001 194847 -4.7710e+005 -7.3765e+005  5.6058e+005 182444 194743,194821,194769
 7.4000e+001 195071 -3.0683e+005 -1.3729e+006  8.1245e+005 182154 194895,194947,194921
 7.4000e+001 195048 -3.5766e+005 -4.8681e+005  1.5782e+005 182154 194895,194999,194947
 7.4000e+001 195025 -3.3015e+005 -1.5570e+005  2.0236e+005 182154 194947,194999,194973
 7.4000e+001 195223 -3.4469e+005 -3.5974e+005 -1.5626e+005 181814 195096,195148,195122
 7.4000e+001 195200 -5.9045e+005 -1.9305e+006 -1.3240e+006 181814 195096,195174,195148
 7.4000e+001 195375 -2.7835e+004 -4.5876e+004 -2.5690e+004 181524 195248,195300,195274
 7.4000e+001 195352  1.5826e+004 -2.2434e+005 -2.4170e+003 181524 195248,195326,195300
 7.4000e+001 195527 -2.3419e+005 -1.0946e+005  3.7951e+005 181326 195426,195478,195452
 7.4000e+001 195504 -1.2883e+006 -9.7938e+005  1.1051e+006 181326 195400,195478,195426
 7.4000e+001 195679 -4.6206e+004 -9.7669e+006 -5.8290e+005 180936 195578,195630,195604
 7.4000e+001 195656 -5.7051e+005 -4.2031e+006 -3.8625e+005 180936 195552,195630,195578
 7.4000e+001 195831 -4.5993e+005 -3.7747e+005 -1.7897e+005 180646 195704,195756,195730
 7.4000e+001 195808 -7.3377e+005 -2.4652e+004  1.4796e+004 180646 195704,195782,195756
 7.4000e+001 196032 -2.8148e+005 -2.0876e+006  3.7252e+005 180306 195882,195960,195934
 7.4000e+001 196009 -3.3792e+005 -8.6847e+005 -2.3791e+005 180306 195856,195960,195882
 7.4000e+001 195986  2.1786e+004 -2.2480e+006  1.6787e+005 180306 195882,195934,195908
 7.4000e+001 196233 -1.9826e+005 -2.1928e+005 -9.3202e+005 179944 196057,196109,196083
 7.4000e+001 196210 -9.7038e+005 -3.8904e+006  4.9734e+005 179944 196057,196135,196109
 7.4000e+001 196187 -2.1466e+006  4.8876e+006 -1.6130e+006 179944 196057,196161,196135
 7.4000e+001 196385 -5.6620e+005 -7.3563e+005 -4.8284e+005 179604 196258,196310,196284
 7.4000e+001 196362 -7.9732e+005 -1.0755e+006 -9.9854e+005 179604 196258,196336,196310
 7.4000e+001 196586 -9.5799e+005 -6.2045e+005 -7.6476e+005 179114 196410,196488,196436
 7.4000e+001 196563 -6.7269e+005 -2.1200e+006 -7.6824e+005 179114 196410,196514,196488
 7.4000e+001 196540 -5.7961e+003 -5.6895e+005 -5.6909e+004 179114 196436,196488,196462
 7.4000e+001 196738 -7.4032e+005 -1.6254e+006 -7.2100e+005 178674 196611,196663,196637
 7.4000e+001 196715  5.5835e+004 -3.7148e+006 -1.7518e+005 178674 196611,196689,196663
 7.4000e+001 196939 -2.6682e+005 -8.8543e+006 -3.5228e+006 178334 196789,196867,196841
 7.4000e+001 196916 -2.0712e+006 -9.1432e+006  1.6135e+005 178334 196763,196867,196789
 7.4000e+001 196893 -2.2896e+006 -7.8348e+006 -4.3074e+006 178334 196789,196841,196815
 7.4000e+001 197091 -3.6153e+005 -2.3122e+006 -3.8856e+005 177930 196990,197042,197016
 7.4000e+001 197068 -4.4186e+005 -2.4916e+006 -8.4777e+004 177930 196964,197042,196990
 7.4000e+001 197194 -8.3048e+001 -1.0346e+004 -3.5866e+002 177732 197116,197168,197142
 7.4000e+001 197346 -4.6689e+005 -5.5587e+006  2.0853e+005 177534 197219,197271,197245
 7.4000e+001 197323 -1.8366e+005 -6.1900e+006  5.3716e+005 177534 197219,197297,197271
 7.4000e+001 197547 -1.8225e+006 -9.6028e+006 -4.1705e+006 177130 197397,197449,197423
 7.4000e+001 197524 -2.3585e+006 -1.0119e+007 -3.5642e+006 177130 197397,197475,197449
 7.4000e+001 197501 -9.5862e+005 -8.2273e+006 -2.5839e+006 177130 197371,197475,197397
 7.4000e+001 197748 -5.8894e+005 -5.4464e+006  4.7782e+005 176790 197598,197676,197624
 7.4000e+001 197725 -3.9045e+005 -4.2387e+006  6.7996e+005 176790 197572,197676,197598
 7.4000e+001 197702 -4.0097e+005 -4.6512e+006  3.9029e+005 176790 197624,197676,197650
 7.4000e+001 197900 -3.0415e+005 -2.9558e+006 -5.1375e+005 176300 197773,197825,197799
 7.4000e+001 197877 -3.5135e+004 -4.3960e+006 -4.0279e+005 176300 197773,197851,197825
 7.4000e+001 198052 -3.6465e+005 -6.2660e+006 -1.1213e+006 176010 197925,197977,197951
 7.4000e+001 198029 -3.5717e+005 -4.4119e+006 -1.0434e+006 176010 197925,198003,197977
 7.4000e+001 198204 -1.2223e+006 -3.0960e+006 -1.0073e+006 175670 198103,198155,198129
 7.4000e+001 198181 -1.3804e+006 -2.5585e+006 -4.0436e+005 175670 198077,198155,198103
 7.4000e+001 198405  3.3136e+004 -4.2491e+006 -6.7764e+005 175266 198255,198307,198281
 7.4000e+001 198382  8.0265e+004 -4.6237e+006 -9.9249e+005 175266 198229,198307,198255
 7.4000e+001 198359 -8.6851e+005 -3.5611e+006 -1.7773e+006 175266 198229,198333,198307
 7.4000e+001 198606  2.7697e+003 -4.1464e+004  2.4253e+003 174876 198430,198508,198482
 7.4000e+001 198583  1.7494e+004 -3.5985e+004 -1.4725e+004 174876 198430,198534,198508
 7.4000e+001 198560  3.2757e+003 -1.6312e+004 -7.0985e+003 174876 198430,198482,198456
 7.4000e+001 198758 -7.0541e+002 -3.1977e+002 -1.3430e+003 174536 198657,198709,198683
 7.4000e+001 198735 -5.0989e+002  9.6220e+002 -8.8822e+002 174536 198631,198709,198657
 7.4000e+001 199008 -9.9933e+005 -5.5219e+006 -4.1613e+004 174132 198835,198913,198887
 7.4000e+001 198985 -6.7781e+005 -2.3333e+006  2.8867e+005 174132 198809,198913,198835
 7.4000e+001 198962 -6.8723e+005 -2.5866e+006 -1.3690e+006 174132 198783,198913,198809
 7.4000e+001 198939 -4.3664e+005 -5.7189e+006  4.5381e+004 174132 198835,198887,198861
 7.4000e+001 199160 -1.0090e+006 -3.0017e+006 -5.7518e+005 173842 199059,199111,199085
 7.4000e+001 199137 -4.3500e+005 -1.5625e+006 -1.4673e+005 173842 199033,199111,199059
 7.4000e+001 199361 -7.4363e+005 -3.8384e+006  1.1130e+006 173438 199237,199289,199263
 7.4000e+001 199338 -3.0127e+005 -4.3742e+006  1.1652e+006 173438 199211,199289,199237
 7.4000e+001 199315 -3.9297e+004 -6.5159e+006 -6.4577e+005 173438 199185,199289,199211
 7.4000e+001 199513 -7.8709e+005 -5.3001e+006 -1.1092e+005 173190 199386,199438,199412
 7.4000e+001 199490 -1.4861e+006 -5.9460e+006  3.5839e+005 173190 199386,199464,199438
 7.4000e+001 199665 -4.5613e+005 -1.6316e+006  2.4553e+005 172750 199564,199616,199590
 7.4000e+001 199642 -8.8895e+005 -8.8688e+005 -3.0951e+004 172750 199538,199616,199564
 7.4000e+001 199817 -1.7659e+005 -3.1398e+006 -1.0598e+006 172524 199690,199742,199716
 7.4000e+001 199794 -1.3309e+006 -1.0089e+006 -6.5771e+005 172524 199690,199768,199742
 7.4000e+001 199969 -6.0366e+003 -6.1271e+006 -1.9653e+005 172348 199842,199894,199868
 7.4000e+001 199946  1.6714e+005 -6.0940e+006 -7.6365e+004 172348 199842,199920,199894
 7.4000e+001 200121  8.3056e+004 -1.6503e+006 -3.0607e+005 172008 199994,200046,200020
 7.4000e+001 200098 -1.8017e+005 -5.0084e+005 -1.2846e+005 172008 199994,200072,200046
 7.4000e+001 200273 -2.1632e+006 -8.3503e+006 -3.2922e+006 171668 200172,200224,200198
 7.4000e+001 200250 -1.4942e+006 -7.8415e+006 -2.3206e+006 171668 200146,200224,200172
 7.4000e+001 200474  1.8811e+005 -4.3146e+006 -5.7676e+005 171264 200350,200402,200376
 7.4000e+001 200451 -1.4959e+005 -4.9308e+006 -8.7070e+005 171264 200324,200402,200350
 7.4000e+001 200428 -3.4376e+005 -3.3637e+006  1.0755e+006 171264 200298,200402,200324
 7.4000e+001 200626 -1.1070e+006 -4.6639e+006 -7.4352e+005 170832 200525,200577,200551
 7.4000e+001 200603 -2.6720e+005 -3.1290e+006 -1.2151e+005 170832 200499,200577,200525
 7.4000e+001 200827 -2.7950e+004 -1.6016e+006  3.9107e+005 170492 200677,200729,200703
 7.4000e+001 200804 -9.6084e+005 -6.5847e+005 -3.6859e+005 170492 200651,200729,200677
 7.4000e+001 200781 -7.3788e+005 -9.7042e+005 -5.3113e+005 170492 200651,200755,200729
 7.4000e+001 201077 -5.3249e+005 -2.2001e+006 -1.7610e+005 170088 200878,200956,200904
 7.4000e+001 201054 -4.4499e+005 -1.2726e+006 -2.3097e+005 170088 200852,200956,200878
 7.4000e+001 201031 -7.2536e+005 -1.2648e+006  1.9071e+006 170088 200904,200956,200930
 7.4000e+001 201008  1.3659e+005 -1.8612e+006  1.7738e+005 170088 200852,200982,200956
 7.4000e+001 201278 -1.3579e+004 -1.9375e+005 -7.5740e+004 169798 201102,201154,201128
 7.4000e+001 201255 -1.0149e+005 -5.1037e+005 -1.2173e+005 169798 201102,201206,201154
 7.4000e+001 201232 -6.9669e+005  7.1014e+004  9.1336e+004 169798 201154,201206,201180
 7.4000e+001 201430 -1.3043e+005 -2.6706e+006 -5.9170e+005 169337 201303,201355,201329
 7.4000e+001 201407 -1.3369e+005 -8.5539e+005 -1.6841e+005 169337 201303,201381,201355
 7.4000e+001 201631 -2.6421e+005 -3.1204e+006  4.9050e+005 168883 201481,201559,201507
 7.4000e+001 201608 -2.8659e+005 -2.5309e+006  8.5363e+005 168883 201455,201559,201481
 7.4000e+001 201585 -1.8582e+005 -1.8834e+006  5.9014e+005 168883 201507,201559,201533
 7.4000e+001 201832  3.1440e+005 -7.2517e+006  3.4145e+005 168479 201682,201734,201708
 7.4000e+001 201809 -2.0280e+006 -5.4226e+006 -1.2712e+006 168479 201656,201734,201682
 7.4000e+001 201786 -1.6997e+006 -4.1231e+006 -6.1980e+004 168479 201656,201760,201734
 7.4000e+001 202033 -2.0026e+005 -2.6447e+006  2.1452e+005 167825 201883,201935,201909
 7.4000e+001 202010 -1.1402e+006 -3.5008e+006 -1.3256e+006 167825 201857,201935,201883
 7.4000e+001 201987  2.9710e+005 -9.4116e+006 -4.8931e+005 167825 201857,201961,201935
 7.4000e+001 202234 -3.5930e+005 -4.4034e+005  1.4183e+005 167435 202058,202136,202084
 7.4000e+001 202211 -8.6018e+005 -6.4253e+005  2.9184e+005 167435 202058,202162,202136
 7.4000e+001 202188 -5.6892e+005 -2.2535e+005  3.1558e+005 167435 202084,202136,202110
 7.4000e+001 202386  4.0092e+004 -1.6519e+006  2.5144e+005 167002 202285,202337,202311
 7.4000e+001 202363 -2.9213e+005 -4.2789e+005  2.6682e+005 167002 202259,202337,202285
 7.4000e+001 202538 -2.7583e+006 -1.8580e+006 -2.0043e+006 166662 202411,202463,202437
 7.4000e+001 202515 -8.5923e+005 -4.5302e+006 -3.2940e+006 166662 202411,202489,202463
 7.4000e+001 202690 -3.0302e+003 -1.8942e+006 -7.6727e+005 166322 202589,202641,202615
 7.4000e+001 202667 -1.8858e+004 -9.7917e+005 -5.8471e+004 166322 202563,202641,202589
 7.4000e+001 202891 -3.0280e+005 -7.5678e+004 -1.9110e+004 165918 202715,202767,202741
 7.4000e+001 202868 -3.7873e+005 -4.7900e+005 -2.5182e+005 165918 202715,202793,202767
 7.4000e+001 202845 -7.1969e+005 -8.2884e+005 -3.1829e+004 165918 202715,202819,202793
 7.4000e+001 203092  1.9305e+005 -2.5100e+006 -3.4842e+005 165628 202916,202968,202942
 7.4000e+001 203069 -1.5220e+005 -1.2970e+006 -4.1200e+005 165628 202916,202994,202968
 7.4000e+001 203046 -2.1276e+005 -1.1983e+006 -5.0562e+005 165628 202916,203020,202994
 7.4000e+001 203293 -3.8417e+006 -2.0653e+006 -2.7682e+006 165266 203143,203195,203169
 7.4000e+001 203270 -1.5700e+006 -5.6276e+006 -5.2746e+005 165266 203143,203221,203195
 7.4000e+001 203247 -9.4666e+005 -6.2311e+006 -1.2119e+006 165266 203117,203221,203143
 7.4000e+001 203445 -3.2233e+005 -1.1593e+006  3.8045e+005 164826 203318,203370,203344
 7.4000e+001 203422 -1.0314e+005 -7.5082e+005 -8.3920e+004 164826 203318,203396,203370
 7.4000e+001 203597 -3.5819e+005 -1.9230e+006 -1.7678e+005 164386 203470,203522,203496
 7.4000e+001 203574 -5.4650e+005 -2.2196e+006 -5.1167e+005 164386 203470,203548,203522
 7.4000e+001 203798 -9.3106e+004 -2.3364e+004  1.7490e+004 163996 203622,203674,203648
 7.4000e+001 203775 -5.4027e+005 -1.5442e+005  1.9488e+005 163996 203622,203726,203674
 7.4000e+001 203752 -4.6919e+005 -1.0058e+004 -2.6443e+004 163996 203674,203726,203700
 7.4000e+001 203901 -4.9788e+005 -1.5550e+006 -7.8494e+004 163770 203823,203875,203849
 7.4000e+001 204053 -1.6696e+006 -2.7157e+006 -9.0020e+005 163474 203952,204004,203978
 7.4000e+001 204030 -2.1304e+006 -3.3197e+006 -1.8002e+006 163474 203926,204004,203952
 7.4000e+001 204205  9.1071e+004 -1.5434e+006 -3.6640e+005 163034 204104,204156,204130
 7.4000e+001 204182 -3.1369e+005 -1.8127e+006 -6.1083e+005 163034 204078,204156,204104
 7.4000e+001 204357 -1.1130e+005 -2.3778e+004  4.4556e+004 162624 204256,204308,204282
 7.4000e+001 204334 -3.6344e+004 -6.2724e+004  1.7268e+005 162624 204230,204308,204256
 7.4000e+001 204509 -1.7353e+004 -2.8190e+003  6.3897e+003 162200 204382,204434,204408
 7.4000e+001 204486 -1.3824e+004 -1.2914e+004  1.7993e+004 162200 204382,204460,204434
 7.4000e+001 204710 -1.6190e+006 -2.3744e+005  1.2497e+005 161810 204560,204638,204586
 7.4000e+001 204687 -1.1926e+006 -8.0488e+005 -6.6551e+005 161810 204534,204638,204560
 7.4000e+001 204664 -1.3613e+006 -2.0067e+005  4.4156e+005 161810 204586,204638,204612
 7.4000e+001 204862 -8.6978e+005 -1.1294e+006 -4.7496e+005 161406 204735,204787,204761
 7.4000e+001 204839 -9.5359e+005 -1.1572e+006 -4.4748e+005 161406 204735,204813,204787
 7.4000e+001 205014 -2.2621e+002 -2.6709e+003 -1.2058e+003 161180 204887,204939,204913
 7.4000e+001 204991  1.3007e+003 -3.5125e+003 -9.1742e+002 161180 204887,204965,204939
 7.4000e+001 205215 -8.2900e+005 -1.2393e+006 -1.5971e+006 160726 205039,205091,205065
 7.4000e+001 205192 -1.3567e+006 -3.3759e+006 -1.5594e+006 160726 205039,205143,205091
 7.4000e+001 205169 -1.6092e+006 -1.6831e+006 -1.6968e+006 160726 205091,205143,205117
 7.4000e+001 205416 -7.6593e+004 -3.9509e+004  1.1487e+005 160272 205292,205344,205318
 7.4000e+001 205393 -3.2437e+005  9.1760e+004 -6.3319e+004 160272 205240,205344,205292
 7.4000e+001 205370 -3.1452e+005  6.1578e+004 -1.5293e+005 160272 205240,205292,205266
 7.4000e+001 205568  1.5676e+003 -1.3015e+003 -3.1756e+003 159932 205441,205493,205467
 7.4000e+001 205545 -1.9381e+003 -1.9692e+003  4.1837e+002 159932 205441,205519,205493
 7.4000e+001 205720 -2.6172e+002 -3.3099e+002  3.5245e+002 159542 205593,205645,205619
 7.4000e+001 205697 -6.3730e+002 -1.0027e+002  5.7651e+002 159542 205593,205671,205645
 7.4000e+001 205872 -5.4945e+002  2.0301e+003 -8.8733e+002 159252 205745,205797,205771
 7.4000e+001 205849 -2.0087e+002  3.4142e+003 -8.8599e+002 159252 205745,205823,205797
 7.4000e+001 206024 -1.4819e+005 -7.2336e+005  2.3886e+005 159004 205923,205975,205949
 7.4000e+001 206001 -9.8034e+004 -1.2234e+006  3.5918e+005 159004 205897,205975,205923
 7.4000e+001 206127 -5.0296e+006 -4.2452e+006  4.6185e+003 158364 206049,206101,206075
 7.4000e+001 206328 -1.1417e+004 -2.8636e+003  1.0844e+004 157960 206178,206256,206204
 7.4000e+001 206305 -6.6110e+003 -9.0218e+003  4.7594e+003 157960 206152,206256,206178
 7.4000e+001 206282 -1.3377e+004 -3.1187e+003  9.5566e+003 157960 206204,206256,206230
 7.4000e+001 206529 -1.7384e+006 -4.7532e+006  1.1793e+006 157648 206405,206457,206431
 7.4000e+001 206506 -2.8335e+006 -1.3284e+006  1.0325e+006 157648 206379,206457,206405
 7.4000e+001 206483 -2.9193e+006 -9.8408e+005  1.4664e+006 157648 206353,206457,206379
 7.4000e+001 206730 -1.9251e+005 -1.0868e+005  1.2926e+005 157208 206554,206606,206580
 7.4000e+001 206707 -1.1603e+005 -8.9709e+004  9.2104e+004 157208 206554,206632,206606
 7.4000e+001 206684 -3.1541e+005 -1.4187e+005  7.0373e+004 157208 206554,206658,206632
 7.4000e+001 206882  2.3721e+003 -3.2579e+003 -6.2279e+002 157010 206755,206807,206781
 7.4000e+001 206859 -3.0213e+002 -9.4812e+002 -1.3463e+003 157010 206755,206833,206807
 7.4000e+001 207034 -1.7533e+002 -1.1722e+002 -8.1738e+000 156620 206907,206959,206933
 7.4000e+001 207011 -1.3179e+002 -1.7688e+002 -2.7793e+001 156620 206907,206985,206959
 7.4000e+001 207186 -8.4503e+004 -1.0446e+006 -2.6224e+004 156330 207085,207137,207111
 7.4000e+001 207163 -3.2178e+005 -1.1641e+006 -7.3186e+005 156330 207059,207137,207085
 7.4000e+001 207387 -9.5038e+005 -1.4657e+006 -1.3265e+005 155890 207211,207289,207237
 7.4000e+001 207364 -1.7053e+006 -1.6938e+006 -8.8029e+005 155890 207211,207315,207289
 7.4000e+001 207341 -3.7929e+005 -1.1126e+006  1.2400e+005 155890 207237,207289,207263
 7.4000e+001 207588 -4.9471e+005 -2.0318e+007  7.3947e+006 155436 207438,207490,207464
 7.4000e+001 207565 -1.2799e+006 -1.4465e+007 -9.3223e+005 155436 207412,207490,207438
 7.4000e+001 207542 -2.4681e+006 -7.4481e+006 -1.1695e+006 155436 207412,207516,207490
 7.4000e+001 207789  1.7724e+006 -2.9949e+007 -2.0531e+006 155260 207639,207691,207665
 7.4000e+001 207766 -3.7016e+006 -9.4321e+006  4.4274e+006 155260 207613,207691,207639
 7.4000e+001 207743 -1.2145e+006 -7.0808e+006 -7.4887e+003 155260 207613,207717,207691
 7.4000e+001 207990  4.2929e+003 -2.2103e+002  5.2860e+002 154920 207840,207918,207892
 7.4000e+001 207967  2.0156e+003 -1.2045e+003 -1.1495e+003 154920 207814,207918,207840
 7.4000e+001 207944 -1.2570e+002  4.1644e+003 -1.4951e+003 154920 207840,207892,207866
 7.4000e+001 208191 -1.9115e+003 -1.3062e+005  1.1256e+004 154630 208015,208093,208041
 7.4000e+001 208168  6.8105e+003 -1.2749e+005  2.5245e+002 154630 208015,208119,208093
 7.4000e+001 208145 -2.4805e+004 -2.9696e+004 -3.0615e+004 154630 208041,208093,208067
 7.4000e+001 208343 -2.6754e+002 -8.0651e+002  4.0940e+002 154240 208216,208268,208242
 7.4000e+001 208320 -1.2918e+001  1.0848e+003 -2.9926e+002 154240 208216,208294,208268
 7.4000e+001 208495  5.1578e+005 -5.8497e+006 -5.3757e+005 153950 208394,208446,208420
 7.4000e+001 208472 -7.2196e+005 -3.2716e+006  1.2612e+006 153950 208368,208446,208394
 7.4000e+001 208647 -1.4802e+006 -1.0466e+006  2.5879e+006 153603 208520,208572,208546
 7.4000e+001 208624 -1.2655e+006 -1.8203e+006 -1.0714e+006 153603 208520,208598,208572
 7.4000e+001 208848 -1.1283e+006 -3.5630e+005  1.0989e+005 153149 208698,208776,208724
 7.4000e+001 208825 -2.0284e+006 -9.6731e+003  1.8554e+005 153149 208672,208776,208698
 7.4000e+001 208802 -5.7279e+005 -3.1118e+005  4.2229e+005 153149 208724,208776,208750
 7.4000e+001 209000 -4.9161e+005 -1.4419e+006  9.9344e+004 152859 208873,208925,208899
 7.4000e+001 208977  3.6456e+005 -5.0601e+006  6.0014e+005 152859 208873,208951,208925
 7.4000e+001 209152  2.7329e+005 -2.7244e+006  3.2472e+005 152569 209051,209103,209077
 7.4000e+001 209129  5.7954e+005 -4.3840e+006 -5.8659e+005 152569 209025,209103,209051
 7.4000e+001 209304 -5.7020e+001  2.3944e+002 -3.2141e+002 152065 209177,209229,209203
 7.4000e+001 209281 -3.3541e+002 -2.3113e+002 -9.5025e+001 152065 209177,209255,209229
 7.4000e+001 209456 -1.5145e+006 -1.8304e+006 -4.0267e+005 151775 209355,209407,209381
 7.4000e+001 209433 -1.1120e+006 -6.7818e+006 -5.7633e+005 151775 209329,209407,209355
 7.4000e+001 209608 -1.0899e+006 -4.4685e+006 -1.6263e+006 151371 209481,209533,209507
 7.4000e+001 209585  9.8906e+005 -9.0551e+006 -4.0611e+005 151371 209481,209559,209533
 7.4000e+001 209760 -1.8860e+004 -2.7562e+004  4.5816e+004 150981 209659,209711,209685
 7.4000e+001 209737  6.8732e+002 -1.1786e+005 -9.2644e+004 150981 209633,209711,209659
 7.4000e+001 209912  2.2572e+006 -3.0894e+007 -2.7364e+006 150619 209811,209863,209837
 7.4000e+001 209889 -2.8616e+006 -1.2831e+007  3.4691e+006 150619 209785,209863,209811
 7.4000e+001 210064 -6.9554e+004 -1.3826e+005  5.9401e+004 150279 209937,209989,209963
 7.4000e+001 210041 -3.3290e+004 -3.1895e+005  4.3504e+004 150279 209937,210015,209989
 7.4000e+001 210265 -3.4015e+006 -5.9891e+006 -2.8330e+005 149989 210115,210167,210141
 7.4000e+001 210242 -9.1925e+005 -6.5955e+006 -1.2616e+006 149989 210115,210193,210167
 7.4000e+001 210219 -7.2123e+005 -7.3388e+006 -1.1496e+006 149989 210089,210193,210115
 7.4000e+001 210417 -1.6096e+005 -8.2916e+004  9.4912e+004 149599 210316,210368,210342
 7.4000e+001 210394  2.9088e+004 -4.3372e+005  4.2102e+004 149599 210290,210368,210316
 7.4000e+001 210618 -2.8530e+006 -1.3383e+007  3.1958e+006 149095 210468,210520,210494
 7.4000e+001 210595 -2.8693e+006 -1.3371e+007  3.0295e+006 149095 210442,210520,210468
 7.4000e+001 210572 -1.2009e+006 -1.6063e+007  2.7865e+006 149095 210442,210546,210520
 7.4000e+001 210819  2.9086e+002 -5.3705e+004  7.6704e+003 148748 210695,210747,210721
 7.4000e+001 210796  7.0446e+003 -2.0892e+004  7.1136e+003 148748 210669,210747,210695
 7.4000e+001 210773 -4.3521e+003 -1.6892e+004  9.0806e+003 148748 210643,210747,210669
 7.4000e+001 210971 -8.5241e+002  9.6455e+002  6.8678e+002 148408 210870,210922,210896
 7.4000e+001 210948 -1.1332e+003  3.4617e+002  4.7506e+002 148408 210844,210922,210870
 7.4000e+001 211123 -3.0721e+005 -2.5181e+006  6.2381e+005 148118 210996,211048,211022
 7.4000e+001 211100 -1.3751e+006 -2.5666e+006  1.5745e+006 148118 210996,211074,211048
 7.4000e+001 211275 -8.9417e+005 -2.0279e+006  1.0768e+006 147778 211148,211200,211174
 7.4000e+001 211252 -1.4716e+006 -3.7337e+006  2.3233e+006 147778 211148,211226,211200
 7.4000e+001 211427 -8.2510e+005  4.2098e+004  2.1644e+005 147324 211326,211378,211352
 7.4000e+001 211404  1.5315e+005 -9.1421e+005  1.1693e+005 147324 211300,211378,211326
 7.4000e+001 211628 -1.9025e+006 -1.2232e+006  7.8959e+005 147012 211452,211504,211478
 7.4000e+001 211605 -1.8574e+006  7.4405e+005  1.1273e+006 147012 211452,211556,211504
 7.4000e+001 211582 -1.7114e+006 -4.7246e+005  1.7289e+006 147012 211504,211556,211530
 7.4000e+001 211829 -9.9526e+005 -1.7245e+006  4.5774e+005 146636 211679,211757,211731
 7.4000e+001 211806  6.0315e+005 -2.3117e+006  6.5199e+005 146636 211653,211757,211679
 7.4000e+001 211783 -4.2326e+005 -2.9554e+006  2.2702e+006 146636 211679,211731,211705
 7.4000e+001 211981  1.3067e+003 -8.3518e+002  1.1688e+002 146246 211880,211932,211906
 7.4000e+001 211958  7.1458e+002 -2.1077e+002 -3.3784e+002 146246 211854,211932,211880
 7.4000e+001 212133  2.3555e+002  3.0375e+002 -9.8484e+002 145956 212006,212058,212032
 7.4000e+001 212110  6.5574e+002 -1.0393e+003 -4.8878e+002 145956 212006,212084,212058
 7.4000e+001 212285 -8.0800e+002 -2.3878e+003 -1.6515e+002 145544 212184,212236,212210
 7.4000e+001 212262 -7.1988e+002  5.5283e+001 -2.7148e+002 145544 212158,212236,212184
 7.4000e+001 212486 -9.9778e+005 -1.5515e+007  4.3721e+006 144990 212362,212414,212388
 7.4000e+001 212463  2.9047e+005 -1.3052e+007  5.8560e+006 144990 212310,212414,212362
 7.4000e+001 212440 -4.8343e+006 -2.3001e+006  2.3752e+006 144990 212310,212362,212336
 7.4000e+001 212638 -2.3810e+004 -1.2243e+005  5.6373e+004 144600 212537,212589,212563
 7.4000e+001 212615 -2.2151e+004 -1.2086e+005  4.9931e+004 144600 212511,212589,212537
 7.4000e+001 212839 -1.5959e+005 -1.3107e+006  2.2817e+005 144210 212689,212741,212715
 7.4000e+001 212816 -2.0401e+005 -1.4552e+006  4.3520e+005 144210 212663,212741,212689
 7.4000e+001 212793 -2.0804e+005 -1.4727e+006  4.4247e+005 144210 212663,212767,212741
 7.4000e+001 212991 -8.3526e+003 -2.6181e+004 -2.3727e+003 143920 212890,212942,212916
 7.4000e+001 212968  4.8111e+003 -5.9375e+004  3.6116e+003 143920 212864,212942,212890
 7.4000e+001 213143 -5.4911e+002  6.1328e+002 -2.2542e+002 143480 213016,213068,213042
 7.4000e+001 213120 -1.1805e+002 -2.5326e+002  6.4193e+002 143480 213016,213094,213068
 7.4000e+001 213295 -1.5230e+005 -5.5148e+005  2.7419e+005 142990 213194,213246,213220
 7.4000e+001 213272 -1.5345e+005 -3.9477e+005  1.0257e+005 142990 213168,213246,213194
 7.4000e+001 213447  1.5984e+005 -2.1542e+006  1.0006e+006 142600 213320,213372,213346
 7.4000e+001 213424 -4.3574e+005 -2.0153e+006  8.6038e+005 142600 213320,213398,213372
 7.4000e+001 213599 -9.4684e+003 -1.2054e+005  1.4257e+004 142260 213472,213524,213498
 7.4000e+001 213576 -3.5667e+004 -1.4386e+005  9.3323e+004 142260 213472,213550,213524
 7.4000e+001 213751 -1.6042e+005 -5.1458e+005 -2.7648e+005 141870 213624,213676,213650
 7.4000e+001 213728 -2.1145e+005 -5.3608e+005 -2.5723e+005 141870 213624,213702,213676
 7.4000e+001 213903 -1.4382e+006 -1.6719e+006 -1.5399e+006 141530 213776,213828,213802
 7.4000e+001 213880 -3.9649e+005 -1.9529e+006 -7.7738e+005 141530 213776,213854,213828
 7.4000e+001 214055 -4.2772e+006 -8.7363e+004  5.1138e+005 141218 213928,213980,213954
 7.4000e+001 214032 -2.5997e+006 -5.2801e+005  1.4420e+005 141218 213928,214006,213980
 7.4000e+001 214207  3.1852e+003  1.9348e+003 -1.1864e+003 140928 214080,214132,214106
 7.4000e+001 214184  1.8694e+003  1.2062e+003  5.1938e+000 140928 214080,214158,214132
 7.4000e+001 214359 -1.1868e+004 -6.0092e+004 -1.9207e+002 140538 214232,214284,214258
 7.4000e+001 214336 -3.6317e+004 -2.0795e+005  1.2365e+005 140538 214232,214310,214284
 7.4000e+001 214560 -2.5460e+005 -4.2460e+006  8.0343e+005 140248 214384,214462,214410
 7.4000e+001 214537  1.3946e+005 -2.1549e+006  3.4816e+005 140248 214384,214488,214462
 7.4000e+001 214514 -3.1701e+005 -2.7946e+006 -1.4347e+005 140248 214410,214462,214436
 7.4000e+001 214712 -4.2156e+004 -2.7507e+005  2.1364e+005 140000 214611,214663,214637
 7.4000e+001 214689 -8.4700e+004 -3.4970e+005  1.7286e+005 140000 214585,214663,214611
 7.4000e+001 214913 -2.9007e+005 -1.8644e+006 -4.8804e+005 139596 214737,214815,214763
 7.4000e+001 214890 -2.6091e+005 -1.0352e+006  1.9619e+004 139596 214737,214841,214815
 7.4000e+001 214867  7.8434e+005 -6.3920e+006  6.7784e+005 139596 214763,214815,214789
 7.4000e+001 215016 -8.7176e+002  4.0804e+002 -6.2646e+002 139420 214938,214990,214964
 7.4000e+001 215168 -4.2087e+006 -1.0128e+007  6.6481e+006 139130 215067,215119,215093
 7.4000e+001 215145 -1.9599e+006 -1.1614e+007  3.6470e+006 139130 215041,215119,215067
 7.4000e+001 215320 -2.4264e+006 -5.3910e+006  3.4257e+006 138790 215219,215271,215245
 7.4000e+001 215297 -2.1541e+006 -1.1132e+007  5.8471e+006 138790 215193,215271,215219
 7.4000e+001 215472 -3.5780e+004 -4.0722e+005  1.7210e+005 138514 215345,215397,215371
 7.4000e+001 215449 -4.3872e+004 -2.6559e+005  5.5917e+004 138514 215345,215423,215397
 7.4000e+001 215624 -2.7003e+005 -6.9915e+006  1.7893e+006 138174 215497,215549,215523
 7.4000e+001 215601 -4.6688e+005 -5.3286e+006  1.5412e+006 138174 215497,215575,215549
 7.4000e+001 215776 -3.0305e+004 -2.6933e+005 -1.0041e+005 137734 215649,215701,215675
 7.4000e+001 215753 -6.2743e+003 -2.8532e+005 -4.2109e+004 137734 215649,215727,215701
 7.4000e+001 215977  1.7784e+006 -1.0542e+007  1.5986e+006 137344 215801,215879,215827
 7.4000e+001 215954 -1.3294e+006 -2.6369e+006 -1.6915e+006 137344 215801,215905,215879
 7.4000e+001 215931  8.6294e+005 -1.5748e+007 -5.1923e+006 137344 215827,215879,215853
 7.4000e+001 216129 -6.2148e+005 -1.9281e+006  3.9483e+005 136940 216028,216080,216054
 7.4000e+001 216106 -5.4193e+005 -3.2801e+006  1.1320e+006 136940 216002,216080,216028
 7.4000e+001 216330 -1.7403e+006 -7.1386e+006  1.1838e+006 136600 216180,216232,216206
 7.4000e+001 216307 -8.3019e+005 -6.9827e+006  2.6742e+006 136600 216154,216232,216180
 7.4000e+001 216284 -1.5365e+006 -3.6008e+006  6.4996e+005 136600 216154,216258,216232
 7.4000e+001 216482  6.9466e+005 -4.6208e+006  9.8896e+005 136260 216381,216433,216407
 7.4000e+001 216459  5.3326e+005 -3.1878e+006  1.0794e+006 136260 216355,216433,216381
 7.4000e+001 216634 -1.5717e+005 -3.3181e+005  1.9983e+005 135970 216533,216585,216559
 7.4000e+001 216611 -9.4192e+004 -6.4318e+005  3.0916e+005 135970 216507,216585,216533
 7.4000e+001 216835 -1.4561e+005 -3.0290e+006  1.4811e+005 135608 216685,216763,216711
 7.4000e+001 216812  1.4145e+005 -3.2894e+006 -3.0038e+005 135608 216659,216763,216685
 7.4000e+001 216789 -2.8784e+004 -1.4394e+006  9.5679e+003 135608 216711,216763,216737
 7.4000e+001 217036 -7.4804e+005 -1.0808e+006  6.0511e+005 135312 216912,216964,216938
 7.4000e+001 217013 -6.4057e+005 -2.9352e+006  1.6358e+006 135312 216886,216964,216912
 7.4000e+001 216990  4.0311e+005 -5.4233e+006  1.1345e+006 135312 216860,216964,216886
 7.4000e+001 217237 -1.6552e+005 -1.1149e+006  3.9586e+005 134908 217061,217139,217113
 7.4000e+001 217214 -2.8046e+005 -1.1900e+006  6.2579e+005 134908 217061,217165,217139
 7.4000e+001 217191 -2.9124e+005 -1.4746e+006  5.7443e+005 134908 217061,217113,217087
 7.4000e+001 217438 -4.9572e+005 -1.4264e+007 -1.9664e+006 134568 217288,217366,217314
 7.4000e+001 217415 -9.1738e+005 -1.5066e+007 -2.3667e+006 134568 217262,217366,217288
 7.4000e+001 217392 -9.2777e+005 -1.7875e+007 -2.9447e+006 134568 217314,217366,217340
 7.4000e+001 217590 -5.6645e+004 -4.6419e+005  2.2907e+005 134106 217463,217515,217489
 7.4000e+001 217567 -4.9762e+004 -3.8734e+005  1.0517e+005 134106 217463,217541,217515
 7.4000e+001 217791  4.3403e+005  3.3674e+006  1.2078e+006 133816 217641,217693,217667
 7.4000e+001 217768 -9.0708e+005 -2.3050e+007 -4.5726e+006 133816 217641,217719,217693
 7.4000e+001 217745 -6.8093e+006 -1.2441e+006  2.9105e+006 133816 217615,217719,217641
 7.4000e+001 217992 -4.3391e+006 -5.2479e+006  5.2760e+006 133355 217842,217920,217894
 7.4000e+001 217969 -1.4853e+006 -9.8141e+006  3.7621e+006 133355 217816,217920,217842
 7.4000e+001 217946 -1.0867e+006 -2.9602e+006  8.2132e+005 133355 217842,217894,217868
 7.4000e+001 218193 -2.2647e+003 -7.3667e+006  5.6860e+005 132851 218017,218095,218069
 7.4000e+001 218170 -5.3820e+006 -7.6941e+006  7.1112e+006 132851 218017,218121,218095
 7.4000e+001 218147 -1.6978e+006 -3.1227e+006 -7.4809e+005 132851 218017,218069,218043
 7.4000e+001 218345 -1.9827e+004 -8.2039e+004  3.0340e+004 132511 218244,218296,218270
 7.4000e+001 218322 -1.5240e+004 -2.0290e+005  6.3052e+004 132511 218218,218296,218244
 7.4000e+001 218497  1.8961e+006 -2.4739e+007  2.5691e+005 132235 218396,218448,218422
 7.4000e+001 218474 -8.8576e+003 -8.4780e+006  1.0586e+006 132235 218370,218448,218396
 7.4000e+001 218698 -4.9827e+005 -8.4599e+006 -2.3233e+006 131945 218574,218626,218600
 7.4000e+001 218675 -1.8484e+006 -1.7009e+007 -1.2984e+006 131945 218522,218626,218574
 7.4000e+001 218652 -2.8666e+006 -7.1424e+006 -3.2021e+006 131945 218522,218574,218548
 7.4000e+001 218850 -3.1556e+005 -1.5459e+007  8.3253e+005 131655 218723,218775,218749
 7.4000e+001 218827  2.8529e+005 -1.0597e+007  5.2353e+005 131655 218723,218801,218775
 7.4000e+001 218953  2.7128e+002 -1.2659e+002  6.6831e+001 131215 218875,218927,218901
 7.4000e+001 219105 -8.5559e+004 -1.9777e+006 -1.2398e+005 130875 218978,219030,219004
 7.4000e+001 219082 -4.5029e+004 -8.7073e+005  1.3457e+004 130875 218978,219056,219030
 7.4000e+001 219306 -5.0136e+005 -1.3724e+006  2.2031e+005 130429 219156,219234,219208
 7.4000e+001 219283 -4.7305e+005 -1.0042e+006  3.1822e+005 130429 219130,219234,219156
 7.4000e+001 219260 -1.4899e+006 -1.6584e+006  1.1413e+006 130429 219156,219208,219182
 7.4000e+001 219507 -4.6252e+005 -1.5505e+006  7.0358e+005 130025 219383,219435,219409
 7.4000e+001 219484 -4.2913e+005 -1.9126e+006  8.7455e+005 130025 219331,219435,219383
 7.4000e+001 219461 -4.3904e+005 -1.2557e+006  5.6926e+005 130025 219331,219383,219357
 7.4000e+001 219659 -1.1204e-002 -8.0417e-001  9.4919e-002 129685 219558,219610,219584
 7.4000e+001 219636  2.5788e-002  1.8510e+000 -2.1848e-001 129685 219532,219610,219558
 7.4000e+001 219860 -2.7877e+005 -1.0203e+006  6.5579e+005 129395 219710,219788,219762
 7.4000e+001 219837 -2.2494e+005 -1.3590e+006  6.6792e+005 129395 219684,219788,219710
 7.4000e+001 219814 -1.5072e+005 -1.3233e+006  4.4304e+005 129395 219710,219762,219736
 7.4000e+001 220061  9.8995e+003 -1.1169e+005  6.3519e+004 128991 219937,219989,219963
 7.4000e+001 220038  5.4800e+003 -2.1248e+005  4.5877e+004 128991 219885,219989,219937
 7.4000e+001 220015 -4.4152e+003 -2.7125e+005  9.2802e+004 128991 219885,219937,219911
 7.4000e+001 220262 -5.1614e+004 -5.4296e+004  1.0862e+004 128701 220086,220164,220112
 7.4000e+001 220239 -1.3926e+004 -1.9859e+005  8.0106e+004 128701 220086,220190,220164
 7.4000e+001 220216 -3.6851e+003 -4.4538e+004  1.3383e+004 128701 220112,220164,220138
 7.4000e+001 220463 -3.2971e+006 -8.8556e+006  4.1806e+006 128297 220339,220391,220365
 7.4000e+001 220440 -1.5784e+006 -1.1114e+007  3.4792e+006 128297 220313,220391,220339
 7.4000e+001 220417 -1.5784e+006 -1.5231e+007 -7.3749e+006 128297 220287,220391,220313
 7.4000e+001 220615 -5.8776e-002 -2.1001e-002 -3.5133e-002 128007 220488,220540,220514
 7.4000e+001 220592  6.3940e-002  2.2846e-002  3.8220e-002 128007 220488,220566,220540
 7.4000e+001 220767 -1.0411e+005 -4.6041e+006  5.4689e+005 127567 220640,220692,220666
 7.4000e+001 220744  1.0509e+005 -2.5618e+006  1.4907e+005 127567 220640,220718,220692
 7.4000e+001 220919 -1.2458e+006 -1.3557e+007 -1.5176e+006 127163 220792,220844,220818
 7.4000e+001 220896 -2.5757e+005 -1.6277e+007  2.2284e+006 127163 220792,220870,220844
 7.4000e+001 221071 -3.3336e+006 -4.0575e+006  3.4095e+006 126915 220970,221022,220996
 7.4000e+001 221048 -2.6839e+006 -6.5214e+006  2.8384e+006 126915 220944,221022,220970
 7.4000e+001 221272 -1.7503e+006 -4.9410e+006  3.3659e+006 126461 221122,221174,221148
 7.4000e+001 221249  1.7474e+005 -5.3872e+006  8.5292e+005 126461 221122,221200,221174
 7.4000e+001 221226 -1.3638e+006 -2.7812e+006  1.9477e+006 126461 221096,221200,221122
 7.4000e+001 221375 -2.9452e+000 -7.0456e+000  2.6923e+000 126213 221297,221349,221323
 7.4000e+001 221478 -4.7306e-180  1.4757e-179  1.9382e-179 125766 221400,221452,221426
 7.4000e+001 221679 -1.7462e+004 -1.2814e+005  3.9198e+004 125212 221503,221555,221529
 7.4000e+001 221656 -9.2409e+003 -1.1094e+005  3.0222e+004 125212 221503,221581,221555
 7.4000e+001 221633 -2.8533e+004 -3.2820e+005  1.4564e+005 125212 221503,221607,221581
 7.4000e+001 221929  6.6396e+002 -4.2370e+002  9.1850e+002 124872 221782,221834,221808
 7.4000e+001 221906  1.0032e+003  8.9301e+002  7.2095e+002 124872 221756,221834,221782
 7.4000e+001 221883 -9.0650e+000 -8.9614e+002 -3.0891e+002 124872 221704,221834,221756
 7.4000e+001 221860 -1.9556e+002  1.5643e+003  5.5543e+002 124872 221704,221756,221730
 7.4000e+001 222130 -9.0683e+005 -7.0197e+006 -1.0977e+005 124582 221980,222058,222006
 7.4000e+001 222107 -1.7627e+006 -6.0884e+006  6.1866e+005 124582 221954,222058,221980
 7.4000e+001 222084 -2.3179e+006 -6.9843e+006 -7.3280e+005 124582 222006,222058,222032
 7.4000e+001 222282 -2.0155e+006 -5.5071e+006 -1.1090e+006 124192 222181,222233,222207
 7.4000e+001 222259 -7.3095e+005 -4.1588e+006  4.8945e+004 124192 222155,222233,222181
 7.4000e+001 222483 -5.8116e+004 -7.6124e+004 -6.5349e+004 123702 222333,222385,222359
 7.4000e+001 222460 -3.1751e+004 -4.5891e+004 -3.6641e+004 123702 222333,222411,222385
 7.4000e+001 222437 -6.0326e+004 -8.4246e+004 -7.1785e+004 123702 222307,222411,222333
 7.4000e+001 222635 -4.9267e+004 -1.2767e+005  7.7618e+004 123312 222508,222560,222534
 7.4000e+001 222612 -4.4351e+004 -1.1917e+005  7.4007e+004 123312 222508,222586,222560
 7.4000e+001 222787 -1.1577e+001 -9.6194e-002 -9.0039e+000 122858 222686,222738,222712
 7.4000e+001 222764 -3.1907e+000  1.8919e-001  6.2298e-001 122858 222660,222738,222686
 7.4000e+001 222939 -1.4123e+004 -3.4692e+005 -1.4835e+003 122568 222812,222864,222838
 7.4000e+001 222916  2.2108e+004 -2.0155e+005 -8.0688e+003 122568 222812,222890,222864
 7.4000e+001 223091 -8.3416e+005 -1.9402e+005  2.3249e+005 122392 222964,223016,222990
 7.4000e+001 223068 -2.4934e+005 -5.8258e+004  1.7261e+005 122392 222964,223042,223016
 7.4000e+001 223292 -5.3646e+005 -1.5732e+006  2.6907e+005 121852 223142,223220,223194
 7.4000e+001 223269 -2.9609e+006 -4.8547e+005  5.2189e+005 121852 223116,223220,223142
 7.4000e+001 223246 -2.1370e+006 -1.5036e+006 -1.9031e+006 121852 223142,223194,223168
 7.4000e+001 223493 -9.8754e+005 -4.5997e+005  6.8218e+005 121406 223343,223395,223369
 7.4000e+001 223470 -1.1012e+006 -5.2956e+005  7.4726e+005 121406 223343,223421,223395
 7.4000e+001 223447 -4.5716e+005 -6.9585e+005  4.7007e+005 121406 223317,223421,223343
 7.4000e+001 223645  2.8174e+005 -1.3341e+007  2.7126e+006 121002 223544,223596,223570
 7.4000e+001 223622 -1.1873e+006 -1.0401e+007  2.6091e+006 121002 223518,223596,223544
 7.4000e+001 223846 -1.2198e+002  2.7048e+002  3.2298e+002 120662 223670,223748,223696
 7.4000e+001 223823  7.1656e+001  1.3071e+002 -1.4740e+002 120662 223670,223774,223748
 7.4000e+001 223800  4.7067e+001  6.0279e+002  1.4277e+002 120662 223696,223748,223722
 7.4000e+001 224047  1.2126e+002  3.1797e+002 -9.4974e+001 120222 223897,223949,223923
 7.4000e+001 224024  5.3066e+002  2.7919e+002 -1.4931e+002 120222 223871,223949,223897
 7.4000e+001 224001  2.5759e+002 -1.9138e+002  1.0644e+002 120222 223871,223975,223949
 7.4000e+001 224248 -1.5853e+003 -2.2811e+002 -8.5043e+001 119875 224124,224176,224150
 7.4000e+001 224225  1.6011e+002  7.8485e+002  8.9009e+002 119875 224098,224176,224124
 7.4000e+001 224202 -1.1268e+003 -1.1531e+003 -1.0047e+003 119875 224072,224176,224098
 7.4000e+001 224449 -2.5422e+001  7.7876e+001 -5.8387e+002 119677 224325,224377,224351
 7.4000e+001 224426 -2.9408e+001  6.1865e+001 -5.6702e+002 119677 224299,224377,224325
 7.4000e+001 224403  3.2856e+002 -6.0941e+002 -2.5069e+002 119677 224273,224377,224299
 7.4000e+001 224552 -8.1917e+002 -6.5098e+002 -6.3435e+002 119273 224474,224526,224500
 7.4000e+001 224704 -5.1856e+004 -2.7384e+005  1.2044e+005 118983 224603,224655,224629
 7.4000e+001 224681 -5.6073e+004 -2.6976e+005  1.2247e+005 118983 224577,224655,224603
 7.4000e+001 224856 -4.2460e+005  1.7636e+004  3.3893e+004 118529 224755,224807,224781
 7.4000e+001 224833  7.3895e+004 -5.5987e+005  1.4442e+005 118529 224729,224807,224755
 7.4000e+001 225008  2.0216e+002  1.3689e+002 -3.7953e+001 118353 224881,224933,224907
 7.4000e+001 224985  1.7789e+002  5.5204e+001 -2.0228e+001 118353 224881,224959,224933
 7.4000e+001 225209 -1.2242e+006 -5.3142e+006 -1.3050e+006 117949 225059,225137,225111
 7.4000e+001 225186 -2.3927e+005 -3.7573e+006  8.9675e+005 117949 225033,225137,225059
 7.4000e+001 225163  8.0347e+005 -1.0519e+007  1.3290e+006 117949 225059,225111,225085
 7.4000e+001 225410  1.2237e+005 -7.6214e+006  5.2837e+005 117559 225260,225338,225312
 7.4000e+001 225387 -2.3656e+006 -8.2151e+006  4.7525e+005 117559 225234,225338,225260
 7.4000e+001 225364 -6.2463e+005 -5.6739e+006 -1.8822e+006 117559 225260,225312,225286
 7.4000e+001 225611 -1.3792e+006 -1.1349e+007 -3.6975e+006 117361 225461,225513,225487
 7.4000e+001 225588 -2.6210e+006 -1.2586e+007  1.7653e+006 117361 225461,225539,225513
 7.4000e+001 225565 -7.1556e+005 -1.3442e+007  1.2824e+006 117361 225435,225539,225461
 7.4000e+001 225812  6.6564e+005 -9.2141e+006 -2.9023e+005 116900 225636,225714,225662
 7.4000e+001 225789 -2.1386e+006 -3.3185e+006 -9.6708e+005 116900 225636,225740,225714
 7.4000e+001 225766 -2.4543e+002 -9.3837e+006 -4.9780e+004 116900 225662,225714,225688
 7.4000e+001 225964 -8.7853e+004 -6.8103e+006 -9.6962e+004 116560 225837,225889,225863
 7.4000e+001 225941  2.9321e+005 -8.0021e+006  1.3557e+005 116560 225837,225915,225889
 7.4000e+001 226165  4.9249e+002 -6.5242e+002 -3.8909e+002 116106 226015,226093,226041
 7.4000e+001 226142 -1.7877e+003  2.1141e+002 -1.9689e+003 116106 225989,226093,226015
 7.4000e+001 226119 -1.2323e+002 -3.3426e+002  4.3894e+002 116106 226041,226093,226067
 7.4000e+001 226268 -1.9791e+006 -5.6537e+006  1.2229e+006 115716 226190,226242,226216
 7.4000e+001 226420 -8.2096e+004 -1.1787e+007  1.9653e+006 115376 226293,226345,226319
 7.4000e+001 226397 -5.6643e+005 -1.2982e+007  3.9799e+006 115376 226293,226371,226345
 7.4000e+001 226621 -1.0511e+006 -2.7714e+006  7.3904e+005 114972 226497,226549,226523
 7.4000e+001 226598 -4.5467e+005 -1.3781e+007 -2.1461e+005 114972 226445,226549,226497
 7.4000e+001 226575  4.9378e+005 -7.4538e+006  9.4185e+005 114972 226445,226497,226471
 7.4000e+001 226773 -1.6579e+006 -4.0437e+006 -1.6318e+006 114670 226646,226698,226672
 7.4000e+001 226750  6.5375e+005 -9.4597e+006  1.0362e+006 114670 226646,226724,226698
 7.4000e+001 226974  7.9459e+004 -3.6762e+006 -6.3910e+005 114082 226798,226850,226824
 7.4000e+001 226951  2.1408e+005 -4.9926e+006 -1.6766e+005 114082 226798,226902,226850
 7.4000e+001 226928  6.8174e+004 -6.8565e+006 -6.5394e+005 114082 226850,226902,226876
 7.4000e+001 227175 -8.6966e+005 -5.5981e+006 -2.9064e+006 113678 226999,227051,227025
 7.4000e+001 227152 -2.1150e+006 -9.4197e+006 -4.2371e+006 113678 226999,227077,227051
 7.4000e+001 227129 -3.3556e+006 -5.4018e+006 -3.5333e+006 113678 226999,227103,227077
 7.4000e+001 227425 -3.4296e+006 -7.5822e+006 -8.0924e+006 113274 227226,227278,227252
 7.4000e+001 227402 -9.1611e+004 -7.2704e+006 -1.5205e+006 113274 227226,227330,227278
 7.4000e+001 227379 -2.6194e+006 -3.5656e+006 -1.2302e+006 113274 227200,227330,227226
 7.4000e+001 227356 -1.2199e+006 -1.0527e+006 -1.2768e+006 113274 227278,227330,227304
 7.4000e+001 227626 -1.0644e+006 -4.3916e+006 -3.4146e+006 112934 227502,227554,227528
 7.4000e+001 227603  9.1323e+005 -3.4787e+006 -1.4142e+005 112934 227450,227554,227502
 7.4000e+001 227580 -2.2050e+006 -3.7671e+005  1.1339e+006 112934 227450,227502,227476
 7.4000e+001 227876 -1.6545e+005 -2.3218e+006 -2.3099e+005 112437 227677,227755,227703
 7.4000e+001 227853 -1.2396e+006 -2.7541e+006  1.5610e+006 112437 227677,227781,227755
 7.4000e+001 227830 -2.7074e+005 -1.1890e+006  4.0922e+005 112437 227703,227755,227729
 7.4000e+001 227807 -2.7718e+005 -9.4191e+006 -6.9735e+005 112437 227651,227781,227677
 7.4000e+001 228126 -2.8135e+005 -4.9344e+006 -5.2498e+005 112041 227927,228005,227953
 7.4000e+001 228103 -4.8900e+005 -5.0769e+006 -6.2604e+005 112041 227927,228031,228005
 7.4000e+001 228080 -8.2230e+004 -5.8937e+006 -4.0511e+005 112041 227953,228005,227979
 7.4000e+001 228057 -1.0336e+006 -3.9451e+006 -9.8806e+005 112041 227901,228031,227927
 7.4000e+001 228327 -2.9277e+006 -3.5982e+006  2.6302e+005 111693 228151,228203,228177
 7.4000e+001 228304  9.6755e+004 -2.4415e+006 -1.6479e+006 111693 228151,228229,228203
 7.4000e+001 228281  1.0902e+006 -7.0577e+006  1.7640e+006 111693 228151,228255,228229
 7.4000e+001 228479 -2.5531e+006 -1.3975e+006 -2.4896e+006 111253 228352,228404,228378
 7.4000e+001 228456 -1.6031e+006 -2.7802e+005  3.9728e+004 111253 228352,228430,228404
 7.4000e+001 228582  6.0360e+001  1.3096e+001  4.1086e+000 110906 228504,228556,228530
 7.4000e+001 228783 -9.8490e+003 -2.1337e+006 -6.3592e+004 110416 228633,228711,228659
 7.4000e+001 228760  3.3682e+004 -1.9545e+006 -5.8174e+004 110416 228607,228711,228633
 7.4000e+001 228737  5.8586e+004 -2.4912e+006 -1.1365e+005 110416 228659,228711,228685
 7.4000e+001 228935 -1.7712e+005 -4.3639e+006 -1.4450e+006 110012 228808,228860,228834
 7.4000e+001 228912 -1.3915e+006 -7.8757e+006 -2.3155e+006 110012 228808,228886,228860
 7.4000e+001 229087 -1.7875e+006 -3.3452e+006 -2.1953e+006 109672 228960,229012,228986
 7.4000e+001 229064  5.8689e+005 -7.1290e+006 -1.2428e+006 109672 228960,229038,229012
 7.4000e+001 229190 -5.9754e+000  5.5088e+000 -7.0643e+000 109332 229112,229164,229138
 7.4000e+001 229391 -1.3323e+005 -1.5338e+005  7.2385e+004 109156 229267,229319,229293
 7.4000e+001 229368 -2.1509e+005 -1.3051e+006  1.9016e+005 109156 229215,229319,229267
 7.4000e+001 229345 -4.2135e+004 -3.2337e+005  3.2999e+005 109156 229215,229267,229241
 7.4000e+001 229543  8.6406e+005 -9.6705e+006  1.1936e+006 108752 229416,229468,229442
 7.4000e+001 229520 -5.1513e+005 -4.5342e+006 -5.2065e+005 108752 229416,229494,229468
 7.4000e+001 229744 -1.6664e+005 -5.6460e+006  2.1604e+004 108198 229594,229646,229620
 7.4000e+001 229721  1.2726e+004 -5.5974e+006 -3.3541e+004 108198 229594,229672,229646
 7.4000e+001 229698 -4.7276e+005 -5.8171e+006 -2.0429e+005 108198 229568,229672,229594
 7.4000e+001 229847 -1.1017e+005 -1.6833e+006 -3.8288e+005 107758 229769,229821,229795
 7.4000e+001 230048 -7.6978e+005 -2.6272e+006 -3.5947e+005 107468 229898,229950,229924
 7.4000e+001 230025 -7.1881e+005 -2.0128e+006  8.6343e+005 107468 229872,229950,229898
 7.4000e+001 230002 -1.2789e+006 -1.7075e+006  5.5493e+005 107468 229872,229976,229950
 7.4000e+001 230298  1.4871e+005 -1.4966e+006  5.9698e+005 107121 230099,230203,230177
 7.4000e+001 230275 -3.9037e+005 -2.1001e+006  1.9326e+005 107121 230073,230203,230099
 7.4000e+001 230252  6.6870e+005 -1.9194e+006 -4.1060e+005 107121 230099,230177,230151
 7.4000e+001 230229 -2.3509e+005 -1.8063e+006 -6.5204e+005 107121 230099,230151,230125
 7.4000e+001 230450 -8.5102e+004 -8.1468e+005  1.4209e+005 106823 230349,230401,230375
 7.4000e+001 230427 -1.9785e+004 -1.3300e+006  1.8604e+004 106823 230323,230401,230349
 7.4000e+001 230602 -4.3029e+006 -9.5862e+006 -8.9410e+006 106533 230501,230553,230527
 7.4000e+001 230579  1.5246e+006 -1.4087e+007  4.3041e+006 106533 230475,230553,230501
 7.4000e+001 230803 -1.1596e+005 -2.5913e+006 -5.0974e+004 106029 230679,230731,230705
 7.4000e+001 230780  7.0052e+004 -1.8407e+006 -3.8422e+004 106029 230653,230731,230679
 7.4000e+001 230757 -2.6497e+003 -2.3855e+006 -1.4415e+005 106029 230627,230731,230653
 7.4000e+001 231004 -1.5828e+005 -2.4085e+006  2.3507e+005 105689 230854,230906,230880
 7.4000e+001 230981  1.4725e+005 -2.7062e+006 -1.1712e+005 105689 230828,230906,230854
 7.4000e+001 230958 -6.9892e+005 -1.9081e+006 -7.6212e+005 105689 230828,230932,230906
 7.4000e+001 231156  2.5745e+005 -7.4188e+006 -2.7771e+005 105377 231055,231107,231081
 7.4000e+001 231133 -2.2573e+005 -5.1803e+006  3.5426e+005 105377 231029,231107,231055
 7.4000e+001 231406 -7.5523e+005 -7.2726e+006 -1.3169e+006 104858 231207,231259,231233
 7.4000e+001 231383 -1.5875e+006 -7.1670e+006 -1.6771e+006 104858 231207,231311,231259
 7.4000e+001 231360 -8.7301e+005 -8.6289e+006 -2.3550e+006 104858 231259,231311,231285
 7.4000e+001 231337 -4.1177e+005 -8.3664e+006 -1.7604e+006 104858 231181,231311,231207
 7.4000e+001 231558 -1.1978e+006 -1.8010e+007  1.7738e+006 104418 231457,231509,231483
 7.4000e+001 231535 -3.4341e+006 -1.7801e+007 -8.0530e+006 104418 231431,231509,231457
 7.4000e+001 231710 -2.9915e+006 -6.8498e+005 -1.7934e+005 103978 231583,231635,231609
 7.4000e+001 231687 -1.4785e+006 -9.7144e+005 -1.0140e+006 103978 231583,231661,231635
 7.4000e+001 231862 -1.0037e+006 -7.5641e+006 -8.2480e+005 103588 231761,231813,231787
 7.4000e+001 231839  1.4562e+005 -3.6186e+006 -3.2116e+004 103588 231735,231813,231761
 7.4000e+001 232014 -1.4368e+006 -8.5776e+006 -3.1589e+006 103248 231887,231939,231913
 7.4000e+001 231991 -2.5823e+006 -1.5014e+007 -6.0104e+006 103248 231887,231965,231939
 7.4000e+001 232215 -5.1146e+003 -7.7160e+002 -1.3977e+003 102844 232039,232117,232065
 7.4000e+001 232192 -5.0811e+003  1.3882e+002 -1.1098e+003 102844 232039,232143,232117
 7.4000e+001 232169 -1.3508e+004 -9.3914e+001 -1.7048e+003 102844 232065,232117,232091
 7.4000e+001 232416 -3.1562e+006 -8.4396e+006 -4.5849e+006 102554 232240,232318,232292
 7.4000e+001 232393  6.2687e+005 -1.3974e+007 -1.2027e+006 102554 232240,232344,232318
 7.4000e+001 232370 -4.4019e+006 -2.3684e+006 -1.3626e+006 102554 232240,232292,232266
 7.4000e+001 232568 -7.0913e+004 -2.9013e+006  1.7585e+005 102100 232441,232493,232467
 7.4000e+001 232545 -2.6572e+005 -3.0619e+006  5.8370e+005 102100 232441,232519,232493
 7.4000e+001 232769 -1.6361e+005 -1.7906e+006  3.5273e+005 101596 232645,232697,232671
 7.4000e+001 232746  5.0690e+004 -9.8418e+005  1.9819e+005 101596 232593,232697,232645
 7.4000e+001 232723 -6.6899e+004 -1.7204e+006  3.4353e+005 101596 232593,232645,232619
 7.4000e+001 232921 -1.9913e+005 -4.2000e+004  8.1198e+003 101420 232794,232846,232820
 7.4000e+001 232898 -1.9497e+005 -1.9338e+005 -2.3813e+004 101420 232794,232872,232846
 7.4000e+001 233073 -1.0643e+006 -2.1216e+006 -5.0764e+004 101023 232946,232998,232972
 7.4000e+001 233050  1.1510e+005 -4.2728e+006  1.6037e+006 101023 232946,233024,232998
 7.4000e+001 233225 -2.5619e+001  5.3609e+002 -8.0299e+002 100661 233098,233150,233124
 7.4000e+001 233202 -6.4561e+002  5.6088e+002 -5.1697e+002 100661 233098,233176,233150
 7.4000e+001 233426 -1.7189e+006 -6.8819e+006 -2.2450e+006 100265 233276,233328,233302
 7.4000e+001 233403 -1.1879e+006 -6.3492e+006 -1.1054e+006 100265 233276,233354,233328
 7.4000e+001 233380 -1.3083e+006 -6.7161e+006 -1.2308e+006 100265 233250,233354,233276
 7.4000e+001 233578 -6.0649e+003 -1.7552e+006  1.0288e+005 100032 233451,233503,233477
 7.4000e+001 233555 -2.5132e+005 -1.7803e+006  3.4351e+005 100032 233451,233529,233503
 7.4000e+001 233681 -1.7747e+006  1.0989e+005 -1.3522e+005 99742 233603,233655,233629
 7.4000e+001 233784 -7.4494e+005 -1.7735e+006  3.3110e+005 99402 233706,233758,233732
 7.4000e+001 233936 -6.7647e+005 -1.6773e+006  6.7016e+005 99062 233835,233887,233861
 7.4000e+001 233913 -7.3578e+005 -1.9185e+006  6.8461e+005 99062 233809,233887,233835
 7.4000e+001 234088 -9.8284e+005 -1.9144e+006  7.2043e+005 98772 233987,234039,234013
 7.4000e+001 234065 -2.7186e+005 -1.8011e+006  6.2059e+005 98772 233961,234039,233987
 7.4000e+001 234240 -1.1163e+004 -1.1037e+005  3.0414e+004 98160 234139,234191,234165
 7.4000e+001 234217 -7.9213e+003 -1.0644e+005  1.9800e+004 98160 234113,234191,234139
 7.4000e+001 234441 -3.4444e+002  5.4199e+002  1.0871e+002 97820 234317,234369,234343
 7.4000e+001 234418 -5.2851e+002 -2.9967e+001  3.9325e+002 97820 234291,234369,234317
 7.4000e+001 234395 -7.7808e+002  7.3796e+002  3.5134e+002 97820 234265,234369,234291
 7.4000e+001 234593 -1.3592e+005 -1.2233e+006  6.2600e+004 97366 234466,234518,234492
 7.4000e+001 234570 -1.2605e+005 -1.9683e+006  1.2888e+005 97366 234466,234544,234518
 7.4000e+001 234794 -4.8249e+005 -7.0038e+005 -4.3763e+005 96976 234618,234670,234644
 7.4000e+001 234771 -2.0759e+005 -1.2034e+006 -3.8472e+005 96976 234618,234722,234670
 7.4000e+001 234748 -1.6263e+005 -1.0532e+006 -3.5902e+005 96976 234670,234722,234696
 7.4000e+001 234946 -3.2623e+005 -3.3651e+005  1.3425e+005 96568 234845,234897,234871
 7.4000e+001 234923 -2.0930e+005 -8.7498e+004  3.3070e+005 96568 234819,234897,234845
 7.4000e+001 235196 -8.6770e+004 -3.8850e+005 -1.0740e+005 96216 234997,235075,235049
 7.4000e+001 235173  4.7113e+004 -1.8724e+006  5.1644e+005 96216 234997,235101,235075
 7.4000e+001 235150 -2.0064e+005 -5.0565e+005  5.1158e+004 96216 234997,235049,235023
 7.4000e+001 235127 -7.8653e+004 -1.9616e+006  3.9265e+005 96216 234971,235101,234997
 7.4000e+001 235348 -1.7129e+006 -1.8421e+006 -1.3250e+006 95863 235247,235299,235273
 7.4000e+001 235325 -1.1979e+006 -1.1345e+006 -7.2921e+005 95863 235221,235299,235247
 7.4000e+001 235500 -1.2766e+005 -1.0116e+006  1.7678e+005 95339 235373,235425,235399
 7.4000e+001 235477 -2.3828e+005 -1.4365e+006  1.7265e+006 95339 235373,235451,235425
 7.4000e+001 235701  5.6367e+004 -1.6905e+006  3.3857e+005 95023 235525,235577,235551
 7.4000e+001 235678 -7.5795e+004 -1.6967e+006  3.4071e+005 95023 235525,235629,235577
 7.4000e+001 235655 -5.7915e+004 -2.9343e+006  5.9007e+005 95023 235577,235629,235603
 7.4000e+001 235853  1.3180e+005 -1.3443e+007 -3.4012e+005 94671 235726,235778,235752
 7.4000e+001 235830  1.9648e+005 -1.4420e+007  3.9316e+005 94671 235726,235804,235778
 7.4000e+001 236005 -1.9475e+006 -7.2281e+006  8.5460e+005 94261 235904,235956,235930
 7.4000e+001 235982 -7.4969e+005 -1.2080e+007 -3.9766e+006 94261 235878,235956,235904
 7.4000e+001 236206 -1.3888e+006 -7.2360e+005  1.0016e+006 93853 236056,236134,236082
 7.4000e+001 236183 -2.0079e+006 -8.8611e+005  8.3539e+005 93853 236030,236134,236056
 7.4000e+001 236160 -1.3040e+006 -1.0132e+006  9.5956e+005 93853 236082,236134,236108
 7.4000e+001 236407 -1.6587e+006 -3.8092e+006  6.0474e+005 93557 236257,236309,236283
 7.4000e+001 236384 -2.8321e+006 -4.7271e+006 -2.4473e+006 93557 236231,236309,236257
 7.4000e+001 236361  1.4517e+006 -1.9075e+007  2.1175e+006 93557 236231,236335,236309
 7.4000e+001 236559 -9.4406e+003 -4.4443e+004 -1.3742e+003 93149 236432,236484,236458
 7.4000e+001 236536 -8.9214e+002 -2.4366e+004  1.3202e+004 93149 236432,236510,236484
 7.4000e+001 236711 -2.5776e+005 -4.2318e+005  2.9144e+005 92853 236584,236636,236610
 7.4000e+001 236688 -1.4636e+005 -3.0783e+005  2.2275e+005 92853 236584,236662,236636
 7.4000e+001 236912 -6.7006e+004 -3.3704e+005  1.4304e+005 92501 236736,236788,236762
 7.4000e+001 236889 -1.6309e+005 -1.8367e+005  6.4992e+004 92501 236736,236840,236788
 7.4000e+001 236866 -1.7012e+005 -3.8420e+005 -4.3608e+004 92501 236788,236840,236814
 7.4000e+001 237113 -9.8513e+004 -4.6202e+006  2.0180e+005 92291 236963,237041,237015
 7.4000e+001 237090  1.6478e+005 -2.5789e+006  9.6393e+004 92291 236937,237041,236963
 7.4000e+001 237067 -2.1265e+005 -4.2179e+006  9.4802e+005 92291 236963,237015,236989
 7.4000e+001 237265 -1.5480e+005 -5.0513e+005 -4.2466e+005 91871 237138,237190,237164
 7.4000e+001 237242 -2.8587e+005 -1.2995e+006 -4.5216e+005 91871 237138,237216,237190
 7.4000e+001 237368 -2.1445e+004 -2.2583e+006 -6.6575e+004 91581 237290,237342,237316
 7.4000e+001 237520 -4.1381e+004 -1.4206e+005  6.8871e+004 91184 237419,237471,237445
 7.4000e+001 237497 -1.4671e+005 -6.0828e+004  1.4709e+005 91184 237393,237471,237419
 7.4000e+001 237672 -2.2124e+005 -6.0363e+005 -1.5901e+005 90894 237545,237597,237571
 7.4000e+001 237649 -9.0088e+004 -2.4487e+006  6.7756e+005 90894 237545,237623,237597
 7.4000e+001 237873 -5.1040e+005 -2.5554e+006  9.4858e+005 90490 237749,237801,237775
 7.4000e+001 237850 -2.5144e+005 -2.9019e+006  1.2028e+006 90490 237723,237801,237749
 7.4000e+001 237827 -6.8192e+005 -2.9990e+006 -1.5305e+005 90490 237697,237801,237723
 7.4000e+001 238074 -6.2986e+005 -5.6384e+006  4.7107e+005 90100 237898,237976,237950
 7.4000e+001 238051 -2.4638e+006 -5.4566e+006 -3.2634e+005 90100 237898,238002,237976
 7.4000e+001 238028 -7.3864e+005 -2.5322e+006  6.0670e+005 90100 237898,237950,237924
 7.4000e+001 238275 -1.1633e+005 -3.4275e+005 -3.4496e+004 89696 238125,238177,238151
 7.4000e+001 238252 -6.2680e+005 -2.3965e+005 -4.5990e+005 89696 238099,238177,238125
 7.4000e+001 238229 -6.5697e+005 -3.3796e+005 -4.3374e+005 89696 238099,238203,238177
 7.4000e+001 238427 -1.2119e+003  1.1861e+003 -6.9850e+002 89206 238326,238378,238352
 7.4000e+001 238404  2.3033e+002 -1.0001e+002  2.0276e+002 89206 238300,238378,238326
 7.4000e+001 238579 -1.2208e+005 -4.3572e+005  2.6273e+005 88908 238452,238504,238478
 7.4000e+001 238556 -2.3258e+004 -2.9283e+005  5.4082e+003 88908 238452,238530,238504
 7.4000e+001 238682  1.2582e+002 -7.2689e+001  3.2224e+001 88568 238604,238656,238630
 7.4000e+001 238883 -2.5599e+004 -4.3624e+006  1.5104e+006 88278 238733,238811,238785
 7.4000e+001 238860 -6.8762e+005 -2.5671e+006  1.3674e+006 88278 238707,238811,238733
 7.4000e+001 238837 -1.5355e+005 -4.6919e+006  8.5132e+005 88278 238733,238785,238759
 7.4000e+001 239035 -2.4295e+006 -4.7460e+006 -7.2274e+005 87988 238908,238960,238934
 7.4000e+001 239012 -2.6358e+006 -2.6061e+006  3.2802e+004 87988 238908,238986,238960
 7.4000e+001 239138 -1.1121e+006 -8.5468e+005 -7.3816e+005 87648 239060,239112,239086
 7.4000e+001 239339 -2.9393e+006 -3.6889e+006 -3.2552e+006 87358 239163,239215,239189
 7.4000e+001 239316 -2.9371e+006 -1.5712e+006 -5.1881e+005 87358 239163,239241,239215
 7.4000e+001 239293 -1.4259e+006 -1.5834e+006 -8.5258e+005 87358 239163,239267,239241
 7.4000e+001 239589 -1.1312e+003 -5.9882e+004  1.2444e+004 86961 239390,239468,239416
 7.4000e+001 239566 -8.2657e+004 -3.1327e+004  8.6475e+004 86961 239390,239494,239468
 7.4000e+001 239543 -9.6149e+003 -2.5647e+003  3.9917e+003 86961 239416,239468,239442
 7.4000e+001 239520 -1.3292e+005 -7.9456e+002  8.0239e+004 86961 239364,239494,239390
 7.4000e+001 239741 -1.3839e+006 -1.0616e+006 -7.7987e+004 86621 239640,239692,239666
 7.4000e+001 239718 -4.1302e+005 -3.3527e+006 -1.6703e+006 86621 239614,239692,239640
 7.4000e+001 239893 -6.1453e+005 -3.5727e+006  1.1963e+006 86217 239792,239844,239818
 7.4000e+001 239870 -5.8394e+005 -3.7800e+006  1.3075e+006 86217 239766,239844,239792
 7.4000e+001 240045 -6.7069e+005 -3.0639e+006  6.3064e+005 85827 239918,239970,239944
 7.4000e+001 240022 -2.2104e+005 -2.9340e+006  1.8732e+005 85827 239918,239996,239970
 7.4000e+001 240197 -5.2919e+005 -5.7861e+006  8.2095e+005 85437 240096,240148,240122
 7.4000e+001 240174 -7.2724e+005 -6.3405e+005  1.5177e+005 85437 240070,240148,240096
 7.4000e+001 240349 -2.1877e+004 -1.1100e+005  3.9143e+004 85147 240222,240274,240248
 7.4000e+001 240326 -7.6715e+003 -5.9884e+004 -1.0157e+004 85147 240222,240300,240274
 7.4000e+001 240501 -9.5959e+004 -3.4577e+005 -2.2727e+004 84807 240374,240426,240400
 7.4000e+001 240478 -5.9676e+005 -1.2732e+006  8.8082e+005 84807 240374,240452,240426
 7.4000e+001 240653 -5.5744e+002 -5.5087e+002 -4.4070e+002 84303 240552,240604,240578
 7.4000e+001 240630 -2.1296e+002 -1.8955e+002  7.9598e+001 84303 240526,240604,240552
 7.4000e+001 240854 -6.9914e+005 -9.2613e+006 -5.0223e+006 83929 240704,240756,240730
 7.4000e+001 240831  1.4237e+006 -7.0633e+006  2.4223e+006 83929 240704,240782,240756
 7.4000e+001 240808 -3.1059e+006  2.2248e+006  2.5766e+006 83929 240678,240782,240704
 7.4000e+001 241055 -5.6091e+001 -1.2116e+003  7.6462e+002 83539 240879,240957,240931
 7.4000e+001 241032  8.3648e+002 -2.1655e+002 -5.2695e+002 83539 240879,240983,240957
 7.4000e+001 241009  6.2084e+002  1.2526e+003  2.2506e+001 83539 240879,240931,240905
 7.4000e+001 241207  1.9386e+004 -2.6657e+005 -6.3581e+003 83079 241106,241158,241132
 7.4000e+001 241184 -2.8138e+004 -1.0578e+005 -6.6389e+003 83079 241080,241158,241106
 7.4000e+001 241408 -4.4881e+005 -1.1140e+006 -1.1091e+006 82665 241232,241284,241258
 7.4000e+001 241385 -3.3659e+005  5.0727e+005 -3.0001e+006 82665 241232,241336,241284
 7.4000e+001 241362 -3.0544e+006 -1.1698e+007  5.1648e+006 82665 241284,241336,241310
 7.4000e+001 241658 -2.3239e+005 -3.9045e+006  5.4268e+005 82375 241485,241563,241511
 7.4000e+001 241635 -1.3046e+004 -2.2261e+006  2.2556e+005 82375 241433,241563,241485
 7.4000e+001 241612 -1.0825e+005 -2.6375e+006  2.1471e+005 82375 241433,241485,241459
 7.4000e+001 241589 -6.6532e+005 -4.3258e+006  8.0067e+005 82375 241511,241563,241537
 7.4000e+001 241810 -7.6203e+005 -1.4507e+006 -5.2213e+005 82035 241683,241735,241709
 7.4000e+001 241787 -8.2305e+005 -2.2423e+006  5.5943e+005 82035 241683,241761,241735
 7.4000e+001 241962 -9.1333e+005 -2.0857e+006  6.5812e+005 81695 241861,241913,241887
 7.4000e+001 241939 -3.8777e+005 -2.8683e+006 -8.3349e+005 81695 241835,241913,241861
 7.4000e+001 242114 -1.1433e+006 -5.3308e+006  1.1384e+006 81355 242013,242065,242039
 7.4000e+001 242091 -3.9684e+005 -2.5721e+006  7.6079e+005 81355 241987,242065,242013
 7.4000e+001 242266  9.3922e+002 -2.0888e+005  4.5355e+002 80951 242139,242191,242165
 7.4000e+001 242243  6.6215e+003 -1.8506e+005 -5.7017e+003 80951 242139,242217,242191
 7.4000e+001 242467 -4.2766e+005 -4.9085e+006  5.6521e+005 80311 242291,242369,242343
 7.4000e+001 242444  1.5120e+005 -2.4516e+006  4.3505e+005 80311 242291,242395,242369
 7.4000e+001 242421 -1.7422e+005 -1.2102e+006  2.1534e+005 80311 242291,242343,242317
 7.4000e+001 242619 -1.4437e+006 -2.5878e+006  3.7798e+005 80021 242492,242544,242518
 7.4000e+001 242596 -1.3781e+006 -2.3537e+006  1.4653e+006 80021 242492,242570,242544
 7.4000e+001 242869 -1.7129e+004 -8.2705e+004 -1.2322e+004 79631 242644,242722,242696
 7.4000e+001 242846  1.9637e+004 -2.1671e+005  1.4983e+004 79631 242644,242774,242722
 7.4000e+001 242823  2.4956e+004 -1.8004e+005  2.7677e+004 79631 242722,242774,242748
 7.4000e+001 242800 -1.0683e+004 -7.7145e+004  1.0812e+004 79631 242644,242696,242670
 7.4000e+001 243070 -4.1610e+004 -1.4129e+007  3.3660e+006 79341 242920,242972,242946
 7.4000e+001 243047 -6.9237e+005 -6.7605e+006 -4.6379e+005 79341 242920,242998,242972
 7.4000e+001 243024 -8.0101e+005 -4.1281e+006  1.8182e+006 79341 242894,242998,242920
 7.4000e+001 243222 -3.4562e+005 -2.8811e+006  1.1223e+006 78801 243121,243173,243147
 7.4000e+001 243199 -4.2794e+005 -3.1973e+006  1.1479e+006 78801 243095,243173,243121
 7.4000e+001 243423 -8.9439e+005 -2.5048e+006 -7.7767e+005 78511 243273,243325,243299
 7.4000e+001 243400  7.6962e+005 -6.1014e+006  1.0221e+006 78511 243273,243351,243325
 7.4000e+001 243377 -2.4764e+003 -6.3406e+006  1.3283e+005 78511 243247,243351,243273
 7.4000e+001 243624 -3.9606e+005 -3.6973e+006 -1.3898e+006 78107 243474,243552,243526
 7.4000e+001 243601 -4.8492e+005 -4.3706e+006 -1.3432e+006 78107 243448,243552,243474
 7.4000e+001 243578 -2.9232e+005 -2.4359e+006 -2.1547e+005 78107 243474,243526,243500
 7.4000e+001 243776 -1.0528e+006 -4.6241e+006 -1.2643e+006 77653 243649,243701,243675
 7.4000e+001 243753 -1.5270e+006 -5.4536e+006 -7.8026e+005 77653 243649,243727,243701
 7.4000e+001 243977 -3.9112e+005 -5.7785e+006  4.9397e+004 77093 243801,243853,243827
 7.4000e+001 243954 -7.2836e+004 -4.8061e+006  7.1483e+005 77093 243801,243879,243853
 7.4000e+001 243931 -3.9489e+005 -1.7973e+006 -2.0098e+005 77093 243801,243905,243879
 7.4000e+001 244080 -5.7916e+005 -6.6071e+006  4.0202e+005 76791 244002,244054,244028
 7.4000e+001 244232 -7.8524e+004 -3.0207e+006 -1.3042e+005 76311 244131,244183,244157
 7.4000e+001 244209 -1.9803e+005 -5.7383e+006  1.3624e+004 76311 244105,244183,244131
 7.4000e+001 244433  3.4195e+005 -1.5898e+007  4.5405e+006 75903 244283,244335,244309
 7.4000e+001 244410 -1.2494e+006 -9.2447e+006 -5.2736e+005 75903 244283,244361,244335
 7.4000e+001 244387 -1.4827e+006 -8.8007e+006 -2.1626e+005 75903 244257,244361,244283
 7.4000e+001 244585  3.2129e+005 -1.5652e+007  1.4137e+006 75419 244458,244510,244484
 7.4000e+001 244562 -7.4669e+005 -8.4009e+006 -2.6408e+005 75419 244458,244536,244510
 7.4000e+001 244737 -4.1117e+005 -7.4333e+005 -1.8303e+005 75215 244636,244688,244662
 7.4000e+001 244714 -2.8141e+005 -3.4847e+006 -1.7592e+005 75215 244610,244688,244636
 7.4000e+001 244889 -9.2768e+005 -4.8119e+006 -5.7579e+005 74857 244788,244840,244814
 7.4000e+001 244866 -1.6913e+005 -1.9463e+006 -2.6029e+005 74857 244762,244840,244788
 7.4000e+001 245041 -2.0858e+005 -1.5949e+006 -8.7115e+005 74653 244940,244992,244966
 7.4000e+001 245018 -2.6401e+005 -3.7013e+005  7.1464e+005 74653 244914,244992,244940
 7.4000e+001 245144 -1.4579e+006 -6.2082e+006 -1.4718e+006 74359 245066,245118,245092
 7.4000e+001 245296 -1.4385e+004 -3.6517e+005 -1.1259e+005 74007 245169,245221,245195
 7.4000e+001 245273 -1.0578e+005 -6.2376e+005 -1.7612e+005 74007 245169,245247,245221
 7.4000e+001 245448 -1.8965e+006 -5.5624e+006 -2.3397e+005 73711 245321,245373,245347
 7.4000e+001 245425 -1.7299e+006 -5.5029e+006 -1.2719e+006 73711 245321,245399,245373
 7.4000e+001 245600  8.9937e+005 -1.2387e+007 -1.2600e+006 73301 245499,245551,245525
 7.4000e+001 245577 -1.5074e+006 -8.2592e+006  1.8946e+006 73301 245473,245551,245499
 7.4000e+001 245752 -2.5976e+006 -3.8942e+006 -2.3778e+006 72995 245625,245677,245651
 7.4000e+001 245729  7.7532e+005 -1.4666e+007 -1.9923e+006 72995 245625,245703,245677
 7.4000e+001 245953 -1.2032e+006 -1.2556e+007  6.5062e+005 72585 245777,245829,245803
 7.4000e+001 245930 -5.2875e+005 -1.4146e+007  1.9163e+006 72585 245777,245855,245829
 7.4000e+001 245907 -1.4941e+006 -8.0168e+006  1.4611e+005 72585 245777,245881,245855
 7.4000e+001 246154 -3.9133e+005 -6.9185e+006  1.2887e+006 72127 246030,246082,246056
 7.4000e+001 246131 -9.3092e+005 -8.0113e+006  6.3526e+005 72127 245978,246082,246030
 7.4000e+001 246108 -9.0164e+004 -8.7210e+006  2.7418e+005 72127 245978,246030,246004
 7.4000e+001 246257 -1.6288e+006 -2.9240e+005 -2.2665e+005 71737 246179,246231,246205
 7.4000e+001 246360  1.4245e+005 -3.0637e+006  5.0814e+005 71447 246282,246334,246308
 7.4000e+001 246512 -1.2201e+005 -2.3636e+006  9.6045e+005 71157 246385,246437,246411
 7.4000e+001 246489 -7.0547e+004 -1.8017e+006 -9.0282e+004 71157 246385,246463,246437
 7.4000e+001 246664 -1.7038e+005 -2.0830e+006 -4.7093e+005 70753 246537,246589,246563
 7.4000e+001 246641 -7.0390e+005 -9.1090e+005 -2.2871e+005 70753 246537,246615,246589
 7.4000e+001 246865 -1.4442e+006 -7.9457e+006  4.3323e+006 70249 246715,246767,246741
 7.4000e+001 246842 -3.0162e+006 -7.7150e+006 -2.2964e+005 70249 246715,246793,246767
 7.4000e+001 246819 -7.5401e+004 -1.4112e+007 -3.9599e+006 70249 246689,246793,246715
 7.4000e+001 247066 -3.9146e+003 -1.8041e+006  2.6348e+005 70023 246916,246994,246942
 7.4000e+001 247043 -8.5196e+004 -1.5469e+006  3.7242e+005 70023 246890,246994,246916
 7.4000e+001 247020  5.2721e+004 -1.6680e+006  3.5624e+005 70023 246942,246994,246968
 7.4000e+001 247267 -2.3736e+005 -3.5160e+006 -2.9362e+005 69633 247091,247143,247117
 7.4000e+001 247244 -5.2722e+004 -2.2751e+006 -2.1205e+005 69633 247091,247169,247143
 7.4000e+001 247221  3.2984e+002 -2.5943e+006 -3.3541e+005 69633 247091,247195,247169
 7.4000e+001 247419 -1.1135e+006 -5.1057e+006  5.1754e+005 69457 247318,247370,247344
 7.4000e+001 247396 -1.2471e+006 -2.3595e+006  7.9911e+005 69457 247292,247370,247318
 7.4000e+001 247522  1.2912e+001  4.1582e+000 -3.7790e+001 69209 247444,247496,247470
 7.4000e+001 247625 -1.3709e+006 -1.6413e+006 -1.1170e+006 68919 247547,247599,247573
 7.4000e+001 247777  1.1981e+005 -5.4880e+006 -1.8651e+005 68579 247650,247702,247676
 7.4000e+001 247754 -6.9948e+003 -1.4525e+006 -1.8870e+005 68579 247650,247728,247702
 7.4000e+001 247929 -6.7199e+004 -3.3914e+006  7.9037e+005 68289 247802,247854,247828
 7.4000e+001 247906 -3.3540e+005 -1.8366e+006 -6.0615e+005 68289 247802,247880,247854
 7.4000e+001 248081 -4.4111e+005 -3.8113e+006  1.1970e+006 67949 247980,248032,248006
 7.4000e+001 248058 -5.3891e+005 -5.2789e+005  1.4693e+005 67949 247954,248032,247980
 7.4000e+001 248233 -1.8412e+006 -5.5139e+006 -7.2113e+005 67616 248132,248184,248158
 7.4000e+001 248210 -5.8033e+005 -5.2370e+006 -2.0164e+005 67616 248106,248184,248132
 7.4000e+001 248434 -1.0868e+005 -3.5086e+006 -1.9424e+005 67212 248284,248336,248310
 7.4000e+001 248411 -2.8496e+005 -3.5416e+006 -1.6291e+005 67212 248258,248336,248284
 7.4000e+001 248388 -1.4185e+006 -1.6553e+006 -4.9180e+005 67212 248258,248362,248336
 7.4000e+001 248586 -1.8309e+005 -4.8490e+006  1.9679e+004 66872 248485,248537,248511
 7.4000e+001 248563 -1.3072e+005 -1.5333e+006 -1.7519e+005 66872 248459,248537,248485
 7.4000e+001 248738 -4.0137e+005 -5.2616e+006  1.7490e+005 66510 248637,248689,248663
 7.4000e+001 248715 -5.3462e+005 -6.6862e+006  1.3771e+005 66510 248611,248689,248637
 7.4000e+001 248890 -2.5822e+004 -6.8100e+005  1.3280e+005 66220 248789,248841,248815
 7.4000e+001 248867 -4.4623e+004 -8.8734e+005 -2.7684e+005 66220 248763,248841,248789
 7.4000e+001 249091 -1.1021e+006 -8.3533e+006  1.2231e+006 65759 248915,248967,248941
 7.4000e+001 249068 -8.8199e+005 -5.1144e+006  1.8392e+006 65759 248915,248993,248967
 7.4000e+001 249045 -4.2426e+005 -3.7444e+006  2.3368e+005 65759 248915,249019,248993
 7.4000e+001 249243 -8.5204e+004 -7.8218e+006  1.6360e+006 65419 249142,249194,249168
 7.4000e+001 249220  1.9399e+005 -2.1257e+006  3.9787e+005 65419 249116,249194,249142
 7.4000e+001 249395 -1.6056e+005 -1.7526e+006 -1.7402e+005 65079 249268,249320,249294
 7.4000e+001 249372 -2.5878e+005 -3.6701e+006 -5.9221e+005 65079 249268,249346,249320
 7.4000e+001 249547 -1.5286e+006 -4.9086e+006  1.4933e+006 64739 249420,249472,249446
 7.4000e+001 249524 -1.7964e+005 -3.5673e+006 -9.4425e+005 64739 249420,249498,249472
 7.4000e+001 249650 -1.6940e+006 -3.7906e+006 -1.9212e+006 64342 249572,249624,249598
 7.4000e+001 249851 -4.8055e+004 -2.8511e+006 -2.6979e+005 63938 249701,249779,249753
 7.4000e+001 249828 -9.0344e+004 -2.9796e+006  4.3490e+005 63938 249675,249779,249701
 7.4000e+001 249805 -3.2380e+005 -1.4482e+006 -1.9007e+005 63938 249701,249753,249727
 7.4000e+001 250052 -3.8670e+005 -4.7977e+006 -2.7324e+005 63341 249876,249954,249902
 7.4000e+001 250029 -2.3458e+005 -5.7881e+006 -5.8241e+005 63341 249876,249980,249954
 7.4000e+001 250006 -1.0402e+004 -4.4903e+006 -5.1183e+005 63341 249902,249954,249928
 7.4000e+001 250253 -6.1878e+005 -8.1050e+005 -6.7538e+004 63058 250077,250129,250103
 7.4000e+001 250230 -2.2023e+006 -2.1254e+006  1.2743e+006 63058 250077,250155,250129
 7.4000e+001 250207 -3.9716e+005 -1.2157e+006  3.3832e+005 63058 250077,250181,250155
 7.4000e+001 250454 -7.0773e+005 -6.3583e+006  8.1522e+005 62832 250304,250382,250330
 7.4000e+001 250431  7.8633e+004 -7.8417e+006 -2.0953e+006 62832 250278,250382,250304
 7.4000e+001 250408 -1.5309e+006 -4.4598e+006  1.8886e+005 62832 250330,250382,250356
 7.4000e+001 250606 -7.7267e+005 -7.1874e+006 -1.5420e+006 62428 250479,250531,250505
 7.4000e+001 250583  1.7685e+005 -1.1596e+007 -1.3947e+006 62428 250479,250557,250531
 7.4000e+001 250758 -1.7003e+005 -7.2305e+006  8.5125e+005 62202 250631,250683,250657
 7.4000e+001 250735 -3.8468e+005 -6.9616e+006  3.9416e+005 62202 250631,250709,250683
 7.4000e+001 250861  1.2884e+005 -3.2306e+006 -2.4145e+005 61954 250783,250835,250809
 7.4000e+001 251062 -2.5505e+006 -5.8872e+006 -5.1397e+005 61557 250912,250990,250938
 7.4000e+001 251039  2.7989e+005 -1.1776e+007 -2.4894e+006 61557 250886,250990,250912
 7.4000e+001 251016 -2.1853e+006 -8.7446e+006 -3.1789e+006 61557 250938,250990,250964
 7.4000e+001 251263 -3.8039e+005 -6.5388e+006  4.6237e+003 61167 251113,251165,251139
 7.4000e+001 251240 -3.8482e+005 -5.6960e+006 -1.2421e+005 61167 251113,251191,251165
 7.4000e+001 251217 -1.2468e+006 -5.6882e+006  1.0930e+006 61167 251087,251191,251113
 7.4000e+001 251415 -1.0204e+006 -6.4018e+006  2.2765e+006 60827 251288,251340,251314
 7.4000e+001 251392 -4.8874e+005 -2.5133e+006 -5.4097e+005 60827 251288,251366,251340
 7.4000e+001 251567 -9.0106e+004 -3.0454e+006 -1.5060e+005 60487 251466,251518,251492
 7.4000e+001 251544 -5.1750e+005 -4.2209e+006 -4.8300e+005 60487 251440,251518,251466
 7.4000e+001 251719 -2.0304e+005 -8.5207e+006 -8.0116e+005 59983 251592,251644,251618
 7.4000e+001 251696 -1.1079e+006 -7.2109e+006 -5.1186e+005 59983 251592,251670,251644
 7.4000e+001 251920 -7.7969e+004 -1.5451e+006  7.8167e+003 59807 251770,251848,251796
 7.4000e+001 251897 -4.3854e+004 -1.1802e+006 -3.8893e+004 59807 251744,251848,251770
 7.4000e+001 251874 -9.2287e+004 -1.5064e+006  6.9628e+004 59807 251796,251848,251822
 7.4000e+001 252023  4.1144e+005 -4.4001e+006 -1.0326e+005 59517 251945,251997,251971
 7.4000e+001 252175  1.3577e+006 -1.1645e+007 -2.1451e+005 59269 252074,252126,252100
 7.4000e+001 252152 -9.5186e+004 -7.7030e+006  8.0115e+004 59269 252048,252126,252074
 7.4000e+001 252278 -9.5208e+005 -8.8412e+006  1.4653e+006 58979 252200,252252,252226
 7.4000e+001 252381 -2.4028e+006 -1.8838e+006  1.5031e+006 58689 252303,252355,252329
 7.4000e+001 252533 -4.9090e+005 -3.5596e+006 -8.3329e+005 58249 252432,252484,252458
 7.4000e+001 252510 -9.8493e+005 -5.5082e+006 -7.2201e+005 58249 252406,252484,252432
 7.4000e+001 252734 -3.3291e+005 -2.3481e+006  4.0634e+005 57902 252584,252662,252610
 7.4000e+001 252711  1.8797e+005 -4.8678e+006 -8.2046e+005 57902 252558,252662,252584
 7.4000e+001 252688 -3.1148e+005 -1.3827e+006 -1.6397e+005 57902 252610,252662,252636
 7.4000e+001 252886  1.2419e+005 -5.2740e+006 -2.0490e+005 57540 252785,252837,252811
 7.4000e+001 252863  5.0812e+004 -4.1640e+006  1.0372e+005 57540 252759,252837,252785
 7.4000e+001 253038 -9.1391e+005 -6.3378e+006  1.6267e+006 57086 252937,252989,252963
 7.4000e+001 253015 -2.5849e+005 -1.4110e+006  4.2329e+005 57086 252911,252989,252937
 7.4000e+001 253239 -8.1187e+005 -6.9645e+006 -5.5314e+005 56796 253063,253141,253115
 7.4000e+001 253216  5.0634e+004 -7.4830e+006  8.0045e+005 56796 253063,253167,253141
 7.4000e+001 253193 -5.6225e+006 -2.0113e+006  8.9662e+005 56796 253063,253115,253089
 7.4000e+001 253342 -7.0163e+005 -1.4999e+007 -1.2036e+005 56349 253264,253316,253290
 7.4000e+001 253543 -3.2591e+005 -2.7164e+006 -1.2342e+006 56009 253367,253419,253393
 7.4000e+001 253520 -6.5245e+005 -1.2792e+006 -5.9666e+005 56009 253367,253445,253419
 7.4000e+001 253497 -4.0068e+005 -1.2484e+006 -6.4495e+005 56009 253367,253471,253445
 7.4000e+001 253695 -1.1999e+004 -2.8964e+005  1.4714e+005 55733 253594,253646,253620
 7.4000e+001 253672 -1.4483e+005 -8.7606e+004  1.0943e+005 55733 253568,253646,253594
 7.4000e+001 253798 -6.1896e+005 -1.6761e+006 -1.8211e+005 55557 253720,253772,253746
 7.4000e+001 253950 -6.3427e+005 -3.2923e+006  1.5419e+005 55153 253849,253901,253875
 7.4000e+001 253927 -1.2606e+005 -3.8401e+006 -4.9448e+005 55153 253823,253901,253849
 7.4000e+001 254151 -1.0956e+006 -4.0805e+006  4.7394e+005 54863 253975,254053,254001
 7.4000e+001 254128 -7.8114e+005 -3.8398e+006  1.3940e+005 54863 253975,254079,254053
 7.4000e+001 254105 -8.8590e+005 -4.9493e+006  8.3652e+005 54863 254001,254053,254027
 7.4000e+001 254303 -1.6381e+005 -1.5227e+005  1.3326e+005 54373 254176,254228,254202
 7.4000e+001 254280 -8.1105e+005 -2.8962e+005  4.1330e+005 54373 254176,254254,254228
 7.4000e+001 254455 -3.2153e+004 -4.4969e+006 -4.1876e+005 53975 254354,254406,254380
 7.4000e+001 254432 -2.8624e+005 -1.0060e+006  1.5479e+005 53975 254328,254406,254354
 7.4000e+001 254607 -2.4837e+005 -5.2333e+006 -1.1013e+005 53585 254480,254532,254506
 7.4000e+001 254584 -3.4154e+005 -4.6372e+006 -1.8827e+005 53585 254480,254558,254532
 7.4000e+001 254808 -1.0616e+006 -3.4698e+006  2.4586e+005 53245 254658,254736,254684
 7.4000e+001 254785 -8.7818e+005 -5.2246e+005  5.1112e+004 53245 254632,254736,254658
 7.4000e+001 254762 -5.3824e+005 -1.9894e+006 -1.4037e+005 53245 254684,254736,254710
 7.4000e+001 254911 -1.7152e+005 -1.5236e+006 -3.5837e+005 52955 254833,254885,254859
 7.4000e+001 255063 -5.1577e+005 -6.9616e+006 -9.5699e+002 52551 254962,255014,254988
 7.4000e+001 255040 -6.3921e+005 -7.2173e+006 -1.3399e+005 52551 254936,255014,254962
 7.4000e+001 255264 -1.2190e+006 -1.2016e+006 -6.8954e+005 52261 255114,255166,255140
 7.4000e+001 255241 -1.2825e+006 -2.5828e+006 -2.4620e+005 52261 255114,255192,255166
 7.4000e+001 255218 -5.2574e+006 -1.0438e+006  1.1966e+006 52261 255088,255192,255114
 7.4000e+001 255416 -8.7353e+005 -5.7211e+006  2.2009e+006 51971 255289,255341,255315
 7.4000e+001 255393 -3.5563e+005 -4.9995e+006 -6.0651e+005 51971 255289,255367,255341
 7.4000e+001 255568  3.2435e+005 -1.7300e+006 -4.6958e+005 51681 255441,255493,255467
 7.4000e+001 255545 -1.4497e+005 -1.0275e+006 -4.8209e+005 51681 255441,255519,255493
 7.4000e+001 255769 -2.4236e+005 -2.9072e+006  2.2014e+004 51291 255619,255697,255671
 7.4000e+001 255746 -2.1977e+005 -2.5694e+006 -2.7342e+005 51291 255593,255697,255619
 7.4000e+001 255723 -2.7988e+005 -5.7185e+006 -6.6605e+005 51291 255619,255671,255645
 7.4000e+001 255921 -6.5272e+005 -3.4393e+006  7.9103e+005 50951 255820,255872,255846
 7.4000e+001 255898 -8.4125e+004 -1.4420e+006  6.0422e+004 50951 255794,255872,255820
 7.4000e+001 256171 -9.2420e+005 -5.2821e+006  5.7376e+005 50547 256024,256076,256050
 7.4000e+001 256148 -8.7910e+005 -4.2360e+006  3.6070e+005 50547 255972,256076,256024
 7.4000e+001 256125 -8.4856e+004 -4.5499e+006  1.3568e+005 50547 255946,256076,255972
 7.4000e+001 256102 -7.0676e+005 -4.7544e+006  4.8065e+005 50547 255972,256024,255998
 7.4000e+001 256323  1.5393e+005 -4.4316e+006  4.4302e+005 50093 256196,256248,256222
 7.4000e+001 256300 -1.0372e+006 -2.7473e+006 -8.9864e+005 50093 256196,256274,256248
 7.4000e+001 256426  4.1763e+002  4.6888e+001  1.5015e+002 49845 256348,256400,256374
 7.4000e+001 256627  2.3352e+004 -5.7752e+006  6.7859e+004 49555 256477,256555,256503
 7.4000e+001 256604 -8.3934e+004 -3.1780e+006  1.9649e+005 49555 256451,256555,256477
 7.4000e+001 256581 -3.8324e+005 -5.1975e+006  3.1332e+005 49555 256503,256555,256529
 7.4000e+001 256828 -3.4946e+005 -2.5205e+006 -4.6956e+005 49056 256652,256730,256678
 7.4000e+001 256805 -7.1573e+005 -2.0653e+006 -2.2432e+005 49056 256652,256756,256730
 7.4000e+001 256782 -3.2873e+005 -3.7792e+006  4.0883e+005 49056 256678,256730,256704
 7.4000e+001 256931 -1.3746e+004 -4.9050e+004  8.4343e+003 48766 256853,256905,256879
 7.4000e+001 257083 -1.7102e+006 -5.0988e+006 -7.5869e+005 48568 256982,257034,257008
 7.4000e+001 257060 -6.5131e+005 -9.0465e+005 -1.8272e+005 48568 256956,257034,256982
 7.4000e+001 257186 -1.4563e+003 -2.4440e+006  8.3996e+002 48228 257108,257160,257134
 7.4000e+001 257338 -1.3513e+006 -5.6604e+005  2.6892e+005 47888 257237,257289,257263
 7.4000e+001 257315 -7.3289e+005 -4.1916e+006  2.3979e+006 47888 257211,257289,257237
 7.4000e+001 257539 -3.7786e+005 -3.5255e+006  1.2859e+005 47548 257363,257441,257415
 7.4000e+001 257516 -7.1378e+005 -3.2796e+006 -3.4914e+005 47548 257363,257467,257441
 7.4000e+001 257493 -7.8790e+005 -2.4421e+006 -1.0110e+005 47548 257363,257415,257389
 7.4000e+001 257740 -1.3038e+005 -5.2619e+006  4.3095e+005 46994 257564,257642,257616
 7.4000e+001 257717 -4.2212e+005 -3.8735e+006 -1.0108e+005 46994 257564,257668,257642
 7.4000e+001 257694 -8.3349e+005 -5.1971e+006 -1.4638e+005 46994 257564,257616,257590
 7.4000e+001 257843 -3.1658e+005 -1.0923e+006 -6.7635e+004 46654 257765,257817,257791
 7.4000e+001 257995 -6.0362e+005 -2.8766e+006  3.5961e+005 46364 257894,257946,257920
 7.4000e+001 257972 -6.6763e+005 -3.0452e+006  2.5818e+005 46364 257868,257946,257894
 7.4000e+001 258147 -6.7458e+004 -3.4313e+006  1.1782e+005 46024 258046,258098,258072
 7.4000e+001 258124 -3.7780e+005 -2.5566e+006  4.0166e+005 46024 258020,258098,258046
 7.4000e+001 258250 -1.7562e+005 -3.0504e+005  1.3419e+005 45741 258172,258224,258198
 7.4000e+001 258402 -1.1560e+006 -3.4140e+006  9.2710e+005 45401 258301,258353,258327
 7.4000e+001 258379 -4.7208e+005 -3.4114e+006  1.2548e+006 45401 258275,258353,258301
 7.4000e+001 258603 -7.0104e+005 -1.8550e+006  5.0215e+003 45071 258427,258505,258479
 7.4000e+001 258580 -2.2596e+005 -4.3911e+006  2.4848e+005 45071 258427,258531,258505
 7.4000e+001 258557 -2.8538e+005 -2.7363e+006  1.9392e+005 45071 258427,258479,258453
 7.4000e+001 258755 -2.1413e+005 -4.0668e+006 -4.0941e+005 44681 258654,258706,258680
 7.4000e+001 258732 -3.1534e+005 -3.4244e+006 -4.1174e+005 44681 258628,258706,258654
 7.4000e+001 258907 -1.5280e+005 -3.3394e+006 -3.4328e+005 44157 258806,258858,258832
 7.4000e+001 258884 -7.6650e+005 -2.4425e+006 -2.4095e+005 44157 258780,258858,258806
 7.4000e+001 259010 -5.3534e+005 -2.2865e+006 -1.1481e+005 43705 258932,258984,258958
 7.4000e+001 259113 -3.9198e+005 -3.5389e+006  2.4926e+005 43284 259035,259087,259061
 7.4000e+001 259216 -3.5280e+005 -4.6685e+006 -2.3582e+005 42954 259138,259190,259164
 7.4000e+001 259319 -7.1814e+005 -1.4088e+006 -2.2935e+003 42116 259241,259293,259267
 7.4000e+001 259422 -8.7726e+005 -8.2167e+006  2.0160e+006 41804 259344,259396,259370
 7.4000e+001 259525 -6.2231e+005 -6.1638e+006  9.0311e+005 41219 259447,259499,259473
 7.4000e+001 259628 -6.2968e+005 -2.7180e+006 -5.8382e+005 385 259550,259602,259576
 7.6000e+001 190120 -2.1228e+005 -2.3141e+006 -4.2734e+005 189630 189993,190045,190019
 7.6000e+001 190097 -6.9406e+005 -1.6994e+006 -2.6515e+005 189630 189993,190071,190045
 7.6000e+001 190319 -1.4823e+006 -4.6593e+006 -5.9185e+005 189312 190169,190221,190195
 7.6000e+001 190296 -5.6189e+005 -4.1138e+006 -1.0366e+006 189312 190169,190247,190221
 7.6000e+001 190273 -8.9954e+005 -3.4612e+006  2.2921e+005 189312 190143,190247,190169
 7.6000e+001 190518 -4.7778e+005  4.8332e+004  1.5504e+004 189124 190368,190446,190420
 7.6000e+001 190495 -5.6177e+005  2.1443e+004 -4.5301e+003 189124 190342,190446,190368
 7.6000e+001 190472 -9.8694e+005 -5.3126e+004 -4.8605e+004 189124 190368,190420,190394
 7.6000e+001 190619 -4.5043e+005 -4.5445e+004 -6.2384e+003 188926 190541,190593,190567
 7.6000e+001 190771 -4.8767e+005 -7.5173e+004  1.3391e+004 188614 190670,190722,190696
 7.6000e+001 190748 -5.5821e+005  1.6473e+005  5.4329e+004 188614 190644,190722,190670
 7.6000e+001 190972 -5.1062e+005 -5.2031e+005 -3.6767e+005 188324 190848,190900,190874
 7.6000e+001 190949 -5.1073e+005 -7.9372e+005 -5.2202e+005 188324 190796,190900,190848
 7.6000e+001 190926 -9.9017e+004 -3.6864e+005 -2.4860e+005 188324 190796,190848,190822
 7.6000e+001 191124 -6.9006e+005 -9.8200e+005 -1.6117e+005 188034 191023,191075,191049
 7.6000e+001 191101 -1.5633e+005 -1.1132e+006 -1.1719e+005 188034 190997,191075,191023
 7.6000e+001 191276 -2.0400e+005 -1.1644e+006 -9.1369e+004 187836 191149,191201,191175
 7.6000e+001 191253 -2.8145e+005 -6.1166e+005  2.0658e+005 187836 191149,191227,191201
 7.6000e+001 191379 -4.5856e+005 -3.3730e+005 -1.0003e+005 187546 191301,191353,191327
 7.6000e+001 191531 -2.6961e+005 -3.8044e+006  3.2646e+005 187256 191430,191482,191456
 7.6000e+001 191508 -1.1369e+006 -5.4844e+006 -1.7164e+006 187256 191404,191482,191430
 7.6000e+001 191634 -7.4079e+005  2.1894e+004 -1.6237e+004 187058 191556,191608,191582
 7.6000e+001 191835 -5.1029e+005  1.9632e+004 -2.1347e+004 186860 191659,191711,191685
 7.6000e+001 191812 -3.3294e+005 -1.0353e+005  7.7399e+003 186860 191659,191737,191711
 7.6000e+001 191789 -2.9183e+005 -6.3472e+003 -4.2972e+004 186860 191659,191763,191737
 7.6000e+001 191987 -1.8119e+005 -7.2603e+005 -2.5240e+005 186662 191886,191938,191912
 7.6000e+001 191964  1.8458e+005 -1.7818e+006  4.2857e+005 186662 191860,191938,191886
 7.6000e+001 192090 -7.3596e+005 -1.9383e+006 -3.8070e+005 186486 192012,192064,192038
 7.6000e+001 192242 -1.3564e+005 -7.9683e+006 -3.2439e+005 186288 192115,192167,192141
 7.6000e+001 192219 -8.3915e+005 -4.8318e+006  1.8458e+005 186288 192115,192193,192167
 7.6000e+001 192394  1.1584e+005 -6.4748e+006 -2.5446e+005 185935 192293,192345,192319
 7.6000e+001 192371 -5.5635e+005 -4.4133e+006 -7.2813e+005 185935 192267,192345,192293
 7.6000e+001 192546 -4.5905e+005 -3.3275e+006 -7.5202e+005 185675 192419,192471,192445
 7.6000e+001 192523 -9.7121e+005 -1.6235e+006 -8.0457e+005 185675 192419,192497,192471
 7.6000e+001 192649 -8.2790e+005 -2.3228e+006 -3.7599e+005 185499 192571,192623,192597
 7.6000e+001 192801 -2.6694e+005 -1.2290e+006  7.1307e+004 185301 192674,192726,192700
 7.6000e+001 192778 -1.6698e+005 -1.3738e+006  5.2539e+005 185301 192674,192752,192726
 7.6000e+001 193002 -9.0597e+004 -6.1880e+005 -4.0426e+005 185046 192852,192930,192878
 7.6000e+001 192979 -3.7193e+005 -1.6082e+006 -2.4371e+005 185046 192826,192930,192852
 7.6000e+001 192956  4.4944e+005 -2.0337e+006 -1.2031e+004 185046 192878,192930,192904
 7.6000e+001 193203  1.6958e+005 -5.4833e+006 -7.8998e+005 184798 193079,193131,193105
 7.6000e+001 193180 -9.7962e+005 -3.4886e+006 -2.6584e+005 184798 193027,193131,193079
 7.6000e+001 193157 -1.5985e+006 -3.6794e+006  2.7316e+005 184798 193027,193079,193053
 7.6000e+001 193404 -2.3377e+005 -5.0403e+006 -1.3065e+006 184600 193254,193306,193280
 7.6000e+001 193381 -5.4702e+005 -1.4611e+006 -2.0156e+005 184600 193254,193332,193306
 7.6000e+001 193358 -8.8250e+005 -4.2000e+005 -4.1758e+005 184600 193228,193332,193254
 7.6000e+001 193556 -6.5231e+005 -5.1963e+005 -5.7548e+005 184402 193429,193481,193455
 7.6000e+001 193533 -6.2866e+005 -5.4645e+005 -5.5529e+005 184402 193429,193507,193481
 7.6000e+001 193708  3.9915e+004 -1.6979e+006  1.3431e+005 184204 193607,193659,193633
 7.6000e+001 193685 -5.1186e+005 -6.3760e+006 -1.1737e+006 184204 193581,193659,193607
 7.6000e+001 193860 -5.9166e+005 -7.1011e+005  4.2969e+005 183908 193759,193811,193785
 7.6000e+001 193837 -6.8935e+004 -1.4272e+006  4.9683e+005 183908 193733,193811,193759
 7.6000e+001 194061 -2.7546e+005 -3.1869e+005  1.8772e+005 183710 193911,193989,193937
 7.6000e+001 194038 -6.0905e+005 -1.0187e+006  5.0059e+005 183710 193885,193989,193911
 7.6000e+001 194015 -4.0269e+005 -1.2685e+006  4.0617e+005 183710 193937,193989,193963
 7.6000e+001 194262 -6.5060e+005 -2.7281e+006 -7.2684e+005 183420 194086,194164,194112
 7.6000e+001 194239 -6.5465e+005 -2.5656e+006 -4.4708e+005 183420 194086,194190,194164
 7.6000e+001 194216  5.0038e+005 -7.0603e+006  1.3477e+006 183420 194112,194164,194138
 7.6000e+001 194414 -5.8842e+005 -5.6337e+006 -2.4006e+005 183222 194287,194339,194313
 7.6000e+001 194391 -3.3932e+005 -1.5687e+006 -4.3692e+005 183222 194287,194365,194339
 7.6000e+001 194517 -1.0284e+006 -8.9432e+005 -5.1459e+004 183024 194439,194491,194465
 7.6000e+001 194718  1.7890e+006 -1.5526e+007  1.4390e+006 182734 194568,194620,194594
 7.6000e+001 194695 -1.1582e+006 -4.4776e+006 -3.3100e+006 182734 194542,194620,194568
 7.6000e+001 194672 -3.3845e+006 -2.1047e+006 -1.6129e+006 182734 194542,194646,194620
 7.6000e+001 194870 -4.7708e+005 -3.0702e+005  3.4745e+005 182444 194769,194821,194795
 7.6000e+001 194847 -5.1930e+005 -8.7923e+005  6.7871e+005 182444 194743,194821,194769
 7.6000e+001 195071 -3.0472e+005 -1.3709e+006  8.1003e+005 182154 194895,194947,194921
 7.6000e+001 195048 -3.5598e+005 -4.9061e+005  1.5957e+005 182154 194895,194999,194947
 7.6000e+001 195025 -3.3104e+005 -1.5613e+005  2.0301e+005 182154 194947,194999,194973
 7.6000e+001 195223 -3.3371e+005 -3.5003e+005 -1.7356e+005 181814 195096,195148,195122
 7.6000e+001 195200 -5.6501e+005 -1.8233e+006 -1.2764e+006 181814 195096,195174,195148
 7.6000e+001 195375 -2.8309e+004 -4.5810e+004 -2.5914e+004 181524 195248,195300,195274
 7.6000e+001 195352  1.5771e+004 -2.2435e+005 -2.8952e+003 181524 195248,195326,195300
 7.6000e+001 195527 -2.2536e+005 -1.6977e+004  3.4752e+005 181326 195426,195478,195452
 7.6000e+001 195504 -1.2399e+006 -8.0422e+005  1.0424e+006 181326 195400,195478,195426
 7.6000e+001 195679 -3.4022e+004 -9.6697e+006 -5.5058e+005 180936 195578,195630,195604
 7.6000e+001 195656 -5.7448e+005 -4.1219e+006 -3.6264e+005 180936 195552,195630,195578
 7.6000e+001 195831 -4.5994e+005 -3.7754e+005 -1.7897e+005 180646 195704,195756,195730
 7.6000e+001 195808 -7.3388e+005 -2.4656e+004  1.4828e+004 180646 195704,195782,195756
 7.6000e+001 196032 -2.9515e+005 -2.0932e+006  3.9494e+005 180306 195882,195960,195934
 7.6000e+001 196009 -3.7274e+005 -8.5402e+005 -2.6366e+005 180306 195856,195960,195882
 7.6000e+001 195986  2.4855e+004 -2.2688e+006  1.7215e+005 180306 195882,195934,195908
 7.6000e+001 196233 -2.5542e+005 -1.9422e+005 -9.3034e+005 179944 196057,196109,196083
 7.6000e+001 196210 -9.3938e+005 -3.4849e+006  4.3363e+005 179944 196057,196135,196109
 7.6000e+001 196187 -2.0326e+006  4.5978e+006 -1.5062e+006 179944 196057,196161,196135
 7.6000e+001 196385 -5.7266e+005 -6.7895e+005 -4.3563e+005 179604 196258,196310,196284
 7.6000e+001 196362 -8.3770e+005 -1.0758e+006 -1.0210e+006 179604 196258,196336,196310
 7.6000e+001 196586 -9.2102e+005 -5.9392e+005 -7.3686e+005 179114 196410,196488,196436
 7.6000e+001 196563 -6.6402e+005 -1.9829e+006 -7.3572e+005 179114 196410,196514,196488
 7.6000e+001 196540 -5.0619e+003 -5.4438e+005 -5.4387e+004 179114 196436,196488,196462
 7.6000e+001 196738 -7.3169e+005 -1.6096e+006 -7.0512e+005 178674 196611,196663,196637
 7.6000e+001 196715  5.1422e+004 -3.6712e+006 -1.6675e+005 178674 196611,196689,196663
 7.6000e+001 196939  1.0193e+004 -8.8932e+006 -3.1509e+006 178334 196789,196867,196841
 7.6000e+001 196916 -1.9715e+006 -9.2301e+006  7.5578e+003 178334 196763,196867,196789
 7.6000e+001 196893 -2.2550e+006 -7.5232e+006 -4.2159e+006 178334 196789,196841,196815
 7.6000e+001 197091 -4.2875e+005 -2.4542e+006 -4.2707e+005 177930 196990,197042,197016
 7.6000e+001 197068 -5.4438e+005 -2.7510e+006 -6.7923e+004 177930 196964,197042,196990
 7.6000e+001 197194 -9.7293e+002 -3.4159e+002 -5.3454e+002 177732 197116,197168,197142
 7.6000e+001 197346 -4.4892e+005 -5.4984e+006  2.3143e+005 177534 197219,197271,197245
 7.6000e+001 197323 -1.9130e+005 -6.0132e+006  4.9684e+005 177534 197219,197297,197271
 7.6000e+001 197547 -1.7157e+006 -9.1991e+006 -3.9458e+006 177130 197397,197449,197423
 7.6000e+001 197524 -2.3744e+006 -9.7335e+006 -3.3350e+006 177130 197397,197475,197449
 7.6000e+001 197501 -1.0654e+006 -8.8565e+006 -2.6696e+006 177130 197371,197475,197397
 7.6000e+001 197748 -6.2295e+005 -5.3620e+006  4.9356e+005 176790 197598,197676,197624
 7.6000e+001 197725 -4.3588e+005 -4.1154e+006  6.9134e+005 176790 197572,197676,197598
 7.6000e+001 197702 -4.6773e+005 -4.5891e+006  4.4043e+005 176790 197624,197676,197650
 7.6000e+001 197900 -2.9922e+005 -2.8542e+006 -4.9452e+005 176300 197773,197825,197799
 7.6000e+001 197877 -3.8088e+004 -4.2826e+006 -3.8214e+005 176300 197773,197851,197825
 7.6000e+001 198052 -6.8013e+005 -5.4246e+006 -9.3247e+005 176010 197925,197977,197951
 7.6000e+001 198029 -3.5423e+005 -4.6302e+006 -1.1738e+006 176010 197925,198003,197977
 7.6000e+001 198204 -9.4776e+005 -3.4244e+006 -1.4162e+006 175670 198103,198155,198129
 7.6000e+001 198181 -1.2901e+006 -2.8815e+006 -3.9649e+005 175670 198077,198155,198103
 7.6000e+001 198405 -7.2892e+004 -3.7596e+006 -5.7280e+005 175266 198255,198307,198281
 7.6000e+001 198382  4.6437e+004 -4.5062e+006 -1.2028e+006 175266 198229,198307,198255
 7.6000e+001 198359 -9.3113e+005 -3.6387e+006 -1.8405e+006 175266 198229,198333,198307
 7.6000e+001 198606  6.3013e+002 -1.3982e+004 -1.7654e+001 174876 198430,198508,198482
 7.6000e+001 198583  2.9439e+003 -1.3567e+004  1.4641e+003 174876 198430,198534,198508
 7.6000e+001 198560 -2.6147e+003 -3.5601e+003 -3.1577e+003 174876 198430,198482,198456
 7.6000e+001 198758 -4.1156e+002 -9.2146e+001 -8.9261e+002 174536 198657,198709,198683
 7.6000e+001 198735 -9.0204e+002 -5.6018e+002  7.6823e+002 174536 198631,198709,198657
 7.6000e+001 199008 -9.8950e+005 -5.1738e+006 -6.6481e+004 174132 198835,198913,198887
 7.6000e+001 198985 -6.7550e+005 -2.0839e+006  2.5474e+005 174132 198809,198913,198835
 7.6000e+001 198962 -6.5685e+005 -2.3258e+006 -1.3679e+006 174132 198783,198913,198809
 7.6000e+001 198939 -4.0417e+005 -5.4840e+006 -1.0587e+004 174132 198835,198887,198861
 7.6000e+001 199160 -1.0218e+006 -2.6805e+006 -6.1253e+005 173842 199059,199111,199085
 7.6000e+001 199137 -4.2278e+005 -1.3047e+006 -1.4532e+005 173842 199033,199111,199059
 7.6000e+001 199361 -7.2878e+005 -3.8966e+006  1.1649e+006 173438 199237,199289,199263
 7.6000e+001 199338 -3.5597e+005 -4.3460e+006  1.2093e+006 173438 199211,199289,199237
 7.6000e+001 199315 -4.7246e+004 -6.4635e+006 -5.8444e+005 173438 199185,199289,199211
 7.6000e+001 199513 -8.1159e+005 -5.2699e+006 -6.2319e+004 173190 199386,199438,199412
 7.6000e+001 199490 -1.4787e+006 -5.9277e+006  4.1436e+005 173190 199386,199464,199438
 7.6000e+001 199665 -4.7891e+005 -1.5450e+006  2.5762e+005 172750 199564,199616,199590
 7.6000e+001 199642 -9.1138e+005 -8.7110e+005 -2.0700e+004 172750 199538,199616,199564
 7.6000e+001 199817 -2.1049e+005 -3.0232e+006 -1.0092e+006 172524 199690,199742,199716
 7.6000e+001 199794 -1.3595e+006 -9.5841e+005 -6.0295e+005 172524 199690,199768,199742
 7.6000e+001 199969 -6.3082e+003 -6.0963e+006 -1.9757e+005 172348 199842,199894,199868
 7.6000e+001 199946  1.9066e+005 -6.0584e+006 -6.4967e+004 172348 199842,199920,199894
 7.6000e+001 200121  7.5854e+004 -1.5234e+006 -2.8712e+005 172008 199994,200046,200020
 7.6000e+001 200098 -1.6669e+005 -4.7113e+005 -1.1919e+005 172008 199994,200072,200046
 7.6000e+001 200273 -2.1737e+006 -7.7155e+006 -3.1779e+006 171668 200172,200224,200198
 7.6000e+001 200250 -1.4826e+006 -7.3895e+006 -2.1172e+006 171668 200146,200224,200172
 7.6000e+001 200474  1.8623e+005 -4.1356e+006 -6.6104e+005 171264 200350,200402,200376
 7.6000e+001 200451 -1.9309e+005 -4.5760e+006 -9.0888e+005 171264 200324,200402,200350
 7.6000e+001 200428 -3.1226e+005 -3.0465e+006  9.7532e+005 171264 200298,200402,200324
 7.6000e+001 200626 -1.0563e+006 -4.5011e+006 -7.6283e+005 170832 200525,200577,200551
 7.6000e+001 200603 -2.8188e+005 -2.7245e+006 -1.6268e+005 170832 200499,200577,200525
 7.6000e+001 200827 -4.4676e+004 -1.5059e+006  3.7548e+005 170492 200677,200729,200703
 7.6000e+001 200804 -9.1744e+005 -6.6133e+005 -3.0480e+005 170492 200651,200729,200677
 7.6000e+001 200781 -6.7577e+005 -8.9537e+005 -4.8177e+005 170492 200651,200755,200729
 7.6000e+001 201077 -6.3388e+005 -2.3233e+006 -2.0276e+005 170088 200878,200956,200904
 7.6000e+001 201054 -4.7260e+005 -1.2421e+006 -1.9697e+005 170088 200852,200956,200878
 7.6000e+001 201031 -8.2685e+005 -1.2959e+006  1.9921e+006 170088 200904,200956,200930
 7.6000e+001 201008  5.6640e+004 -1.7405e+006  1.4808e+005 170088 200852,200982,200956
 7.6000e+001 201278 -9.1719e+003 -2.0717e+005 -7.8398e+004 169798 201102,201154,201128
 7.6000e+001 201255 -1.2742e+005 -6.3945e+005 -1.3604e+005 169798 201102,201206,201154
 7.6000e+001 201232 -9.0751e+005  1.1789e+005  1.0035e+005 169798 201154,201206,201180
 7.6000e+001 201430 -1.2337e+005 -2.4846e+006 -5.3457e+005 169337 201303,201355,201329
 7.6000e+001 201407 -1.1264e+005 -8.0094e+005 -1.5266e+005 169337 201303,201381,201355
 7.6000e+001 201631 -2.4001e+005 -3.0493e+006  5.8347e+005 168883 201481,201559,201507
 7.6000e+001 201608 -3.0146e+005 -2.5539e+006  8.8568e+005 168883 201455,201559,201481
 7.6000e+001 201585 -1.8648e+005 -2.0018e+006  6.5918e+005 168883 201507,201559,201533
 7.6000e+001 201832  3.0506e+005 -6.9393e+006  3.4751e+005 168479 201682,201734,201708
 7.6000e+001 201809 -2.0870e+006 -5.0931e+006 -1.2815e+006 168479 201656,201734,201682
 7.6000e+001 201786 -1.7459e+006 -3.7432e+006  1.9355e+004 168479 201656,201760,201734
 7.6000e+001 202033 -2.0048e+005 -2.3592e+006  1.7156e+005 167825 201883,201935,201909
 7.6000e+001 202010 -1.1800e+006 -3.2419e+006 -1.4174e+006 167825 201857,201935,201883
 7.6000e+001 201987  3.0015e+005 -8.9885e+006 -6.4026e+005 167825 201857,201961,201935
 7.6000e+001 202234 -2.3833e+005 -3.3945e+005  1.1198e+005 167435 202058,202136,202084
 7.6000e+001 202211 -6.9811e+005 -7.4278e+005  4.7972e+005 167435 202058,202162,202136
 7.6000e+001 202188 -4.0757e+005 -1.7108e+005  2.4781e+005 167435 202084,202136,202110
 7.6000e+001 202386  3.5352e+004 -1.5890e+006  2.6722e+005 167002 202285,202337,202311
 7.6000e+001 202363 -2.9817e+005 -4.2542e+005  2.7355e+005 167002 202259,202337,202285
 7.6000e+001 202538 -2.8120e+006 -1.9096e+006 -2.0504e+006 166662 202411,202463,202437
 7.6000e+001 202515 -8.7210e+005 -4.6677e+006 -3.3580e+006 166662 202411,202489,202463
 7.6000e+001 202690 -7.8542e+003 -1.7381e+006 -7.0190e+005 166322 202589,202641,202615
 7.6000e+001 202667 -1.2743e+004 -9.1819e+005 -6.1940e+004 166322 202563,202641,202589
 7.6000e+001 202891 -1.6440e+005 -3.9883e+004 -9.4345e+003 165918 202715,202767,202741
 7.6000e+001 202868 -2.3035e+005 -4.2408e+005 -2.8239e+005 165918 202715,202793,202767
 7.6000e+001 202845 -4.8564e+005 -6.1373e+005 -1.5259e+005 165918 202715,202819,202793
 7.6000e+001 203092  1.6992e+005 -2.2944e+006 -3.2814e+005 165628 202916,202968,202942
 7.6000e+001 203069 -1.0895e+005 -1.2323e+006 -3.9083e+005 165628 202916,202994,202968
 7.6000e+001 203046 -2.0549e+005 -1.1373e+006 -4.8249e+005 165628 202916,203020,202994
 7.6000e+001 203293 -3.7327e+006 -2.0378e+006 -2.7021e+006 165266 203143,203195,203169
 7.6000e+001 203270 -1.4654e+006 -5.3611e+006 -6.1835e+005 165266 203143,203221,203195
 7.6000e+001 203247 -9.4548e+005 -5.6923e+006 -1.0139e+006 165266 203117,203221,203143
 7.6000e+001 203445 -2.7974e+005 -1.1263e+006  4.0032e+005 164826 203318,203370,203344
 7.6000e+001 203422 -9.2752e+004 -7.2501e+005 -6.0652e+004 164826 203318,203396,203370
 7.6000e+001 203597 -4.7282e+005 -1.8402e+006 -2.7432e+005 164386 203470,203522,203496
 7.6000e+001 203574 -6.1729e+005 -2.0819e+006 -5.2265e+005 164386 203470,203548,203522
 7.6000e+001 203798 -1.4210e+005 -3.3736e+004 -9.6358e+003 163996 203622,203674,203648
 7.6000e+001 203775 -6.7607e+005 -7.2033e+004  1.6788e+005 163996 203622,203726,203674
 7.6000e+001 203752 -6.2537e+005 -4.0247e+003 -4.1690e+004 163996 203674,203726,203700
 7.6000e+001 203901 -5.3888e+005 -1.2827e+006 -6.3936e+004 163770 203823,203875,203849
 7.6000e+001 204053 -1.6679e+006 -2.7702e+006 -9.4321e+005 163474 203952,204004,203978
 7.6000e+001 204030 -2.1631e+006 -3.3975e+006 -1.8661e+006 163474 203926,204004,203952
 7.6000e+001 204205 -1.1157e+004 -1.4239e+006 -3.1230e+005 163034 204104,204156,204130
 7.6000e+001 204182 -3.5871e+005 -1.7053e+006 -5.8119e+005 163034 204078,204156,204104
 7.6000e+001 204357 -1.1457e+005 -1.8750e+004  4.2699e+004 162624 204256,204308,204282
 7.6000e+001 204334 -6.6859e+004 -1.8955e+004  1.1708e+005 162624 204230,204308,204256
 7.6000e+001 204509  3.7615e+002  1.8368e+001  5.6361e+002 162200 204382,204434,204408
 7.6000e+001 204486  2.5103e+002 -8.7133e+002  7.1178e+002 162200 204382,204460,204434
 7.6000e+001 204710 -1.8348e+006 -2.6207e+005  1.4592e+005 161810 204560,204638,204586
 7.6000e+001 204687 -1.3284e+006 -8.8058e+005 -7.2416e+005 161810 204534,204638,204560
 7.6000e+001 204664 -1.5445e+006 -2.2672e+005  5.0361e+005 161810 204586,204638,204612
 7.6000e+001 204862 -8.0415e+005 -9.8865e+005 -4.9481e+005 161406 204735,204787,204761
 7.6000e+001 204839 -7.7914e+005 -1.0197e+006 -4.8598e+005 161406 204735,204813,204787
 7.6000e+001 205014  3.7945e+003 -1.8837e+002  2.4359e+003 161180 204887,204939,204913
 7.6000e+001 204991 -1.4389e+003  3.7164e+003  8.9897e+002 161180 204887,204965,204939
 7.6000e+001 205215 -8.3820e+005 -1.3054e+006 -1.6615e+006 160726 205039,205091,205065
 7.6000e+001 205192 -1.3605e+006 -3.4050e+006 -1.6612e+006 160726 205039,205143,205091
 7.6000e+001 205169 -1.5739e+006 -1.8812e+006 -1.7778e+006 160726 205091,205143,205117
 7.6000e+001 205416 -5.7020e+004 -1.5076e+004  2.9445e+004 160272 205292,205344,205318
 7.6000e+001 205393 -1.7759e+005  1.8521e+004 -5.8018e+004 160272 205240,205344,205292
 7.6000e+001 205370 -1.8306e+005 -1.6439e+002 -5.3386e+004 160272 205240,205292,205266
 7.6000e+001 205568 -1.3176e+003 -2.3892e+003  1.4173e+003 159932 205441,205493,205467
 7.6000e+001 205545 -5.0414e+002  4.4115e+002  9.1705e+002 159932 205441,205519,205493
 7.6000e+001 205720 -1.3311e+002  6.4786e+002 -6.8570e+002 159542 205593,205645,205619
 7.6000e+001 205697  2.2054e+002 -1.9249e+002 -1.1164e+003 159542 205593,205671,205645
 7.6000e+001 205872  1.5490e+003 -2.6450e+002 -6.8926e+002 159252 205745,205797,205771
 7.6000e+001 205849  1.1417e+003 -1.6359e+003 -6.4638e+000 159252 205745,205823,205797
 7.6000e+001 206024 -1.2829e+005 -7.6873e+005  2.9401e+005 159004 205923,205975,205949
 7.6000e+001 206001 -7.7818e+004 -1.3607e+006  4.2648e+005 159004 205897,205975,205923
 7.6000e+001 206127 -4.8693e+006 -4.1102e+006  3.3793e+003 158364 206049,206101,206075
 7.6000e+001 206328 -1.8749e+003 -1.1513e+003 -9.9871e+002 157960 206178,206256,206204
 7.6000e+001 206305  1.0325e+003 -1.5895e+003 -1.6464e+003 157960 206152,206256,206178
 7.6000e+001 206282 -5.8815e+002  2.6075e+002 -8.1598e+001 157960 206204,206256,206230
 7.6000e+001 206529 -1.6822e+006 -4.6421e+006  1.1410e+006 157648 206405,206457,206431
 7.6000e+001 206506 -2.7765e+006 -1.2509e+006  9.9044e+005 157648 206379,206457,206405
 7.6000e+001 206483 -2.8333e+006 -9.0826e+005  1.4170e+006 157648 206353,206457,206379
 7.6000e+001 206730 -1.1422e+005 -5.1549e+004  6.9411e+004 157208 206554,206606,206580
 7.6000e+001 206707 -6.4050e+004 -4.0863e+004  4.5400e+004 157208 206554,206632,206606
 7.6000e+001 206684 -1.8150e+005 -6.9427e+004  4.9761e+004 157208 206554,206658,206632
 7.6000e+001 206882  6.7698e+002 -1.1653e+002  2.9835e+002 157010 206755,206807,206781
 7.6000e+001 206859  2.4375e+002 -2.0392e+002  4.0425e+002 157010 206755,206833,206807
 7.6000e+001 207034  1.4334e+002  1.3782e+002 -9.6347e+001 156620 206907,206959,206933
 7.6000e+001 207011 -8.3509e+001 -9.4128e+001  5.3335e+001 156620 206907,206985,206959
 7.6000e+001 207186 -1.1102e+005 -1.0817e+006 -5.1940e+004 156330 207085,207137,207111
 7.6000e+001 207163 -3.5120e+005 -1.2139e+006 -8.9062e+005 156330 207059,207137,207085
 7.6000e+001 207387 -9.1636e+005 -1.3799e+006 -1.9405e+005 155890 207211,207289,207237
 7.6000e+001 207364 -1.5987e+006 -1.5835e+006 -8.1440e+005 155890 207211,207315,207289
 7.6000e+001 207341 -3.4728e+005 -9.8438e+005  8.8788e+004 155890 207237,207289,207263
 7.6000e+001 207588 -5.4278e+005 -2.0281e+007  7.5338e+006 155436 207438,207490,207464
 7.6000e+001 207565 -1.2485e+006 -1.4291e+007 -9.6404e+005 155436 207412,207490,207438
 7.6000e+001 207542 -2.5501e+006 -7.0921e+006 -1.1638e+006 155436 207412,207516,207490
 7.6000e+001 207789  1.7263e+006 -2.9771e+007 -2.0003e+006 155260 207639,207691,207665
 7.6000e+001 207766 -3.7324e+006 -9.2387e+006  4.4932e+006 155260 207613,207691,207639
 7.6000e+001 207743 -1.3876e+006 -6.8653e+006 -7.2582e+004 155260 207613,207717,207691
 7.6000e+001 207990  4.6586e+002 -7.8118e+001 -6.9545e+002 154920 207840,207918,207892
 7.6000e+001 207967  2.0849e+002  2.1437e+002  8.8492e+002 154920 207814,207918,207840
 7.6000e+001 207944  1.2517e+003 -8.3022e+002 -3.7572e+002 154920 207840,207892,207866
 7.6000e+001 208191 -1.2193e+003 -5.3326e+004  3.9455e+003 154630 208015,208093,208041
 7.6000e+001 208168  1.2976e+003 -5.8218e+004 -6.3919e+002 154630 208015,208119,208093
 7.6000e+001 208145 -9.6557e+003 -1.4233e+004 -1.2105e+004 154630 208041,208093,208067
 7.6000e+001 208343  1.9166e+002  1.0907e+003 -9.3699e+001 154240 208216,208268,208242
 7.6000e+001 208320  9.1997e+002  2.5380e+003  1.2249e+003 154240 208216,208294,208268
 7.6000e+001 208495  6.6486e+005 -5.2433e+006 -8.0129e+005 153950 208394,208446,208420
 7.6000e+001 208472 -5.3123e+005 -2.6096e+006  1.0181e+006 153950 208368,208446,208394
 7.6000e+001 208647 -1.2787e+006 -8.3251e+005  2.1796e+006 153603 208520,208572,208546
 7.6000e+001 208624 -1.1808e+006 -1.6172e+006 -1.0377e+006 153603 208520,208598,208572
 7.6000e+001 208848 -1.1066e+006 -3.9405e+005  7.6565e+004 153149 208698,208776,208724
 7.6000e+001 208825 -2.2738e+006  5.4343e+004  1.7302e+005 153149 208672,208776,208698
 7.6000e+001 208802 -5.6127e+005 -2.7243e+005  3.9176e+005 153149 208724,208776,208750
 7.6000e+001 209000 -3.6636e+005 -1.3353e+006  1.2093e+005 152859 208873,208925,208899
 7.6000e+001 208977  4.1801e+005 -4.2668e+006  4.9941e+005 152859 208873,208951,208925
 7.6000e+001 209152  2.3598e+005 -2.4808e+006  2.5910e+005 152569 209051,209103,209077
 7.6000e+001 209129  3.9702e+005 -3.5799e+006 -3.4470e+005 152569 209025,209103,209051
 7.6000e+001 209304  2.3870e+002 -8.8142e+002  2.4380e+002 152065 209177,209229,209203
 7.6000e+001 209281  2.6572e+002 -9.7517e+001  1.1328e+001 152065 209177,209255,209229
 7.6000e+001 209456 -1.6675e+006 -1.7457e+006 -4.1430e+005 151775 209355,209407,209381
 7.6000e+001 209433 -1.3371e+006 -5.9105e+006 -5.5864e+005 151775 209329,209407,209355
 7.6000e+001 209608 -1.0364e+006 -4.1685e+006 -1.5676e+006 151371 209481,209533,209507
 7.6000e+001 209585  9.2909e+005 -8.4049e+006 -4.4185e+005 151371 209481,209559,209533
 7.6000e+001 209760 -2.7043e+004 -1.5121e+004  3.4917e+004 150981 209659,209711,209685
 7.6000e+001 209737  8.3795e+003 -6.1437e+004 -4.3201e+004 150981 209633,209711,209659
 7.6000e+001 209912  2.2431e+006 -3.0675e+007 -2.7194e+006 150619 209811,209863,209837
 7.6000e+001 209889 -2.8437e+006 -1.2725e+007  3.4474e+006 150619 209785,209863,209811
 7.6000e+001 210064 -2.4038e+004 -9.7966e+004  4.0929e+004 150279 209937,209989,209963
 7.6000e+001 210041 -2.9621e+004 -1.8310e+005  4.8809e+004 150279 209937,210015,209989
 7.6000e+001 210265 -3.4840e+006 -5.6667e+006 -2.8471e+005 149989 210115,210167,210141
 7.6000e+001 210242 -1.1037e+006 -6.3584e+006 -1.3393e+006 149989 210115,210193,210167
 7.6000e+001 210219 -7.8591e+005 -6.7521e+006 -1.1339e+006 149989 210089,210193,210115
 7.6000e+001 210417 -9.2279e+004 -5.0516e+004  7.2882e+004 149599 210316,210368,210342
 7.6000e+001 210394  3.9212e+004 -2.7693e+005  3.4529e+004 149599 210290,210368,210316
 7.6000e+001 210618 -3.1031e+006 -1.3459e+007  3.3102e+006 149095 210468,210520,210494
 7.6000e+001 210595 -2.8796e+006 -1.3371e+007  2.9730e+006 149095 210442,210520,210468
 7.6000e+001 210572 -1.2569e+006 -1.5781e+007  2.7000e+006 149095 210442,210546,210520
 7.6000e+001 210819 -2.5972e+002 -5.0445e+004  7.0046e+003 148748 210695,210747,210721
 7.6000e+001 210796  6.5617e+003 -2.0645e+004  7.8029e+003 148748 210669,210747,210695
 7.6000e+001 210773 -5.4856e+003 -1.6603e+004  9.6687e+003 148748 210643,210747,210669
 7.6000e+001 210971  7.0792e+002 -8.4090e+001  4.3374e+002 148408 210870,210922,210896
 7.6000e+001 210948  8.5518e+002 -2.9339e+002  5.4765e+002 148408 210844,210922,210870
 7.6000e+001 211123 -2.5886e+005 -2.1250e+006  5.3947e+005 148118 210996,211048,211022
 7.6000e+001 211100 -1.1276e+006 -2.1395e+006  1.3278e+006 148118 210996,211074,211048
 7.6000e+001 211275 -7.7705e+005 -1.6505e+006  9.3330e+005 147778 211148,211200,211174
 7.6000e+001 211252 -1.2004e+006 -3.0714e+006  1.9762e+006 147778 211148,211226,211200
 7.6000e+001 211427 -5.6859e+005  9.0234e+004  1.3670e+005 147324 211326,211378,211352
 7.6000e+001 211404  1.1480e+005 -5.7029e+005  6.7556e+004 147324 211300,211378,211326
 7.6000e+001 211628 -2.0357e+006 -1.2435e+006  8.4851e+005 147012 211452,211504,211478
 7.6000e+001 211605 -1.9876e+006  8.4053e+005  1.2059e+006 147012 211452,211556,211504
 7.6000e+001 211582 -1.8770e+006 -4.0125e+005  1.7589e+006 147012 211504,211556,211530
 7.6000e+001 211829 -6.5408e+005 -1.3723e+006  5.1915e+005 146636 211679,211757,211731
 7.6000e+001 211806  2.4119e+005 -1.7003e+006  6.3066e+005 146636 211653,211757,211679
 7.6000e+001 211783 -7.0378e+005 -2.3265e+006  1.8192e+006 146636 211679,211731,211705
 7.6000e+001 211981  6.3714e+002 -4.7643e+002 -1.2545e+001 146246 211880,211932,211906
 7.6000e+001 211958  2.1442e+002 -1.4742e+002 -3.3743e+002 146246 211854,211932,211880
 7.6000e+001 212133  1.6598e+003 -1.1623e+003  8.1345e+002 145956 212006,212058,212032
 7.6000e+001 212110 -3.0283e+001  2.8473e+002  5.2379e+002 145956 212006,212084,212058
 7.6000e+001 212285 -3.9604e+002  1.7147e+002 -1.7478e+002 145544 212184,212236,212210
 7.6000e+001 212262 -1.6328e+002 -1.5995e+002  6.1921e+001 145544 212158,212236,212184
 7.6000e+001 212486 -8.6545e+005 -1.5961e+007  4.3335e+006 144990 212362,212414,212388
 7.6000e+001 212463  2.8544e+005 -1.3262e+007  5.9285e+006 144990 212310,212414,212362
 7.6000e+001 212440 -4.9122e+006 -2.4197e+006  2.3801e+006 144990 212310,212362,212336
 7.6000e+001 212638 -2.0522e+004 -9.4688e+004  3.9369e+004 144600 212537,212589,212563
 7.6000e+001 212615 -1.9378e+004 -9.2925e+004  3.6222e+004 144600 212511,212589,212537
 7.6000e+001 212839 -2.0795e+005 -1.4996e+006  3.3449e+005 144210 212689,212741,212715
 7.6000e+001 212816 -2.5622e+005 -1.6152e+006  5.0009e+005 144210 212663,212741,212689
 7.6000e+001 212793 -2.6505e+005 -1.6555e+006  5.3772e+005 144210 212663,212767,212741
 7.6000e+001 212991 -9.0945e+003 -2.5114e+004 -1.7595e+003 143920 212890,212942,212916
 7.6000e+001 212968  5.0562e+003 -5.8968e+004  5.0766e+003 143920 212864,212942,212890
 7.6000e+001 213143  2.2632e+002 -1.3778e+002  2.8934e+002 143480 213016,213068,213042
 7.6000e+001 213120  1.9116e+002  7.6773e+000  1.5066e+002 143480 213016,213094,213068
 7.6000e+001 213295 -9.1495e+004 -2.8957e+005  1.4890e+005 142990 213194,213246,213220
 7.6000e+001 213272 -1.0748e+005 -2.5642e+005  3.2695e+004 142990 213168,213246,213194
 7.6000e+001 213447  1.7398e+005 -2.0875e+006  9.9326e+005 142600 213320,213372,213346
 7.6000e+001 213424 -4.1699e+005 -1.7727e+006  7.0335e+005 142600 213320,213398,213372
 7.6000e+001 213599 -6.8370e+003 -9.4624e+004  1.1412e+004 142260 213472,213524,213498
 7.6000e+001 213576 -2.6502e+004 -1.1065e+005  7.2317e+004 142260 213472,213550,213524
 7.6000e+001 213751 -7.3609e+004 -2.6342e+005 -1.3634e+005 141870 213624,213676,213650
 7.6000e+001 213728 -8.6310e+004 -2.8862e+005 -9.7604e+004 141870 213624,213702,213676
 7.6000e+001 213903 -1.6136e+006 -1.8820e+006 -1.7308e+006 141530 213776,213828,213802
 7.6000e+001 213880 -4.4423e+005 -2.1957e+006 -8.7160e+005 141530 213776,213854,213828
 7.6000e+001 214055 -4.5919e+006 -9.1417e+004  5.5109e+005 141218 213928,213980,213954
 7.6000e+001 214032 -2.7898e+006 -5.6337e+005  1.5621e+005 141218 213928,214006,213980
 7.6000e+001 214207 -1.8820e+002 -6.8250e+002  3.6731e+002 140928 214080,214132,214106
 7.6000e+001 214184  3.6484e+001 -3.9043e+002 -2.4387e+002 140928 214080,214158,214132
 7.6000e+001 214359 -8.8326e+003 -4.5344e+004 -4.3899e+002 140538 214232,214284,214258
 7.6000e+001 214336 -2.6897e+004 -1.6142e+005  9.3965e+004 140538 214232,214310,214284
 7.6000e+001 214560 -3.0113e+005 -4.4995e+006  9.1288e+005 140248 214384,214462,214410
 7.6000e+001 214537  1.1739e+005 -2.3074e+006  4.2163e+005 140248 214384,214488,214462
 7.6000e+001 214514 -3.3666e+005 -2.9475e+006 -1.1647e+005 140248 214410,214462,214436
 7.6000e+001 214712 -3.6689e+003 -1.2296e+005  1.3281e+005 140000 214611,214663,214637
 7.6000e+001 214689 -4.4857e+004 -1.8812e+005  9.0728e+004 140000 214585,214663,214611
 7.6000e+001 214913 -3.1888e+005 -2.0924e+006 -5.4030e+005 139596 214737,214815,214763
 7.6000e+001 214890 -2.8222e+005 -1.1631e+006  1.5712e+004 139596 214737,214841,214815
 7.6000e+001 214867  8.7384e+005 -7.1650e+006  7.6990e+005 139596 214763,214815,214789
 7.6000e+001 215016 -1.0958e+003 -1.2970e+003  2.5089e+001 139420 214938,214990,214964
 7.6000e+001 215168 -4.2346e+006 -1.0157e+007  6.7168e+006 139130 215067,215119,215093
 7.6000e+001 215145 -1.9649e+006 -1.1762e+007  3.6068e+006 139130 215041,215119,215067
 7.6000e+001 215320 -2.4391e+006 -5.3451e+006  3.3688e+006 138790 215219,215271,215245
 7.6000e+001 215297 -2.1730e+006 -1.1206e+007  5.9105e+006 138790 215193,215271,215219
 7.6000e+001 215472 -4.4138e+004 -4.8208e+005  2.0615e+005 138514 215345,215397,215371
 7.6000e+001 215449 -5.6911e+004 -3.1812e+005  7.1028e+004 138514 215345,215423,215397
 7.6000e+001 215624 -2.8713e+005 -7.1699e+006  1.8791e+006 138174 215497,215549,215523
 7.6000e+001 215601 -4.5095e+005 -5.5491e+006  1.6214e+006 138174 215497,215575,215549
 7.6000e+001 215776 -8.2935e+004 -7.4071e+005 -2.7505e+005 137734 215649,215701,215675
 7.6000e+001 215753 -1.6842e+004 -7.8443e+005 -1.1514e+005 137734 215649,215727,215701
 7.6000e+001 215977  2.1256e+006 -1.0100e+007  1.4867e+006 137344 215801,215879,215827
 7.6000e+001 215954 -1.2279e+006 -2.2928e+006 -1.5396e+006 137344 215801,215905,215879
 7.6000e+001 215931  8.0802e+005 -1.5287e+007 -5.5450e+006 137344 215827,215879,215853
 7.6000e+001 216129 -5.8289e+005 -1.8848e+006  3.6951e+005 136940 216028,216080,216054
 7.6000e+001 216106 -5.2661e+005 -3.0480e+006  9.8655e+005 136940 216002,216080,216028
 7.6000e+001 216330 -1.3502e+006 -7.3695e+006  1.0297e+006 136600 216180,216232,216206
 7.6000e+001 216307 -1.1133e+006 -7.3876e+006  2.8878e+006 136600 216154,216232,216180
 7.6000e+001 216284 -1.1224e+006 -4.2496e+006  9.5135e+005 136600 216154,216258,216232
 7.6000e+001 216482  6.2206e+005 -4.7521e+006  1.0764e+006 136260 216381,216433,216407
 7.6000e+001 216459  3.7176e+005 -3.2170e+006  1.1283e+006 136260 216355,216433,216381
 7.6000e+001 216634 -8.3050e+004 -1.6568e+005  1.0672e+005 135970 216533,216585,216559
 7.6000e+001 216611 -5.2353e+004 -3.3167e+005  1.6469e+005 135970 216507,216585,216533
 7.6000e+001 216835 -1.5597e+005 -3.3865e+006  1.8360e+005 135608 216685,216763,216711
 7.6000e+001 216812  1.4937e+005 -3.6943e+006 -3.3779e+005 135608 216659,216763,216685
 7.6000e+001 216789 -2.8139e+004 -1.5139e+006  8.7385e+003 135608 216711,216763,216737
 7.6000e+001 217036 -6.4017e+005 -1.0792e+006  6.1835e+005 135312 216912,216964,216938
 7.6000e+001 217013 -5.8037e+005 -2.7951e+006  1.5040e+006 135312 216886,216964,216912
 7.6000e+001 216990  3.7305e+005 -5.1000e+006  1.0427e+006 135312 216860,216964,216886
 7.6000e+001 217237 -1.8530e+005 -1.2343e+006  4.3587e+005 134908 217061,217139,217113
 7.6000e+001 217214 -3.1659e+005 -1.3206e+006  7.0477e+005 134908 217061,217165,217139
 7.6000e+001 217191 -3.3835e+005 -1.6231e+006  6.3245e+005 134908 217061,217113,217087
 7.6000e+001 217438 -4.2109e+005 -1.3810e+007 -2.1287e+006 134568 217288,217366,217314
 7.6000e+001 217415 -1.0907e+006 -1.4030e+007 -2.3582e+006 134568 217262,217366,217288
 7.6000e+001 217392 -9.3077e+005 -1.7308e+007 -2.9742e+006 134568 217314,217366,217340
 7.6000e+001 217590 -7.5483e+004 -5.5352e+005  2.7927e+005 134106 217463,217515,217489
 7.6000e+001 217567 -6.1585e+004 -4.5794e+005  1.2603e+005 134106 217463,217541,217515
 7.6000e+001 217791  7.7999e+005  5.5911e+006  2.0880e+006 133816 217641,217693,217667
 7.6000e+001 217768 -1.3710e+006 -2.3030e+007 -5.6191e+006 133816 217641,217719,217693
 7.6000e+001 217745 -7.8272e+006 -1.8126e+006  3.7667e+006 133816 217615,217719,217641
 7.6000e+001 217992 -4.2714e+006 -5.3549e+006  5.3616e+006 133355 217842,217920,217894
 7.6000e+001 217969 -1.5551e+006 -9.8974e+006  3.8537e+006 133355 217816,217920,217842
 7.6000e+001 217946 -9.6755e+005 -3.0187e+006  7.2000e+005 133355 217842,217894,217868
 7.6000e+001 218193  5.5061e+004 -7.4356e+006  4.5708e+005 132851 218017,218095,218069
 7.6000e+001 218170 -5.4810e+006 -7.6801e+006  7.1759e+006 132851 218017,218121,218095
 7.6000e+001 218147 -1.7584e+006 -3.2756e+006 -8.3578e+005 132851 218017,218069,218043
 7.6000e+001 218345 -1.9995e+004 -7.9819e+004  3.0506e+004 132511 218244,218296,218270
 7.6000e+001 218322 -1.6039e+004 -1.9541e+005  6.3099e+004 132511 218218,218296,218244
 7.6000e+001 218497  1.9765e+006 -2.4545e+007  4.2797e+005 132235 218396,218448,218422
 7.6000e+001 218474  9.9452e+004 -8.8053e+006  1.1608e+006 132235 218370,218448,218396
 7.6000e+001 218698 -4.3911e+005 -8.2892e+006 -2.2408e+006 131945 218574,218626,218600
 7.6000e+001 218675 -1.7892e+006 -1.6505e+007 -1.3490e+006 131945 218522,218626,218574
 7.6000e+001 218652 -2.8479e+006 -6.9284e+006 -3.1848e+006 131945 218522,218574,218548
 7.6000e+001 218850 -3.4783e+005 -1.5209e+007  9.7357e+005 131655 218723,218775,218749
 7.6000e+001 218827  3.3093e+005 -1.0866e+007  5.7221e+005 131655 218723,218801,218775
 7.6000e+001 218953 -5.6933e+001 -7.9866e+001 -1.0200e+002 131215 218875,218927,218901
 7.6000e+001 219105 -9.5997e+004 -2.2027e+006 -1.1702e+005 130875 218978,219030,219004
 7.6000e+001 219082 -4.4101e+004 -9.8376e+005  2.3756e+004 130875 218978,219056,219030
 7.6000e+001 219306 -5.7049e+005 -1.4966e+006  2.5486e+005 130429 219156,219234,219208
 7.6000e+001 219283 -5.3070e+005 -1.1205e+006  3.5844e+005 130429 219130,219234,219156
 7.6000e+001 219260 -1.6499e+006 -1.8051e+006  1.2456e+006 130429 219156,219208,219182
 7.6000e+001 219507 -5.1475e+005 -1.7087e+006  7.8885e+005 130025 219383,219435,219409
 7.6000e+001 219484 -4.7933e+005 -2.0979e+006  9.7332e+005 130025 219331,219435,219383
 7.6000e+001 219461 -4.8070e+005 -1.3993e+006  6.4601e+005 130025 219331,219383,219357
 7.6000e+001 219659 -1.1204e-002 -8.0417e-001  9.4919e-002 129685 219558,219610,219584
 7.6000e+001 219636  2.5788e-002  1.8510e+000 -2.1848e-001 129685 219532,219610,219558
 7.6000e+001 219860 -3.1602e+005 -1.1218e+006  7.1528e+005 129395 219710,219788,219762
 7.6000e+001 219837 -2.4491e+005 -1.4827e+006  7.3738e+005 129395 219684,219788,219710
 7.6000e+001 219814 -1.8398e+005 -1.4249e+006  5.0353e+005 129395 219710,219762,219736
 7.6000e+001 220061  8.4503e+003 -1.0945e+005  6.1393e+004 128991 219937,219989,219963
 7.6000e+001 220038  4.6570e+003 -2.0444e+005  4.5633e+004 128991 219885,219989,219937
 7.6000e+001 220015 -6.2094e+003 -2.6224e+005  9.0408e+004 128991 219885,219937,219911
 7.6000e+001 220262 -5.0010e+004 -5.4085e+004  1.1278e+004 128701 220086,220164,220112
 7.6000e+001 220239 -1.5410e+004 -1.9056e+005  7.8818e+004 128701 220086,220190,220164
 7.6000e+001 220216 -4.2844e+003 -4.5083e+004  1.3542e+004 128701 220112,220164,220138
 7.6000e+001 220463 -3.3345e+006 -9.1596e+006  4.3275e+006 128297 220339,220391,220365
 7.6000e+001 220440 -1.7636e+006 -1.1182e+007  3.7104e+006 128297 220313,220391,220339
 7.6000e+001 220417 -1.5039e+006 -1.5276e+007 -7.1411e+006 128297 220287,220391,220313
 7.6000e+001 220615 -5.8776e-002 -2.1001e-002 -3.5133e-002 128007 220488,220540,220514
 7.6000e+001 220592  6.3940e-002  2.2846e-002  3.8220e-002 128007 220488,220566,220540
 7.6000e+001 220767 -1.2414e+005 -4.5531e+006  6.1884e+005 127567 220640,220692,220666
 7.6000e+001 220744  8.5949e+004 -2.6884e+006  2.4361e+005 127567 220640,220718,220692
 7.6000e+001 220919 -1.1076e+006 -1.3518e+007 -1.4998e+006 127163 220792,220844,220818
 7.6000e+001 220896 -3.4888e+005 -1.6410e+007  2.4414e+006 127163 220792,220870,220844
 7.6000e+001 221071 -3.3859e+006 -3.9378e+006  3.4716e+006 126915 220970,221022,220996
 7.6000e+001 221048 -2.5627e+006 -6.7693e+006  2.8461e+006 126915 220944,221022,220970
 7.6000e+001 221272 -1.8550e+006 -5.1817e+006  3.5524e+006 126461 221122,221174,221148
 7.6000e+001 221249  1.7992e+005 -5.6586e+006  9.0155e+005 126461 221122,221200,221174
 7.6000e+001 221226 -1.4371e+006 -2.9184e+006  2.0478e+006 126461 221096,221200,221122
 7.6000e+001 221375  4.1933e+000 -1.8118e+001  3.9979e+000 126213 221297,221349,221323
 7.6000e+001 221478 -3.5094e-231 -6.7353e-229 -8.2678e-229 125766 221400,221452,221426
 7.6000e+001 221679 -1.6501e+004 -1.2247e+005  3.7741e+004 125212 221503,221555,221529
 7.6000e+001 221656 -8.8383e+003 -1.0632e+005  2.9466e+004 125212 221503,221581,221555
 7.6000e+001 221633 -2.8175e+004 -3.1660e+005  1.4162e+005 125212 221503,221607,221581
 7.6000e+001 221929  9.6571e+002  1.4242e+003  6.0140e+002 124872 221782,221834,221808
 7.6000e+001 221906  1.6028e+003  2.9276e+002 -1.4868e+002 124872 221756,221834,221782
 7.6000e+001 221883  1.5449e+003  7.4258e+002 -3.5870e+002 124872 221704,221834,221756
 7.6000e+001 221860  1.1721e+003 -1.0554e+003 -2.8637e+002 124872 221704,221756,221730
 7.6000e+001 222130 -9.1817e+005 -6.9187e+006 -1.1961e+005 124582 221980,222058,222006
 7.6000e+001 222107 -2.1428e+006 -5.8692e+006  6.9639e+005 124582 221954,222058,221980
 7.6000e+001 222084 -2.2996e+006 -6.9379e+006 -7.4267e+005 124582 222006,222058,222032
 7.6000e+001 222282 -2.0888e+006 -5.3345e+006 -8.7997e+005 124192 222181,222233,222207
 7.6000e+001 222259 -5.9942e+005 -4.0715e+006  1.7800e+005 124192 222155,222233,222181
 7.6000e+001 222483 -1.9469e+005 -7.1257e+004 -3.1639e+004 123702 222333,222385,222359
 7.6000e+001 222460 -3.9126e+004 -3.2550e+004 -1.0506e+004 123702 222333,222411,222385
 7.6000e+001 222437 -6.7325e+004 -4.2691e+004 -5.4576e+004 123702 222307,222411,222333
 7.6000e+001 222635 -5.0876e+004 -8.8813e+004  5.8450e+004 123312 222508,222560,222534
 7.6000e+001 222612 -3.2961e+004 -9.2976e+004  4.8158e+004 123312 222508,222586,222560
 7.6000e+001 222787  2.3478e-001  1.5666e+000  3.1780e+000 122858 222686,222738,222712
 7.6000e+001 222764  1.2609e+000  1.0436e+000 -6.9563e-001 122858 222660,222738,222686
 7.6000e+001 222939 -1.4251e+004 -3.4850e+005 -1.4418e+003 122568 222812,222864,222838
 7.6000e+001 222916  2.2273e+004 -2.0207e+005 -8.2120e+003 122568 222812,222890,222864
 7.6000e+001 223091 -6.5522e+005 -1.6494e+005  1.9548e+005 122392 222964,223016,222990
 7.6000e+001 223068 -2.2707e+005 -4.4977e+004  1.2750e+005 122392 222964,223042,223016
 7.6000e+001 223292 -4.1978e+005 -1.4378e+006  2.9156e+005 121852 223142,223220,223194
 7.6000e+001 223269 -2.6989e+006 -4.8324e+005  4.8639e+005 121852 223116,223220,223142
 7.6000e+001 223246 -1.6511e+006 -1.3719e+006 -1.4889e+006 121852 223142,223194,223168
 7.6000e+001 223493 -1.0964e+006 -4.9181e+005  7.4151e+005 121406 223343,223395,223369
 7.6000e+001 223470 -1.2224e+006 -5.6805e+005  8.1447e+005 121406 223343,223421,223395
 7.6000e+001 223447 -5.0954e+005 -7.5830e+005  5.2009e+005 121406 223317,223421,223343
 7.6000e+001 223645  2.7822e+005 -1.3917e+007  2.8722e+006 121002 223544,223596,223570
 7.6000e+001 223622 -1.2415e+006 -1.0908e+007  2.7561e+006 121002 223518,223596,223544
 7.6000e+001 223846  7.9698e+001 -4.8874e+001  5.4560e+002 120662 223670,223748,223696
 7.6000e+001 223823  1.1353e+002 -5.5302e+002  2.5028e+002 120662 223670,223774,223748
 7.6000e+001 223800  2.1539e+002 -4.2261e+001  5.1651e+002 120662 223696,223748,223722
 7.6000e+001 224047  5.2275e+001  9.8890e+001  7.8094e+001 120222 223897,223949,223923
 7.6000e+001 224024 -2.3016e+002 -1.6588e+001 -1.2359e+001 120222 223871,223949,223897
 7.6000e+001 224001 -2.1664e+000  6.7840e+001 -9.4755e+001 120222 223871,223975,223949
 7.6000e+001 224248 -3.6734e+002 -1.1766e+002 -1.0199e+003 119875 224124,224176,224150
 7.6000e+001 224225  1.9195e+003 -7.3315e+002 -8.1586e+001 119875 224098,224176,224124
 7.6000e+001 224202  8.9631e+002 -9.0797e+002 -1.1787e+002 119875 224072,224176,224098
 7.6000e+001 224449 -1.4735e+002 -1.7340e+002 -2.5450e+002 119677 224325,224377,224351
 7.6000e+001 224426 -1.1643e+002 -4.1740e+001 -5.6352e+002 119677 224299,224377,224325
 7.6000e+001 224403  5.6468e+002 -4.7228e+002  4.0519e+000 119677 224273,224377,224299
 7.6000e+001 224552 -3.1948e+002 -3.3801e+002 -2.6399e+002 119273 224474,224526,224500
 7.6000e+001 224704 -5.8642e+004 -3.0949e+005  1.3549e+005 118983 224603,224655,224629
 7.6000e+001 224681 -6.1886e+004 -3.0545e+005  1.3766e+005 118983 224577,224655,224603
 7.6000e+001 224856 -4.6946e+005  1.3914e+004  2.7739e+004 118529 224755,224807,224781
 7.6000e+001 224833  7.6833e+004 -6.2516e+005  1.6241e+005 118529 224729,224807,224755
 7.6000e+001 225008  8.0817e+000 -2.6220e+002 -3.7640e+001 118353 224881,224933,224907
 7.6000e+001 224985 -1.6906e+001  1.5794e+002 -6.3914e+000 118353 224881,224959,224933
 7.6000e+001 225209 -1.3059e+006 -5.5235e+006 -1.4278e+006 117949 225059,225137,225111
 7.6000e+001 225186 -2.8044e+005 -3.8498e+006  9.3412e+005 117949 225033,225137,225059
 7.6000e+001 225163  7.9299e+005 -1.1020e+007  1.3738e+006 117949 225059,225111,225085
 7.6000e+001 225410  1.2866e+005 -7.9199e+006  5.3634e+005 117559 225260,225338,225312
 7.6000e+001 225387 -2.4954e+006 -8.5423e+006  4.8963e+005 117559 225234,225338,225260
 7.6000e+001 225364 -6.4695e+005 -5.9131e+006 -1.9561e+006 117559 225260,225312,225286
 7.6000e+001 225611 -1.4838e+006 -1.1761e+007 -3.8044e+006 117361 225461,225513,225487
 7.6000e+001 225588 -2.8187e+006 -1.3056e+007  1.8670e+006 117361 225461,225539,225513
 7.6000e+001 225565 -7.1874e+005 -1.4072e+007  1.2880e+006 117361 225435,225539,225461
 7.6000e+001 225812  7.0403e+005 -9.7455e+006 -3.5788e+005 116900 225636,225714,225662
 7.6000e+001 225789 -2.3952e+006 -3.3217e+006 -1.0932e+006 116900 225636,225740,225714
 7.6000e+001 225766 -3.4454e+002 -9.9248e+006 -3.9968e+004 116900 225662,225714,225688
 7.6000e+001 225964 -9.8569e+004 -7.1212e+006 -6.6055e+004 116560 225837,225889,225863
 7.6000e+001 225941  2.9609e+005 -8.3747e+006  1.8297e+005 116560 225837,225915,225889
 7.6000e+001 226165  4.9246e+002  9.4297e+002 -1.0705e+003 116106 226015,226093,226041
 7.6000e+001 226142 -8.8082e+002 -3.5603e+002  2.7485e+002 116106 225989,226093,226015
 7.6000e+001 226119 -1.5650e+003  5.0718e+002 -1.0692e+003 116106 226041,226093,226067
 7.6000e+001 226268 -2.0615e+006 -5.6638e+006  1.3735e+006 115716 226190,226242,226216
 7.6000e+001 226420 -9.4725e+004 -1.2326e+007  2.0781e+006 115376 226293,226345,226319
 7.6000e+001 226397 -6.1362e+005 -1.3581e+007  4.1968e+006 115376 226293,226371,226345
 7.6000e+001 226621 -1.0702e+006 -2.8533e+006  7.4796e+005 114972 226497,226549,226523
 7.6000e+001 226598 -4.7650e+005 -1.4274e+007 -2.2007e+005 114972 226445,226549,226497
 7.6000e+001 226575  5.0891e+005 -7.6449e+006  9.7223e+005 114972 226445,226497,226471
 7.6000e+001 226773 -1.5582e+006 -4.2844e+006 -1.6707e+006 114670 226646,226698,226672
 7.6000e+001 226750  6.8260e+005 -9.8570e+006  1.1055e+006 114670 226646,226724,226698
 7.6000e+001 226974  8.0553e+004 -3.7174e+006 -6.4318e+005 114082 226798,226850,226824
 7.6000e+001 226951  2.1599e+005 -5.0426e+006 -1.6849e+005 114082 226798,226902,226850
 7.6000e+001 226928  6.7327e+004 -6.9250e+006 -6.5677e+005 114082 226850,226902,226876
 7.6000e+001 227175 -8.9734e+005 -5.9567e+006 -3.1779e+006 113678 226999,227051,227025
 7.6000e+001 227152 -2.0628e+006 -9.6427e+006 -4.3226e+006 113678 226999,227077,227051
 7.6000e+001 227129 -3.4027e+006 -5.4203e+006 -3.5641e+006 113678 226999,227103,227077
 7.6000e+001 227425 -3.2907e+006 -7.4841e+006 -7.8662e+006 113274 227226,227278,227252
 7.6000e+001 227402  4.4374e+004 -7.1894e+006 -1.3966e+006 113274 227226,227330,227278
 7.6000e+001 227379 -2.2727e+006 -3.2804e+006 -9.7251e+005 113274 227200,227330,227226
 7.6000e+001 227356 -1.1030e+006 -9.2092e+005 -1.1334e+006 113274 227278,227330,227304
 7.6000e+001 227626 -1.2995e+006 -4.5868e+006 -3.7456e+006 112934 227502,227554,227528
 7.6000e+001 227603  9.7479e+005 -3.7292e+006 -2.4782e+005 112934 227450,227554,227502
 7.6000e+001 227580 -2.3851e+006 -4.5184e+005  1.2363e+006 112934 227450,227502,227476
 7.6000e+001 227876 -1.6847e+005 -2.3276e+006 -2.2167e+005 112437 227677,227755,227703
 7.6000e+001 227853 -1.2594e+006 -2.7683e+006  1.6346e+006 112437 227677,227781,227755
 7.6000e+001 227830 -2.6894e+005 -1.1860e+006  4.2335e+005 112437 227703,227755,227729
 7.6000e+001 227807 -3.0554e+005 -9.5557e+006 -6.6819e+005 112437 227651,227781,227677
 7.6000e+001 228126 -3.0947e+005 -5.1205e+006 -5.1713e+005 112041 227927,228005,227953
 7.6000e+001 228103 -5.0934e+005 -5.4386e+006 -7.2008e+005 112041 227927,228031,228005
 7.6000e+001 228080 -1.5403e+005 -6.0479e+006 -4.2790e+005 112041 227953,228005,227979
 7.6000e+001 228057 -1.0368e+006 -4.2707e+006 -1.0683e+006 112041 227901,228031,227927
 7.6000e+001 228327 -3.0193e+006 -3.7156e+006  2.5377e+005 111693 228151,228203,228177
 7.6000e+001 228304  7.4069e+004 -2.5471e+006 -1.6994e+006 111693 228151,228229,228203
 7.6000e+001 228281  1.0806e+006 -7.2048e+006  1.7438e+006 111693 228151,228255,228229
 7.6000e+001 228479 -2.2222e+006 -1.1791e+006 -2.1517e+006 111253 228352,228404,228378
 7.6000e+001 228456 -1.4011e+006 -2.2650e+005  5.7581e+004 111253 228352,228430,228404
 7.6000e+001 228582 -9.9480e+001 -5.1512e+000  5.8043e+001 110906 228504,228556,228530
 7.6000e+001 228783 -1.1422e+004 -2.0688e+006 -6.2608e+004 110416 228633,228711,228659
 7.6000e+001 228760  3.0032e+004 -1.8967e+006 -5.8625e+004 110416 228607,228711,228633
 7.6000e+001 228737  5.5346e+004 -2.4040e+006 -1.1065e+005 110416 228659,228711,228685
 7.6000e+001 228935 -2.5183e+005 -4.6465e+006 -1.6446e+006 110012 228808,228860,228834
 7.6000e+001 228912 -1.6164e+006 -8.4397e+006 -2.6464e+006 110012 228808,228886,228860
 7.6000e+001 229087 -2.1813e+006 -3.4089e+006 -2.3536e+006 109672 228960,229012,228986
 7.6000e+001 229064  6.1792e+005 -7.6716e+006 -1.3113e+006 109672 228960,229038,229012
 7.6000e+001 229190  7.3892e+000  9.1431e+001 -5.5855e+001 109332 229112,229164,229138
 7.6000e+001 229391 -8.7640e+004 -1.3049e+005  4.9427e+004 109156 229267,229319,229293
 7.6000e+001 229368 -1.7713e+005 -1.1622e+006  1.4400e+005 109156 229215,229319,229267
 7.6000e+001 229345  3.2855e+003 -2.1720e+005  2.3100e+005 109156 229215,229267,229241
 7.6000e+001 229543  8.8431e+005 -9.8804e+006  1.1707e+006 108752 229416,229468,229442
 7.6000e+001 229520 -4.9332e+005 -4.8457e+006 -5.0392e+005 108752 229416,229494,229468
 7.6000e+001 229744 -2.1233e+005 -5.7670e+006  1.4294e+003 108198 229594,229646,229620
 7.6000e+001 229721 -6.2017e+004 -5.7295e+006  7.7916e+002 108198 229594,229672,229646
 7.6000e+001 229698 -4.3354e+005 -6.2099e+006 -3.0936e+005 108198 229568,229672,229594
 7.6000e+001 229847 -7.8417e+004 -1.4670e+006 -3.2049e+005 107758 229769,229821,229795
 7.6000e+001 230048 -8.0513e+005 -2.7940e+006 -4.0367e+005 107468 229898,229950,229924
 7.6000e+001 230025 -7.6343e+005 -2.1682e+006  8.4565e+005 107468 229872,229950,229898
 7.6000e+001 230002 -1.3550e+006 -1.8469e+006  5.2063e+005 107468 229872,229976,229950
 7.6000e+001 230298  1.5292e+005 -1.5216e+006  6.5936e+005 107121 230099,230203,230177
 7.6000e+001 230275 -4.6684e+005 -1.9501e+006  1.9394e+005 107121 230073,230203,230099
 7.6000e+001 230252  7.1950e+005 -2.0004e+006 -4.6221e+005 107121 230099,230177,230151
 7.6000e+001 230229 -2.4634e+005 -1.9138e+006 -6.8628e+005 107121 230099,230151,230125
 7.6000e+001 230450 -1.6985e+005 -6.6878e+005  1.5464e+005 106823 230349,230401,230375
 7.6000e+001 230427 -1.4768e+004 -1.3478e+006  1.4027e+004 106823 230323,230401,230349
 7.6000e+001 230602 -4.4779e+006 -9.2249e+006 -8.9537e+006 106533 230501,230553,230527
 7.6000e+001 230579  1.9401e+006 -1.4420e+007  4.7880e+006 106533 230475,230553,230501
 7.6000e+001 230803 -1.0931e+005 -2.4989e+006 -5.0977e+004 106029 230679,230731,230705
 7.6000e+001 230780  6.6268e+004 -1.7897e+006 -3.8674e+004 106029 230653,230731,230679
 7.6000e+001 230757 -4.1225e+003 -2.2983e+006 -1.3808e+005 106029 230627,230731,230653
 7.6000e+001 231004 -1.6347e+005 -2.6322e+006  2.3593e+005 105689 230854,230906,230880
 7.6000e+001 230981  1.9519e+005 -2.9935e+006 -1.8981e+005 105689 230828,230906,230854
 7.6000e+001 230958 -6.7223e+005 -2.0643e+006 -9.3894e+005 105689 230828,230932,230906
 7.6000e+001 231156  2.2691e+005 -7.5094e+006 -2.4523e+005 105377 231055,231107,231081
 7.6000e+001 231133 -1.9688e+005 -5.5401e+006  3.1108e+005 105377 231029,231107,231055
 7.6000e+001 231406 -8.8923e+005 -7.2245e+006 -1.2023e+006 104858 231207,231259,231233
 7.6000e+001 231383 -1.6850e+006 -7.0137e+006 -1.7024e+006 104858 231207,231311,231259
 7.6000e+001 231360 -9.8339e+005 -8.5622e+006 -2.3738e+006 104858 231259,231311,231285
 7.6000e+001 231337 -5.5319e+005 -8.3818e+006 -1.8539e+006 104858 231181,231311,231207
 7.6000e+001 231558 -1.1309e+006 -1.8381e+007  1.5954e+006 104418 231457,231509,231483
 7.6000e+001 231535 -3.5312e+006 -1.8203e+007 -8.1884e+006 104418 231431,231509,231457
 7.6000e+001 231710 -3.1040e+006 -5.9264e+005 -1.4805e+005 103978 231583,231635,231609
 7.6000e+001 231687 -1.5341e+006 -9.1447e+005 -1.0115e+006 103978 231583,231661,231635
 7.6000e+001 231862 -1.1372e+006 -8.1577e+006 -9.7795e+005 103588 231761,231813,231787
 7.6000e+001 231839  1.4188e+005 -3.7550e+006 -1.0148e+005 103588 231735,231813,231761
 7.6000e+001 232014 -1.2154e+006 -8.4146e+006 -3.1440e+006 103248 231887,231939,231913
 7.6000e+001 231991 -2.4005e+006 -1.4303e+007 -5.5486e+006 103248 231887,231965,231939
 7.6000e+001 232215 -1.0523e+004  7.3530e+002 -2.0477e+003 102844 232039,232117,232065
 7.6000e+001 232192 -1.0852e+004  2.5636e+002 -1.6222e+003 102844 232039,232143,232117
 7.6000e+001 232169 -2.8132e+004  7.8540e+002 -1.7182e+003 102844 232065,232117,232091
 7.6000e+001 232416 -2.9375e+006 -8.0512e+006 -4.3665e+006 102554 232240,232318,232292
 7.6000e+001 232393  6.1689e+005 -1.3521e+007 -1.0184e+006 102554 232240,232344,232318
 7.6000e+001 232370 -4.1625e+006 -2.2515e+006 -1.2336e+006 102554 232240,232292,232266
 7.6000e+001 232568 -6.4059e+004 -3.0751e+006  1.9886e+005 102100 232441,232493,232467
 7.6000e+001 232545 -1.7570e+005 -3.2039e+006  5.7033e+005 102100 232441,232519,232493
 7.6000e+001 232769 -1.7748e+005 -1.9226e+006  3.8261e+005 101596 232645,232697,232671
 7.6000e+001 232746  5.3559e+004 -1.0570e+006  2.1516e+005 101596 232593,232697,232645
 7.6000e+001 232723 -7.2829e+004 -1.8478e+006  3.7259e+005 101596 232593,232645,232619
 7.6000e+001 232921 -2.2403e+005 -5.5716e+004  1.4561e+004 101420 232794,232846,232820
 7.6000e+001 232898 -2.2825e+005 -2.0639e+005 -7.2063e+003 101420 232794,232872,232846
 7.6000e+001 233073 -1.1060e+006 -2.2015e+006 -1.7496e+005 101023 232946,232998,232972
 7.6000e+001 233050  1.9879e+005 -4.6199e+006  1.6994e+006 101023 232946,233024,232998
 7.6000e+001 233225 -7.5312e+002 -5.8011e+003  3.0696e+000 100661 233098,233150,233124
 7.6000e+001 233202 -5.6757e+003  1.7939e+004 -1.4458e+003 100661 233098,233176,233150
 7.6000e+001 233426 -1.6371e+006 -6.8366e+006 -2.2496e+006 100265 233276,233328,233302
 7.6000e+001 233403 -1.1932e+006 -6.3406e+006 -1.1551e+006 100265 233276,233354,233328
 7.6000e+001 233380 -1.2688e+006 -6.6325e+006 -1.2468e+006 100265 233250,233354,233276
 7.6000e+001 233578 -6.5006e+003 -1.8826e+006  1.1227e+005 100032 233451,233503,233477
 7.6000e+001 233555 -2.5671e+005 -1.9033e+006  3.8679e+005 100032 233451,233529,233503
 7.6000e+001 233681 -1.9199e+006  9.6915e+004 -1.1949e+005 99742 233603,233655,233629
 7.6000e+001 233784 -7.0490e+005 -1.5677e+006  3.7284e+005 99402 233706,233758,233732
 7.6000e+001 233936 -6.8149e+005 -1.5732e+006  6.8241e+005 99062 233835,233887,233861
 7.6000e+001 233913 -7.5812e+005 -1.8938e+006  7.3840e+005 99062 233809,233887,233835
 7.6000e+001 234088 -9.2341e+005 -1.7829e+006  6.8010e+005 98772 233987,234039,234013
 7.6000e+001 234065 -2.6036e+005 -1.6796e+006  5.8777e+005 98772 233961,234039,233987
 7.6000e+001 234240 -1.2511e+004 -1.1143e+005  3.0959e+004 98160 234139,234191,234165
 7.6000e+001 234217 -9.9422e+003 -1.0822e+005  2.2810e+004 98160 234113,234191,234139
 7.6000e+001 234441 -1.3616e+002  1.5926e+002  1.7107e+002 97820 234317,234369,234343
 7.6000e+001 234418  1.6292e+001  5.4729e+002 -1.6496e+002 97820 234291,234369,234317
 7.6000e+001 234395 -2.2329e+002  1.0174e+003 -2.3610e+002 97820 234265,234369,234291
 7.6000e+001 234593 -1.2697e+005 -1.1140e+006  1.0212e+005 97366 234466,234518,234492
 7.6000e+001 234570 -1.9687e+005 -1.6167e+006  1.9018e+005 97366 234466,234544,234518
 7.6000e+001 234794 -4.3309e+005 -5.9477e+005 -3.7330e+005 96976 234618,234670,234644
 7.6000e+001 234771 -1.4603e+005 -1.1103e+006 -3.2048e+005 96976 234618,234722,234670
 7.6000e+001 234748 -1.5101e+005 -1.0337e+006 -3.5356e+005 96976 234670,234722,234696
 7.6000e+001 234946 -3.0839e+005 -2.2312e+005  1.3297e+005 96568 234845,234897,234871
 7.6000e+001 234923 -2.2081e+005 -8.0118e+004  3.1411e+005 96568 234819,234897,234845
 7.6000e+001 235196 -8.0648e+004 -3.6269e+005 -9.9229e+004 96216 234997,235075,235049
 7.6000e+001 235173  4.4211e+004 -1.7428e+006  4.7961e+005 96216 234997,235101,235075
 7.6000e+001 235150 -1.8674e+005 -4.7379e+005  4.8263e+004 96216 234997,235049,235023
 7.6000e+001 235127 -7.2535e+004 -1.8261e+006  3.6337e+005 96216 234971,235101,234997
 7.6000e+001 235348 -1.6324e+006 -1.9173e+006 -1.0414e+006 95863 235247,235299,235273
 7.6000e+001 235325 -1.2411e+006 -1.1511e+006 -6.5707e+005 95863 235221,235299,235247
 7.6000e+001 235500 -1.2071e+005 -9.5040e+005  1.6639e+005 95339 235373,235425,235399
 7.6000e+001 235477 -2.4254e+005 -1.3325e+006  1.6223e+006 95339 235373,235451,235425
 7.6000e+001 235701  5.5127e+004 -1.5692e+006  3.1252e+005 95023 235525,235577,235551
 7.6000e+001 235678 -6.9155e+004 -1.5780e+006  3.1684e+005 95023 235525,235629,235577
 7.6000e+001 235655 -5.1918e+004 -2.7284e+006  5.4894e+005 95023 235577,235629,235603
 7.6000e+001 235853  1.2298e+005 -1.3307e+007 -3.7744e+005 94671 235726,235778,235752
 7.6000e+001 235830  2.1245e+005 -1.4376e+007  4.2486e+005 94671 235726,235804,235778
 7.6000e+001 236005 -2.0384e+006 -7.0572e+006  9.4142e+005 94261 235904,235956,235930
 7.6000e+001 235982 -8.7184e+005 -1.2022e+007 -3.9985e+006 94261 235878,235956,235904
 7.6000e+001 236206 -1.5169e+006 -6.9251e+005  9.7176e+005 93853 236056,236134,236082
 7.6000e+001 236183 -2.0970e+006 -8.4369e+005  8.3884e+005 93853 236030,236134,236056
 7.6000e+001 236160 -1.3240e+006 -9.3882e+005  9.7886e+005 93853 236082,236134,236108
 7.6000e+001 236407 -1.6137e+006 -3.6950e+006  6.1931e+005 93557 236257,236309,236283
 7.6000e+001 236384 -2.8511e+006 -4.6346e+006 -2.4633e+006 93557 236231,236309,236257
 7.6000e+001 236361  1.4345e+006 -1.9005e+007  2.1093e+006 93557 236231,236335,236309
 7.6000e+001 236559  2.5799e+003 -4.4228e+004  4.8541e+003 93149 236432,236484,236458
 7.6000e+001 236536  9.3817e+003 -2.7256e+004  1.5637e+004 93149 236432,236510,236484
 7.6000e+001 236711 -2.2262e+005 -3.2273e+005  2.4936e+005 92853 236584,236636,236610
 7.6000e+001 236688 -1.3004e+005 -2.5315e+005  1.9799e+005 92853 236584,236662,236636
 7.6000e+001 236912 -7.4998e+004 -2.4579e+005  1.1953e+005 92501 236736,236788,236762
 7.6000e+001 236889 -1.5156e+005 -1.4811e+005  7.1443e+004 92501 236736,236840,236788
 7.6000e+001 236866 -1.4066e+005 -3.1143e+005 -6.3798e+004 92501 236788,236840,236814
 7.6000e+001 237113 -8.7754e+004 -4.4299e+006  1.6002e+005 92291 236963,237041,237015
 7.6000e+001 237090  1.8768e+005 -2.5221e+006  1.0141e+005 92291 236937,237041,236963
 7.6000e+001 237067 -2.0308e+005 -4.0290e+006  9.0567e+005 92291 236963,237015,236989
 7.6000e+001 237265 -6.4478e+004 -3.8483e+005 -3.3509e+005 91871 237138,237190,237164
 7.6000e+001 237242 -2.5990e+005 -1.2337e+006 -4.2628e+005 91871 237138,237216,237190
 7.6000e+001 237368 -2.4942e+004 -2.2139e+006 -8.0559e+004 91581 237290,237342,237316
 7.6000e+001 237520 -6.6280e+004 -1.5394e+005  9.0459e+004 91184 237419,237471,237445
 7.6000e+001 237497 -1.8416e+005 -5.6570e+004  1.8374e+005 91184 237393,237471,237419
 7.6000e+001 237672 -2.2068e+005 -5.5477e+005 -1.5610e+005 90894 237545,237597,237571
 7.6000e+001 237649 -8.4568e+004 -2.2835e+006  6.2679e+005 90894 237545,237623,237597
 7.6000e+001 237873 -4.7339e+005 -2.4236e+006  9.3943e+005 90490 237749,237801,237775
 7.6000e+001 237850 -2.2111e+005 -2.9031e+006  1.1955e+006 90490 237723,237801,237749
 7.6000e+001 237827 -5.4616e+005 -2.9739e+006  4.8065e+004 90490 237697,237801,237723
 7.6000e+001 238074 -6.1488e+005 -5.2994e+006  4.3719e+005 90100 237898,237976,237950
 7.6000e+001 238051 -2.2989e+006 -5.1794e+006 -2.2117e+005 90100 237898,238002,237976
 7.6000e+001 238028 -7.6328e+005 -2.3652e+006  6.0311e+005 90100 237898,237950,237924
 7.6000e+001 238275 -1.1744e+005 -3.1181e+005 -3.9831e+004 89696 238125,238177,238151
 7.6000e+001 238252 -6.0325e+005 -2.2031e+005 -4.3273e+005 89696 238099,238177,238125
 7.6000e+001 238229 -6.3381e+005 -2.8644e+005 -4.0908e+005 89696 238099,238203,238177
 7.6000e+001 238427 -5.3752e+002 -2.3362e+002  1.0087e+002 89206 238326,238378,238352
 7.6000e+001 238404 -7.0891e+002 -1.3602e+003 -6.5571e+001 89206 238300,238378,238326
 7.6000e+001 238579 -8.5531e+004 -2.5355e+005  1.6827e+005 88908 238452,238504,238478
 7.6000e+001 238556 -2.3241e+004 -1.6738e+005  1.5021e+004 88908 238452,238530,238504
 7.6000e+001 238682 -3.6442e+001  2.3289e+002  5.2391e+002 88568 238604,238656,238630
 7.6000e+001 238883 -6.5537e+004 -4.2705e+006  1.5197e+006 88278 238733,238811,238785
 7.6000e+001 238860 -6.7763e+005 -2.6013e+006  1.3901e+006 88278 238707,238811,238733
 7.6000e+001 238837 -1.4918e+005 -4.6029e+006  8.3019e+005 88278 238733,238785,238759
 7.6000e+001 239035 -2.4850e+006 -4.5255e+006 -7.4157e+005 87988 238908,238960,238934
 7.6000e+001 239012 -2.6624e+006 -2.4484e+006 -3.8602e+004 87988 238908,238986,238960
 7.6000e+001 239138 -1.0772e+006 -7.6419e+005 -6.8079e+005 87648 239060,239112,239086
 7.6000e+001 239339 -3.1976e+006 -3.6288e+006 -3.2697e+006 87358 239163,239215,239189
 7.6000e+001 239316 -3.2098e+006 -1.4943e+006 -4.3393e+005 87358 239163,239241,239215
 7.6000e+001 239293 -1.3789e+006 -1.4830e+006 -8.4838e+005 87358 239163,239267,239241
 7.6000e+001 239589 -1.0801e+003 -1.0942e+005  2.3916e+004 86961 239390,239468,239416
 7.6000e+001 239566 -1.2565e+005 -5.9926e+004  1.4698e+005 86961 239390,239494,239468
 7.6000e+001 239543 -1.7264e+004 -3.6114e+003  7.9348e+003 86961 239416,239468,239442
 7.6000e+001 239520 -1.5556e+005 -3.1930e+004  1.4620e+005 86961 239364,239494,239390
 7.6000e+001 239741 -1.2968e+006 -1.0152e+006 -4.8206e+004 86621 239640,239692,239666
 7.6000e+001 239718 -3.2846e+005 -3.1264e+006 -1.5137e+006 86621 239614,239692,239640
 7.6000e+001 239893 -6.5508e+005 -3.4483e+006  1.1748e+006 86217 239792,239844,239818
 7.6000e+001 239870 -5.9137e+005 -3.8829e+006  1.4066e+006 86217 239766,239844,239792
 7.6000e+001 240045 -7.1955e+005 -2.9878e+006  7.4090e+005 85827 239918,239970,239944
 7.6000e+001 240022 -2.3737e+005 -2.8454e+006  1.9042e+005 85827 239918,239996,239970
 7.6000e+001 240197 -5.6732e+005 -5.7250e+006  8.3200e+005 85437 240096,240148,240122
 7.6000e+001 240174 -7.0162e+005 -6.8411e+005  2.3927e+005 85437 240070,240148,240096
 7.6000e+001 240349 -1.6652e+004 -1.0798e+005  3.8666e+004 85147 240222,240274,240248
 7.6000e+001 240326 -6.7662e+003 -5.8715e+004 -9.4094e+003 85147 240222,240300,240274
 7.6000e+001 240501 -8.2175e+004 -3.1143e+005 -1.4429e+004 84807 240374,240426,240400
 7.6000e+001 240478 -5.4291e+005 -1.1629e+006  8.1635e+005 84807 240374,240452,240426
 7.6000e+001 240653  1.0202e+002 -3.5241e+002 -3.6648e+002 84303 240552,240604,240578
 7.6000e+001 240630  4.9046e+002 -1.6132e+002  3.1086e+002 84303 240526,240604,240552
 7.6000e+001 240854 -8.2759e+005 -9.4983e+006 -5.1767e+006 83929 240704,240756,240730
 7.6000e+001 240831  1.4592e+006 -7.2043e+006  2.5171e+006 83929 240704,240782,240756
 7.6000e+001 240808 -3.2156e+006  2.3391e+006  2.6674e+006 83929 240678,240782,240704
 7.6000e+001 241055  6.1422e+002 -9.1258e+002 -4.7123e+002 83539 240879,240957,240931
 7.6000e+001 241032 -9.5243e+002 -8.8757e+002 -9.7736e+002 83539 240879,240983,240957
 7.6000e+001 241009  4.0084e+002 -7.5884e+002 -4.0744e+002 83539 240879,240931,240905
 7.6000e+001 241207  1.6936e+004 -2.4743e+005 -3.2222e+003 83079 241106,241158,241132
 7.6000e+001 241184 -2.7342e+004 -9.8492e+004 -3.8282e+003 83079 241080,241158,241106
 7.6000e+001 241408 -4.6249e+005 -1.0110e+006 -1.0665e+006 82665 241232,241284,241258
 7.6000e+001 241385 -3.4639e+005  6.4917e+005 -2.9950e+006 82665 241232,241336,241284
 7.6000e+001 241362 -3.0503e+006 -1.1575e+007  5.1586e+006 82665 241284,241336,241310
 7.6000e+001 241658 -2.2236e+005 -3.9013e+006  5.5536e+005 82375 241485,241563,241511
 7.6000e+001 241635 -1.0995e+004 -2.2381e+006  2.2815e+005 82375 241433,241563,241485
 7.6000e+001 241612 -1.0669e+005 -2.6488e+006  2.1970e+005 82375 241433,241485,241459
 7.6000e+001 241589 -6.5779e+005 -4.3200e+006  8.1358e+005 82375 241511,241563,241537
 7.6000e+001 241810 -7.1128e+005 -1.2731e+006 -4.9573e+005 82035 241683,241735,241709
 7.6000e+001 241787 -7.0631e+005 -2.0374e+006  5.6379e+005 82035 241683,241761,241735
 7.6000e+001 241962 -8.7861e+005 -1.9978e+006  6.5758e+005 81695 241861,241913,241887
 7.6000e+001 241939 -3.9985e+005 -2.7632e+006 -7.9000e+005 81695 241835,241913,241861
 7.6000e+001 242114 -1.1616e+006 -5.3384e+006  1.1036e+006 81355 242013,242065,242039
 7.6000e+001 242091 -4.0234e+005 -2.5281e+006  7.2760e+005 81355 241987,242065,242013
 7.6000e+001 242266  1.4728e+003 -2.0136e+005  3.1474e+003 80951 242139,242191,242165
 7.6000e+001 242243  6.2946e+003 -1.8087e+005 -4.1704e+003 80951 242139,242217,242191
 7.6000e+001 242467 -4.2838e+005 -4.9229e+006  5.7033e+005 80311 242291,242369,242343
 7.6000e+001 242444  1.5273e+005 -2.4620e+006  4.3755e+005 80311 242291,242395,242369
 7.6000e+001 242421 -1.7571e+005 -1.2123e+006  2.1733e+005 80311 242291,242343,242317
 7.6000e+001 242619 -1.4525e+006 -2.5649e+006  3.7832e+005 80021 242492,242544,242518
 7.6000e+001 242596 -1.3893e+006 -2.3323e+006  1.4663e+006 80021 242492,242570,242544
 7.6000e+001 242869 -1.6087e+004 -7.8386e+004 -1.3295e+004 79631 242644,242722,242696
 7.6000e+001 242846  1.9127e+004 -2.0818e+005  1.3461e+004 79631 242644,242774,242722
 7.6000e+001 242823  2.4204e+004 -1.7355e+005  2.5096e+004 79631 242722,242774,242748
 7.6000e+001 242800 -9.3278e+003 -7.1344e+004  9.9237e+003 79631 242644,242696,242670
 7.6000e+001 243070  9.6785e+004 -1.4223e+007  3.3303e+006 79341 242920,242972,242946
 7.6000e+001 243047 -7.1248e+005 -6.7953e+006 -5.2286e+005 79341 242920,242998,242972
 7.6000e+001 243024 -7.9812e+005 -4.0977e+006  1.8076e+006 79341 242894,242998,242920
 7.6000e+001 243222 -3.4907e+005 -2.8579e+006  1.1321e+006 78801 243121,243173,243147
 7.6000e+001 243199 -4.1195e+005 -3.1173e+006  1.1309e+006 78801 243095,243173,243121
 7.6000e+001 243423 -8.1458e+005 -2.2651e+006 -7.6999e+005 78511 243273,243325,243299
 7.6000e+001 243400  7.2977e+005 -5.6524e+006  9.2388e+005 78511 243273,243351,243325
 7.6000e+001 243377 -2.8354e+003 -5.8763e+006  1.1964e+005 78511 243247,243351,243273
 7.6000e+001 243624 -3.6392e+005 -3.3854e+006 -1.2481e+006 78107 243474,243552,243526
 7.6000e+001 243601 -4.5274e+005 -3.9926e+006 -1.2179e+006 78107 243448,243552,243474
 7.6000e+001 243578 -3.5324e+005 -2.2107e+006 -1.5179e+005 78107 243474,243526,243500
 7.6000e+001 243776 -1.0222e+006 -4.5578e+006 -1.2480e+006 77653 243649,243701,243675
 7.6000e+001 243753 -1.4729e+006 -5.1124e+006 -7.2228e+005 77653 243649,243727,243701
 7.6000e+001 243977 -3.9774e+005 -5.8268e+006  5.2803e+004 77093 243801,243853,243827
 7.6000e+001 243954 -7.3178e+004 -4.8252e+006  7.1982e+005 77093 243801,243879,243853
 7.6000e+001 243931 -3.9667e+005 -1.8048e+006 -2.0198e+005 77093 243801,243905,243879
 7.6000e+001 244080 -5.7033e+005 -6.4166e+006  3.9027e+005 76791 244002,244054,244028
 7.6000e+001 244232 -6.3798e+004 -2.8002e+006 -1.3355e+005 76311 244131,244183,244157
 7.6000e+001 244209 -1.8765e+005 -5.2886e+006 -1.5768e+004 76311 244105,244183,244131
 7.6000e+001 244433  4.4297e+005 -1.5814e+007  4.4019e+006 75903 244283,244335,244309
 7.6000e+001 244410 -1.1061e+006 -9.4593e+006 -4.5130e+005 75903 244283,244361,244335
 7.6000e+001 244387 -1.4457e+006 -8.6503e+006  1.1554e+005 75903 244257,244361,244283
 7.6000e+001 244585  2.9868e+005 -1.5551e+007  1.4806e+006 75419 244458,244510,244484
 7.6000e+001 244562 -7.5358e+005 -8.4153e+006 -1.7683e+005 75419 244458,244536,244510
 7.6000e+001 244737 -4.1204e+005 -7.2569e+005 -1.8419e+005 75215 244636,244688,244662
 7.6000e+001 244714 -2.8859e+005 -3.3269e+006 -1.7721e+005 75215 244610,244688,244636
 7.6000e+001 244889 -9.0967e+005 -4.6963e+006 -5.7852e+005 74857 244788,244840,244814
 7.6000e+001 244866 -1.7152e+005 -1.9253e+006 -2.4710e+005 74857 244762,244840,244788
 7.6000e+001 245041 -2.0178e+005 -1.7251e+006 -9.5111e+005 74653 244940,244992,244966
 7.6000e+001 245018 -2.8104e+005 -4.0310e+005  7.6466e+005 74653 244914,244992,244940
 7.6000e+001 245144 -1.5095e+006 -6.4393e+006 -1.5311e+006 74359 245066,245118,245092
 7.6000e+001 245296 -1.4206e+004 -3.3254e+005 -1.0132e+005 74007 245169,245221,245195
 7.6000e+001 245273 -9.7586e+004 -5.6641e+005 -1.5960e+005 74007 245169,245247,245221
 7.6000e+001 245448 -2.0245e+006 -5.6422e+006 -4.3886e+005 73711 245321,245373,245347
 7.6000e+001 245425 -1.9189e+006 -5.5997e+006 -1.3303e+006 73711 245321,245399,245373
 7.6000e+001 245600  9.1745e+005 -1.2486e+007 -1.2854e+006 73301 245499,245551,245525
 7.6000e+001 245577 -1.5174e+006 -8.2947e+006  1.9068e+006 73301 245473,245551,245499
 7.6000e+001 245752 -2.7722e+006 -4.1654e+006 -2.5310e+006 72995 245625,245677,245651
 7.6000e+001 245729  8.8416e+005 -1.5683e+007 -2.1865e+006 72995 245625,245703,245677
 7.6000e+001 245953 -1.1495e+006 -1.3562e+007  7.2081e+005 72585 245777,245829,245803
 7.6000e+001 245930 -5.0403e+005 -1.4164e+007  1.7189e+006 72585 245777,245855,245829
 7.6000e+001 245907 -1.6137e+006 -8.8973e+006  2.8080e+005 72585 245777,245881,245855
 7.6000e+001 246154 -4.0133e+005 -6.9959e+006  1.3010e+006 72127 246030,246082,246056
 7.6000e+001 246131 -9.3595e+005 -8.0430e+006  6.3413e+005 72127 245978,246082,246030
 7.6000e+001 246108 -8.9617e+004 -8.8276e+006  2.8061e+005 72127 245978,246030,246004
 7.6000e+001 246257 -1.6221e+006 -2.8089e+005 -2.2631e+005 71737 246179,246231,246205
 7.6000e+001 246360  1.3835e+005 -3.0690e+006  5.1012e+005 71447 246282,246334,246308
 7.6000e+001 246512 -1.1620e+005 -2.2795e+006  9.2465e+005 71157 246385,246437,246411
 7.6000e+001 246489 -6.7755e+004 -1.7393e+006 -8.7334e+004 71157 246385,246463,246437
 7.6000e+001 246664 -1.6907e+005 -2.0484e+006 -4.6889e+005 70753 246537,246589,246563
 7.6000e+001 246641 -6.9452e+005 -8.9909e+005 -2.3041e+005 70753 246537,246615,246589
 7.6000e+001 246865 -1.4236e+006 -7.8647e+006  4.1033e+006 70249 246715,246767,246741
 7.6000e+001 246842 -3.3474e+006 -7.7446e+006 -7.1766e+004 70249 246715,246793,246767
 7.6000e+001 246819 -1.2419e+005 -1.4981e+007 -4.3395e+006 70249 246689,246793,246715
 7.6000e+001 247066 -5.0429e+003 -1.7356e+006  2.5392e+005 70023 246916,246994,246942
 7.6000e+001 247043 -7.8971e+004 -1.5012e+006  3.5314e+005 70023 246890,246994,246916
 7.6000e+001 247020  4.8344e+004 -1.6061e+006  3.4049e+005 70023 246942,246994,246968
 7.6000e+001 247267 -2.4359e+005 -3.4810e+006 -3.2359e+005 69633 247091,247143,247117
 7.6000e+001 247244 -6.0649e+004 -2.2788e+006 -2.4111e+005 69633 247091,247169,247143
 7.6000e+001 247221 -1.2096e+004 -2.5532e+006 -3.5059e+005 69633 247091,247195,247169
 7.6000e+001 247419 -1.0921e+006 -5.0212e+006  4.8841e+005 69457 247318,247370,247344
 7.6000e+001 247396 -1.2429e+006 -2.2246e+006  7.6716e+005 69457 247292,247370,247318
 7.6000e+001 247522 -2.2917e+001 -1.8717e+001 -4.5676e+001 69209 247444,247496,247470
 7.6000e+001 247625 -1.4210e+006 -1.4561e+006 -1.0641e+006 68919 247547,247599,247573
 7.6000e+001 247777  1.1852e+005 -5.2882e+006 -1.8305e+005 68579 247650,247702,247676
 7.6000e+001 247754  1.4299e+004 -1.3835e+006 -1.9747e+005 68579 247650,247728,247702
 7.6000e+001 247929 -7.2457e+004 -3.6127e+006  7.8832e+005 68289 247802,247854,247828
 7.6000e+001 247906 -3.5940e+005 -1.9946e+006 -6.6538e+005 68289 247802,247880,247854
 7.6000e+001 248081 -3.1610e+005 -3.7201e+006  1.2025e+006 67949 247980,248032,248006
 7.6000e+001 248058 -4.5517e+005 -5.2215e+005  9.8557e+004 67949 247954,248032,247980
 7.6000e+001 248233 -1.7757e+006 -5.4876e+006 -7.1548e+005 67616 248132,248184,248158
 7.6000e+001 248210 -6.2744e+005 -5.0066e+006 -1.8609e+005 67616 248106,248184,248132
 7.6000e+001 248434 -1.0466e+005 -3.3845e+006 -1.8999e+005 67212 248284,248336,248310
 7.6000e+001 248411 -2.9601e+005 -3.4168e+006 -1.4393e+005 67212 248258,248336,248284
 7.6000e+001 248388 -1.3622e+006 -1.5751e+006 -4.7550e+005 67212 248258,248362,248336
 7.6000e+001 248586 -2.2090e+005 -4.8059e+006 -1.9724e+005 66872 248485,248537,248511
 7.6000e+001 248563 -3.3901e+004 -1.7257e+006 -2.4817e+005 66872 248459,248537,248485
 7.6000e+001 248738 -4.2361e+005 -5.2650e+006  1.8423e+005 66510 248637,248689,248663
 7.6000e+001 248715 -5.6121e+005 -6.3393e+006  1.2368e+005 66510 248611,248689,248637
 7.6000e+001 248890 -2.7834e+004 -7.2660e+005  1.4216e+005 66220 248789,248841,248815
 7.6000e+001 248867 -4.6489e+004 -9.4948e+005 -3.0050e+005 66220 248763,248841,248789
 7.6000e+001 249091 -1.0799e+006 -8.0012e+006  1.2459e+006 65759 248915,248967,248941
 7.6000e+001 249068 -8.8461e+005 -4.8709e+006  1.8085e+006 65759 248915,248993,248967
 7.6000e+001 249045 -4.1096e+005 -3.5832e+006  2.4518e+005 65759 248915,249019,248993
 7.6000e+001 249243 -7.3962e+004 -7.6980e+006  1.5998e+006 65419 249142,249194,249168
 7.6000e+001 249220  2.0416e+005 -1.9882e+006  3.5459e+005 65419 249116,249194,249142
 7.6000e+001 249395 -1.7322e+005 -1.7936e+006 -2.1015e+005 65079 249268,249320,249294
 7.6000e+001 249372 -2.6368e+005 -3.6415e+006 -6.1901e+005 65079 249268,249346,249320
 7.6000e+001 249547 -1.5812e+006 -5.4290e+006  1.5794e+006 64739 249420,249472,249446
 7.6000e+001 249524 -2.1542e+005 -3.9857e+006 -1.0829e+006 64739 249420,249498,249472
 7.6000e+001 249650 -1.7720e+006 -3.9480e+006 -1.9497e+006 64342 249572,249624,249598
 7.6000e+001 249851 -2.1405e+004 -3.0640e+006 -2.9381e+005 63938 249701,249779,249753
 7.6000e+001 249828 -5.3533e+004 -3.2024e+006  4.8468e+005 63938 249675,249779,249701
 7.6000e+001 249805 -3.4835e+005 -1.3195e+006 -2.0459e+005 63938 249701,249753,249727
 7.6000e+001 250052 -3.6595e+005 -4.7359e+006 -3.1930e+005 63341 249876,249954,249902
 7.6000e+001 250029 -2.2668e+005 -5.5651e+006 -5.9043e+005 63341 249876,249980,249954
 7.6000e+001 250006 -5.3116e+004 -4.3874e+006 -5.9320e+005 63341 249902,249954,249928
 7.6000e+001 250253 -6.2761e+005 -7.4561e+005 -4.7288e+004 63058 250077,250129,250103
 7.6000e+001 250230 -2.2665e+006 -2.2907e+006  1.3286e+006 63058 250077,250155,250129
 7.6000e+001 250207 -4.1345e+005 -1.3508e+006  3.5689e+005 63058 250077,250181,250155
 7.6000e+001 250454 -6.8011e+005 -6.2106e+006  7.5800e+005 62832 250304,250382,250330
 7.6000e+001 250431  6.4440e+004 -7.6503e+006 -2.0560e+006 62832 250278,250382,250304
 7.6000e+001 250408 -1.4726e+006 -4.3875e+006  1.5402e+005 62832 250330,250382,250356
 7.6000e+001 250606 -8.3825e+005 -6.5019e+006 -1.5287e+006 62428 250479,250531,250505
 7.6000e+001 250583  9.3234e+004 -1.1099e+007 -1.4192e+006 62428 250479,250557,250531
 7.6000e+001 250758 -1.5260e+005 -7.1164e+006  8.5006e+005 62202 250631,250683,250657
 7.6000e+001 250735 -3.6505e+005 -6.7874e+006  3.0413e+005 62202 250631,250709,250683
 7.6000e+001 250861  2.5987e+005 -3.2949e+006 -2.8583e+005 61954 250783,250835,250809
 7.6000e+001 251062 -2.4696e+006 -5.4000e+006 -3.8278e+005 61557 250912,250990,250938
 7.6000e+001 251039  3.0427e+005 -1.1346e+007 -2.5251e+006 61557 250886,250990,250912
 7.6000e+001 251016 -2.0939e+006 -8.4144e+006 -3.4822e+006 61557 250938,250990,250964
 7.6000e+001 251263 -3.6946e+005 -6.3772e+006 -8.2319e+003 61167 251113,251165,251139
 7.6000e+001 251240 -3.9380e+005 -5.5256e+006 -1.2915e+005 61167 251113,251191,251165
 7.6000e+001 251217 -1.2380e+006 -5.5326e+006  9.7837e+005 61167 251087,251191,251113
 7.6000e+001 251415 -1.0462e+006 -6.0560e+006  2.2309e+006 60827 251288,251340,251314
 7.6000e+001 251392 -4.5719e+005 -2.3908e+006 -4.9564e+005 60827 251288,251366,251340
 7.6000e+001 251567 -8.7847e+004 -2.8388e+006 -2.3349e+005 60487 251466,251518,251492
 7.6000e+001 251544 -5.3036e+005 -4.3101e+006 -4.8864e+005 60487 251440,251518,251466
 7.6000e+001 251719 -2.1803e+005 -8.2994e+006 -7.5326e+005 59983 251592,251644,251618
 7.6000e+001 251696 -1.0524e+006 -6.8999e+006 -5.1281e+005 59983 251592,251670,251644
 7.6000e+001 251920 -8.9485e+004 -1.5332e+006  3.0192e+003 59807 251770,251848,251796
 7.6000e+001 251897 -5.1065e+004 -1.1301e+006 -4.7584e+004 59807 251744,251848,251770
 7.6000e+001 251874 -9.2117e+004 -1.4372e+006  6.8560e+004 59807 251796,251848,251822
 7.6000e+001 252023  4.6049e+005 -4.3413e+006 -1.0234e+005 59517 251945,251997,251971
 7.6000e+001 252175  1.2969e+006 -1.1093e+007 -1.9931e+005 59269 252074,252126,252100
 7.6000e+001 252152 -8.1146e+004 -7.4043e+006  6.9084e+004 59269 252048,252126,252074
 7.6000e+001 252278 -1.0195e+006 -8.4288e+006  1.3541e+006 58979 252200,252252,252226
 7.6000e+001 252381 -2.4430e+006 -1.8147e+006  1.4334e+006 58689 252303,252355,252329
 7.6000e+001 252533 -4.6856e+005 -3.2997e+006 -8.8758e+005 58249 252432,252484,252458
 7.6000e+001 252510 -1.0251e+006 -5.3899e+006 -6.8082e+005 58249 252406,252484,252432
 7.6000e+001 252734 -3.2542e+005 -2.1780e+006  4.0206e+005 57902 252584,252662,252610
 7.6000e+001 252711  1.2797e+005 -4.8366e+006 -9.0294e+005 57902 252558,252662,252584
 7.6000e+001 252688 -3.1075e+005 -1.2596e+006 -1.5883e+005 57902 252610,252662,252636
 7.6000e+001 252886  1.4857e+005 -5.3539e+006 -2.3878e+005 57540 252785,252837,252811
 7.6000e+001 252863  6.0375e+004 -4.0514e+006  1.2275e+005 57540 252759,252837,252785
 7.6000e+001 253038 -9.1453e+005 -6.3275e+006  1.6362e+006 57086 252937,252989,252963
 7.6000e+001 253015 -2.5966e+005 -1.3481e+006  3.9939e+005 57086 252911,252989,252937
 7.6000e+001 253239 -8.6234e+005 -6.7526e+006 -5.4572e+005 56796 253063,253141,253115
 7.6000e+001 253216  1.7620e+004 -7.2021e+006  7.5539e+005 56796 253063,253167,253141
 7.6000e+001 253193 -5.9814e+006 -1.7759e+006  9.3474e+005 56796 253063,253115,253089
 7.6000e+001 253342 -6.9089e+005 -1.4297e+007 -1.2109e+005 56349 253264,253316,253290
 7.6000e+001 253543 -2.9841e+005 -2.6780e+006 -1.2171e+006 56009 253367,253419,253393
 7.6000e+001 253520 -5.7375e+005 -1.2345e+006 -6.4173e+005 56009 253367,253445,253419
 7.6000e+001 253497 -4.1290e+005 -1.2405e+006 -6.5926e+005 56009 253367,253471,253445
 7.6000e+001 253695 -1.3064e+004 -6.5660e+005  2.6950e+005 55733 253594,253646,253620
 7.6000e+001 253672 -2.7591e+005 -1.8580e+005  2.1367e+005 55733 253568,253646,253594
 7.6000e+001 253798 -6.2294e+005 -1.6350e+006 -2.0488e+005 55557 253720,253772,253746
 7.6000e+001 253950 -6.3584e+005 -3.2230e+006  1.1238e+005 55153 253849,253901,253875
 7.6000e+001 253927 -1.6070e+005 -3.7619e+006 -5.2193e+005 55153 253823,253901,253849
 7.6000e+001 254151 -1.0942e+006 -4.0404e+006  4.3890e+005 54863 253975,254053,254001
 7.6000e+001 254128 -8.0208e+005 -3.7843e+006  1.3408e+005 54863 253975,254079,254053
 7.6000e+001 254105 -9.1021e+005 -4.9925e+006  8.4417e+005 54863 254001,254053,254027
 7.6000e+001 254303 -1.2808e+005 -3.5964e+005  2.2004e+005 54373 254176,254228,254202
 7.6000e+001 254280 -3.8734e+005 -5.2120e+005  3.5731e+005 54373 254176,254254,254228
 7.6000e+001 254455 -4.4849e+004 -4.5103e+006 -4.2379e+005 53975 254354,254406,254380
 7.6000e+001 254432 -2.9664e+005 -1.0058e+006  1.5338e+005 53975 254328,254406,254354
 7.6000e+001 254607 -2.1977e+005 -5.2506e+006 -1.0592e+005 53585 254480,254532,254506
 7.6000e+001 254584 -3.5857e+005 -4.5979e+006 -1.7623e+005 53585 254480,254558,254532
 7.6000e+001 254808 -1.0436e+006 -3.4979e+006  2.1334e+005 53245 254658,254736,254684
 7.6000e+001 254785 -9.1234e+005 -5.3734e+005 -4.0476e+004 53245 254632,254736,254658
 7.6000e+001 254762 -5.3623e+005 -1.9417e+006 -1.2154e+005 53245 254684,254736,254710
 7.6000e+001 254911 -1.5326e+005 -1.3717e+006 -3.2715e+005 52955 254833,254885,254859
 7.6000e+001 255063 -5.0158e+005 -6.9755e+006  1.6324e+003 52551 254962,255014,254988
 7.6000e+001 255040 -6.3365e+005 -7.2010e+006 -1.2006e+005 52551 254936,255014,254962
 7.6000e+001 255264 -1.1640e+006 -1.0839e+006 -6.1418e+005 52261 255114,255166,255140
 7.6000e+001 255241 -1.2761e+006 -2.3903e+006 -1.7743e+005 52261 255114,255192,255166
 7.6000e+001 255218 -5.5476e+006 -1.0469e+006  1.0991e+006 52261 255088,255192,255114
 7.6000e+001 255416 -8.7877e+005 -5.7084e+006  2.1899e+006 51971 255289,255341,255315
 7.6000e+001 255393 -3.3083e+005 -4.9853e+006 -5.9351e+005 51971 255289,255367,255341
 7.6000e+001 255568  1.9297e+005 -1.5290e+006 -5.0072e+005 51681 255441,255493,255467
 7.6000e+001 255545 -1.3921e+005 -1.0255e+006 -5.1273e+005 51681 255441,255519,255493
 7.6000e+001 255769 -2.4569e+005 -2.8365e+006  3.3773e+004 51291 255619,255697,255671
 7.6000e+001 255746 -2.2465e+005 -2.5010e+006 -2.6868e+005 51291 255593,255697,255619
 7.6000e+001 255723 -2.8603e+005 -5.7209e+006 -6.7148e+005 51291 255619,255671,255645
 7.6000e+001 255921 -6.5946e+005 -3.3522e+006  8.0928e+005 50951 255820,255872,255846
 7.6000e+001 255898 -9.6121e+004 -1.3878e+006  5.7197e+004 50951 255794,255872,255820
 7.6000e+001 256171 -8.9516e+005 -5.3082e+006  5.8665e+005 50547 256024,256076,256050
 7.6000e+001 256148 -8.7096e+005 -4.2320e+006  3.3427e+005 50547 255972,256076,256024
 7.6000e+001 256125 -7.3165e+004 -4.4864e+006  1.5343e+005 50547 255946,256076,255972
 7.6000e+001 256102 -7.2646e+005 -4.7978e+006  4.7750e+005 50547 255972,256024,255998
 7.6000e+001 256323  1.5536e+005 -4.4442e+006  4.6049e+005 50093 256196,256248,256222
 7.6000e+001 256300 -1.0415e+006 -2.7369e+006 -8.9959e+005 50093 256196,256274,256248
 7.6000e+001 256426 -1.0957e+002 -1.6349e+002 -2.7602e+001 49845 256348,256400,256374
 7.6000e+001 256627  3.5108e+004 -5.7655e+006  7.2733e+004 49555 256477,256555,256503
 7.6000e+001 256604 -7.0690e+004 -3.0947e+006  2.0651e+005 49555 256451,256555,256477
 7.6000e+001 256581 -3.8266e+005 -5.1696e+006  3.2422e+005 49555 256503,256555,256529
 7.6000e+001 256828 -4.2462e+005 -2.3821e+006 -4.7576e+005 49056 256652,256730,256678
 7.6000e+001 256805 -7.1747e+005 -2.0209e+006 -2.8049e+005 49056 256652,256756,256730
 7.6000e+001 256782 -3.1157e+005 -3.7112e+006  4.5203e+005 49056 256678,256730,256704
 7.6000e+001 256931 -2.5462e+004 -1.2974e+005  1.3974e+004 48766 256853,256905,256879
 7.6000e+001 257083 -1.7130e+006 -5.0992e+006 -7.5811e+005 48568 256982,257034,257008
 7.6000e+001 257060 -6.5208e+005 -8.9380e+005 -1.8295e+005 48568 256956,257034,256982
 7.6000e+001 257186  1.6147e+003 -2.9382e+006 -3.0381e+002 48228 257108,257160,257134
 7.6000e+001 257338 -1.2773e+006 -5.3447e+005  2.8888e+005 47888 257237,257289,257263
 7.6000e+001 257315 -6.7255e+005 -3.6911e+006  2.1434e+006 47888 257211,257289,257237
 7.6000e+001 257539 -3.8361e+005 -3.5528e+006  1.3623e+005 47548 257363,257441,257415
 7.6000e+001 257516 -7.1291e+005 -3.3010e+006 -3.4895e+005 47548 257363,257467,257441
 7.6000e+001 257493 -7.8623e+005 -2.4854e+006 -9.0593e+004 47548 257363,257415,257389
 7.6000e+001 257740 -1.0877e+005 -5.2883e+006  4.4215e+005 46994 257564,257642,257616
 7.6000e+001 257717 -4.2524e+005 -3.8262e+006 -1.1715e+005 46994 257564,257668,257642
 7.6000e+001 257694 -8.4708e+005 -5.2231e+006 -1.6470e+005 46994 257564,257616,257590
 7.6000e+001 257843 -3.2564e+005 -9.0232e+005 -1.2057e+005 46654 257765,257817,257791
 7.6000e+001 257995 -5.9320e+005 -2.9151e+006  3.5069e+005 46364 257894,257946,257920
 7.6000e+001 257972 -6.7536e+005 -3.0575e+006  2.6227e+005 46364 257868,257946,257894
 7.6000e+001 258147 -5.9995e+004 -3.4678e+006  1.1169e+005 46024 258046,258098,258072
 7.6000e+001 258124 -3.8310e+005 -2.5543e+006  4.0814e+005 46024 258020,258098,258046
 7.6000e+001 258250 -2.9917e+005 -5.5982e+005  2.9220e+005 45741 258172,258224,258198
 7.6000e+001 258402 -9.6542e+005 -3.1819e+006  7.9819e+005 45401 258301,258353,258327
 7.6000e+001 258379 -4.9928e+005 -2.8824e+006  1.0638e+006 45401 258275,258353,258301
 7.6000e+001 258603 -6.9661e+005 -1.8793e+006  9.5896e+003 45071 258427,258505,258479
 7.6000e+001 258580 -2.3021e+005 -4.4274e+006  2.5923e+005 45071 258427,258531,258505
 7.6000e+001 258557 -2.8574e+005 -2.7560e+006  1.9602e+005 45071 258427,258479,258453
 7.6000e+001 258755 -2.1272e+005 -4.1226e+006 -4.0871e+005 44681 258654,258706,258680
 7.6000e+001 258732 -3.2332e+005 -3.4152e+006 -4.1093e+005 44681 258628,258706,258654
 7.6000e+001 258907 -1.6657e+005 -3.3075e+006 -3.2680e+005 44157 258806,258858,258832
 7.6000e+001 258884 -7.5064e+005 -2.4534e+006 -2.3201e+005 44157 258780,258858,258806
 7.6000e+001 259010 -5.4119e+005 -2.2591e+006 -1.0582e+005 43705 258932,258984,258958
 7.6000e+001 259113 -4.5973e+005 -3.1463e+006  1.7883e+005 43284 259035,259087,259061
 7.6000e+001 259216 -3.5476e+005 -4.6531e+006 -2.3029e+005 42954 259138,259190,259164
 7.6000e+001 259319 -7.1453e+005 -1.4444e+006 -1.8849e+003 42116 259241,259293,259267
 7.6000e+001 259422 -7.1482e+005 -7.3308e+006  1.5647e+006 41804 259344,259396,259370
 7.6000e+001 259525 -6.2691e+005 -6.1783e+006  9.1487e+005 41219 259447,259499,259473
 7.6000e+001 259628 -6.2352e+005 -2.7767e+006 -5.8588e+005 385 259550,259602,259576
 7.8000e+001 190120 -2.0442e+005 -2.3301e+006 -4.2859e+005 189630 189993,190045,190019
 7.8000e+001 190097 -6.9758e+005 -1.7116e+006 -2.6665e+005 189630 189993,190071,190045
 7.8000e+001 190319 -1.4883e+006 -4.6240e+006 -5.7957e+005 189312 190169,190221,190195
 7.8000e+001 190296 -5.6714e+005 -4.0634e+006 -1.0389e+006 189312 190169,190247,190221
 7.8000e+001 190273 -9.0259e+005 -3.4092e+006  2.2949e+005 189312 190143,190247,190169
 7.8000e+001 190518 -4.7799e+005  4.8833e+004  1.6017e+004 189124 190368,190446,190420
 7.8000e+001 190495 -5.6252e+005  2.1614e+004 -4.2656e+003 189124 190342,190446,190368
 7.8000e+001 190472 -9.8961e+005 -5.2967e+004 -4.8909e+004 189124 190368,190420,190394
 7.8000e+001 190619 -4.5051e+005 -4.6773e+004 -6.1539e+003 188926 190541,190593,190567
 7.8000e+001 190771 -4.8828e+005 -7.5050e+004  1.2951e+004 188614 190670,190722,190696
 7.8000e+001 190748 -5.5817e+005  1.6492e+005  5.4124e+004 188614 190644,190722,190670
 7.8000e+001 190972 -5.1370e+005 -5.1372e+005 -3.6097e+005 188324 190848,190900,190874
 7.8000e+001 190949 -5.1588e+005 -8.0332e+005 -5.2480e+005 188324 190796,190900,190848
 7.8000e+001 190926 -9.1069e+004 -3.7121e+005 -2.4341e+005 188324 190796,190848,190822
 7.8000e+001 191124 -6.8637e+005 -9.9802e+005 -1.6135e+005 188034 191023,191075,191049
 7.8000e+001 191101 -1.5949e+005 -1.1258e+006 -1.1926e+005 188034 190997,191075,191023
 7.8000e+001 191276 -2.0130e+005 -1.1426e+006 -9.1212e+004 187836 191149,191201,191175
 7.8000e+001 191253 -2.7901e+005 -5.9935e+005  2.0159e+005 187836 191149,191227,191201
 7.8000e+001 191379 -4.5965e+005 -3.3496e+005 -1.0051e+005 187546 191301,191353,191327
 7.8000e+001 191531 -2.6498e+005 -3.7421e+006  3.2187e+005 187256 191430,191482,191456
 7.8000e+001 191508 -1.1368e+006 -5.3900e+006 -1.6780e+006 187256 191404,191482,191430
 7.8000e+001 191634 -7.4148e+005  2.3135e+004 -1.7102e+004 187058 191556,191608,191582
 7.8000e+001 191835 -5.1102e+005  1.9640e+004 -2.1211e+004 186860 191659,191711,191685
 7.8000e+001 191812 -3.3324e+005 -1.0343e+005  8.0260e+003 186860 191659,191737,191711
 7.8000e+001 191789 -2.9199e+005 -6.1194e+003 -4.3008e+004 186860 191659,191763,191737
 7.8000e+001 191987 -1.6238e+005 -6.3531e+005 -2.2308e+005 186662 191886,191938,191912
 7.8000e+001 191964  1.5970e+005 -1.5485e+006  3.6701e+005 186662 191860,191938,191886
 7.8000e+001 192090 -7.7488e+005 -1.6914e+006 -3.2279e+005 186486 192012,192064,192038
 7.8000e+001 192242 -1.4001e+005 -7.8134e+006 -3.2026e+005 186288 192115,192167,192141
 7.8000e+001 192219 -8.3027e+005 -4.7405e+006  1.7799e+005 186288 192115,192193,192167
 7.8000e+001 192394  1.0242e+005 -6.3425e+006 -2.5812e+005 185935 192293,192345,192319
 7.8000e+001 192371 -5.4954e+005 -4.3369e+006 -7.1933e+005 185935 192267,192345,192293
 7.8000e+001 192546 -4.4192e+005 -3.2848e+006 -7.1527e+005 185675 192419,192471,192445
 7.8000e+001 192523 -9.5734e+005 -1.5959e+006 -7.7037e+005 185675 192419,192497,192471
 7.8000e+001 192649 -8.6146e+005 -2.1744e+006 -3.1881e+005 185499 192571,192623,192597
 7.8000e+001 192801 -2.8135e+005 -1.2704e+006  1.0016e+005 185301 192674,192726,192700
 7.8000e+001 192778 -1.4009e+005 -1.3876e+006  5.0478e+005 185301 192674,192752,192726
 7.8000e+001 193002 -9.0000e+004 -6.1221e+005 -4.0078e+005 185046 192852,192930,192878
 7.8000e+001 192979 -3.6885e+005 -1.5920e+006 -2.4091e+005 185046 192826,192930,192852
 7.8000e+001 192956  4.4528e+005 -2.0128e+006 -1.2669e+004 185046 192878,192930,192904
 7.8000e+001 193203  1.6734e+005 -5.3766e+006 -7.7491e+005 184798 193079,193131,193105
 7.8000e+001 193180 -9.8364e+005 -3.4341e+006 -2.4510e+005 184798 193027,193131,193079
 7.8000e+001 193157 -1.6334e+006 -3.6314e+006  2.7254e+005 184798 193027,193079,193053
 7.8000e+001 193404 -2.3303e+005 -5.0114e+006 -1.2949e+006 184600 193254,193306,193280
 7.8000e+001 193381 -5.4076e+005 -1.4493e+006 -1.9950e+005 184600 193254,193332,193306
 7.8000e+001 193358 -8.7766e+005 -4.1494e+005 -4.1289e+005 184600 193228,193332,193254
 7.8000e+001 193556 -6.2857e+005 -5.2629e+005 -5.8662e+005 184402 193429,193481,193455
 7.8000e+001 193533 -6.3781e+005 -5.5358e+005 -5.6612e+005 184402 193429,193507,193481
 7.8000e+001 193708  5.9137e+004 -1.6798e+006  1.5618e+005 184204 193607,193659,193633
 7.8000e+001 193685 -5.1584e+005 -6.2770e+006 -1.1416e+006 184204 193581,193659,193607
 7.8000e+001 193860 -5.9616e+005 -7.1060e+005  4.3787e+005 183908 193759,193811,193785
 7.8000e+001 193837 -6.9629e+004 -1.4342e+006  5.0478e+005 183908 193733,193811,193759
 7.8000e+001 194061 -3.5263e+005 -2.8016e+005  1.9152e+005 183710 193911,193989,193937
 7.8000e+001 194038 -6.1226e+005 -8.9712e+005  4.1337e+005 183710 193885,193989,193911
 7.8000e+001 194015 -4.4744e+005 -1.0934e+006  3.7280e+005 183710 193937,193989,193963
 7.8000e+001 194262 -6.6896e+005 -2.7191e+006 -7.2429e+005 183420 194086,194164,194112
 7.8000e+001 194239 -6.7156e+005 -2.5387e+006 -4.2526e+005 183420 194086,194190,194164
 7.8000e+001 194216  4.9769e+005 -7.0979e+006  1.3715e+006 183420 194112,194164,194138
 7.8000e+001 194414 -5.9164e+005 -5.6136e+006 -2.3044e+005 183222 194287,194339,194313
 7.8000e+001 194391 -3.4591e+005 -1.5323e+006 -4.3201e+005 183222 194287,194365,194339
 7.8000e+001 194517 -1.0234e+006 -8.7815e+005 -4.4974e+004 183024 194439,194491,194465
 7.8000e+001 194718  1.7758e+006 -1.5493e+007  1.4539e+006 182734 194568,194620,194594
 7.8000e+001 194695 -1.1547e+006 -4.4594e+006 -3.2893e+006 182734 194542,194620,194568
 7.8000e+001 194672 -3.3681e+006 -2.0958e+006 -1.6014e+006 182734 194542,194646,194620
 7.8000e+001 194870 -4.7621e+005 -3.4602e+005  3.6715e+005 182444 194769,194821,194795
 7.8000e+001 194847 -5.2122e+005 -9.5276e+005  7.1706e+005 182444 194743,194821,194769
 7.8000e+001 195071 -3.0693e+005 -1.3828e+006  8.1690e+005 182154 194895,194947,194921
 7.8000e+001 195048 -3.5932e+005 -4.9702e+005  1.6207e+005 182154 194895,194999,194947
 7.8000e+001 195025 -3.3505e+005 -1.5803e+005  2.0559e+005 182154 194947,194999,194973
 7.8000e+001 195223 -3.2351e+005 -3.2500e+005 -1.6814e+005 181814 195096,195148,195122
 7.8000e+001 195200 -5.5040e+005 -1.7594e+006 -1.2391e+006 181814 195096,195174,195148
 7.8000e+001 195375 -2.8462e+004 -4.6088e+004 -2.6036e+004 181524 195248,195300,195274
 7.8000e+001 195352  1.5966e+004 -2.2605e+005 -2.9380e+003 181524 195248,195326,195300
 7.8000e+001 195527 -2.2673e+005 -4.1728e+005  2.0970e+005 181326 195426,195478,195452
 7.8000e+001 195504 -1.1933e+006 -1.0228e+006  8.6283e+005 181326 195400,195478,195426
 7.8000e+001 195679 -2.7670e+004 -9.6740e+006 -5.3516e+005 180936 195578,195630,195604
 7.8000e+001 195656 -5.8022e+005 -4.1025e+006 -3.5139e+005 180936 195552,195630,195578
 7.8000e+001 195831 -4.5976e+005 -3.7747e+005 -1.7889e+005 180646 195704,195756,195730
 7.8000e+001 195808 -7.3385e+005 -2.4647e+004  1.4857e+004 180646 195704,195782,195756
 7.8000e+001 196032 -3.0358e+005 -2.0919e+006  4.1699e+005 180306 195882,195960,195934
 7.8000e+001 196009 -3.9486e+005 -8.2994e+005 -2.7709e+005 180306 195856,195960,195882
 7.8000e+001 195986  2.8035e+004 -2.2830e+006  1.7648e+005 180306 195882,195934,195908
 7.8000e+001 196233 -2.4783e+005 -2.0032e+005 -9.3123e+005 179944 196057,196109,196083
 7.8000e+001 196210 -9.5185e+005 -3.5809e+006  4.5594e+005 179944 196057,196135,196109
 7.8000e+001 196187 -2.0540e+006  4.6577e+006 -1.5252e+006 179944 196057,196161,196135
 7.8000e+001 196385 -5.6639e+005 -6.6527e+005 -4.1419e+005 179604 196258,196310,196284
 7.8000e+001 196362 -8.5230e+005 -1.0997e+006 -1.0390e+006 179604 196258,196336,196310
 7.8000e+001 196586 -8.9347e+005 -5.7414e+005 -7.1423e+005 179114 196410,196488,196436
 7.8000e+001 196563 -6.5678e+005 -1.9140e+006 -7.0724e+005 179114 196410,196514,196488
 7.8000e+001 196540 -4.9551e+003 -5.2632e+005 -5.2822e+004 179114 196436,196488,196462
 7.8000e+001 196738 -7.2713e+005 -1.5974e+006 -6.9444e+005 178674 196611,196663,196637
 7.8000e+001 196715  5.1507e+004 -3.6396e+006 -1.6206e+005 178674 196611,196689,196663
 7.8000e+001 196939  4.5941e+005 -8.9468e+006 -2.8243e+006 178334 196789,196867,196841
 7.8000e+001 196916 -1.7761e+006 -9.3522e+006  1.3171e+005 178334 196763,196867,196789
 7.8000e+001 196893 -2.4494e+006 -7.0018e+006 -4.3388e+006 178334 196789,196841,196815
 7.8000e+001 197091 -5.4533e+005 -2.8454e+006 -5.9449e+005 177930 196990,197042,197016
 7.8000e+001 197068 -6.9489e+005 -3.3033e+006 -2.8597e+005 177930 196964,197042,196990
 7.8000e+001 197194 -1.6953e+003 -5.1866e+001 -7.9396e+002 177732 197116,197168,197142
 7.8000e+001 197346 -4.4665e+005 -5.4536e+006  2.3940e+005 177534 197219,197271,197245
 7.8000e+001 197323 -1.9552e+005 -5.9366e+006  4.8749e+005 177534 197219,197297,197271
 7.8000e+001 197547 -1.5624e+006 -8.5168e+006 -3.6148e+006 177130 197397,197449,197423
 7.8000e+001 197524 -2.2909e+006 -9.0705e+006 -2.9870e+006 177130 197397,197475,197449
 7.8000e+001 197501 -1.1481e+006 -9.3292e+006 -2.6873e+006 177130 197371,197475,197397
 7.8000e+001 197748 -6.4265e+005 -5.3105e+006  4.8052e+005 176790 197598,197676,197624
 7.8000e+001 197725 -4.3768e+005 -4.0645e+006  6.8939e+005 176790 197572,197676,197598
 7.8000e+001 197702 -5.3266e+005 -4.5503e+006  4.7776e+005 176790 197624,197676,197650
 7.8000e+001 197900 -2.9082e+005 -2.7991e+006 -4.7850e+005 176300 197773,197825,197799
 7.8000e+001 197877 -3.8824e+004 -4.2090e+006 -3.6502e+005 176300 197773,197851,197825
 7.8000e+001 198052 -8.3934e+005 -5.2150e+006 -9.9798e+005 176010 197925,197977,197951
 7.8000e+001 198029 -3.9057e+005 -5.1312e+006 -1.3780e+006 176010 197925,198003,197977
 7.8000e+001 198204 -1.0161e+006 -4.0168e+006 -1.7223e+006 175670 198103,198155,198129
 7.8000e+001 198181 -1.3676e+006 -3.0174e+006 -4.5318e+005 175670 198077,198155,198103
 7.8000e+001 198405 -1.4938e+005 -3.7570e+006 -6.0798e+005 175266 198255,198307,198281
 7.8000e+001 198382  9.0902e+002 -4.7360e+006 -1.4347e+006 175266 198229,198307,198255
 7.8000e+001 198359 -1.0162e+006 -3.9634e+006 -2.0013e+006 175266 198229,198333,198307
 7.8000e+001 198606  5.2254e+002 -1.4938e+004 -7.6185e+002 174876 198430,198508,198482
 7.8000e+001 198583  9.8938e+002 -1.5228e+004  2.9677e+003 174876 198430,198534,198508
 7.8000e+001 198560 -4.2070e+003 -4.2300e+003 -3.6550e+003 174876 198430,198482,198456
 7.8000e+001 198758  1.2281e+002 -7.6957e+002  1.4128e+003 174536 198657,198709,198683
 7.8000e+001 198735  3.8330e+002 -1.2335e+003 -3.5102e+002 174536 198631,198709,198657
 7.8000e+001 199008 -9.7655e+005 -5.1168e+006 -6.4644e+004 174132 198835,198913,198887
 7.8000e+001 198985 -6.4630e+005 -2.0665e+006  2.6672e+005 174132 198809,198913,198835
 7.8000e+001 198962 -6.3317e+005 -2.3062e+006 -1.3378e+006 174132 198783,198913,198809
 7.8000e+001 198939 -4.0437e+005 -5.4054e+006 -5.3913e+003 174132 198835,198887,198861
 7.8000e+001 199160 -1.0352e+006 -2.7227e+006 -6.1379e+005 173842 199059,199111,199085
 7.8000e+001 199137 -4.0399e+005 -1.2884e+006 -1.1914e+005 173842 199033,199111,199059
 7.8000e+001 199361 -7.2692e+005 -3.9201e+006  1.2037e+006 173438 199237,199289,199263
 7.8000e+001 199338 -3.8900e+005 -4.3314e+006  1.2429e+006 173438 199211,199289,199237
 7.8000e+001 199315 -5.0346e+004 -6.4379e+006 -5.4323e+005 173438 199185,199289,199211
 7.8000e+001 199513 -8.1644e+005 -5.2366e+006 -3.1544e+004 173190 199386,199438,199412
 7.8000e+001 199490 -1.4334e+006 -5.9272e+006  4.6692e+005 173190 199386,199464,199438
 7.8000e+001 199665 -4.6504e+005 -1.5305e+006  2.5054e+005 172750 199564,199616,199590
 7.8000e+001 199642 -8.9167e+005 -8.5859e+005 -2.3811e+004 172750 199538,199616,199564
 7.8000e+001 199817 -2.1769e+005 -2.9182e+006 -9.6259e+005 172524 199690,199742,199716
 7.8000e+001 199794 -1.4004e+006 -9.1970e+005 -5.3079e+005 172524 199690,199768,199742
 7.8000e+001 199969 -6.7939e+003 -6.1159e+006 -1.9931e+005 172348 199842,199894,199868
 7.8000e+001 199946  2.1344e+005 -6.0725e+006 -6.2966e+004 172348 199842,199920,199894
 7.8000e+001 200121  6.7889e+004 -1.3662e+006 -2.5708e+005 172008 199994,200046,200020
 7.8000e+001 200098 -1.4910e+005 -4.3759e+005 -1.0289e+005 172008 199994,200072,200046
 7.8000e+001 200273 -2.1021e+006 -7.1769e+006 -2.9904e+006 171668 200172,200224,200198
 7.8000e+001 200250 -1.4201e+006 -6.9088e+006 -1.9308e+006 171668 200146,200224,200172
 7.8000e+001 200474  1.8971e+005 -4.1494e+006 -6.5607e+005 171264 200350,200402,200376
 7.8000e+001 200451 -1.8995e+005 -4.6007e+006 -9.0762e+005 171264 200324,200402,200350
 7.8000e+001 200428 -3.1409e+005 -3.0688e+006  9.8218e+005 171264 200298,200402,200324
 7.8000e+001 200626 -1.0608e+006 -4.5122e+006 -7.6776e+005 170832 200525,200577,200551
 7.8000e+001 200603 -2.7932e+005 -2.7493e+006 -1.6424e+005 170832 200499,200577,200525
 7.8000e+001 200827 -5.7959e+004 -1.3704e+006  3.4765e+005 170492 200677,200729,200703
 7.8000e+001 200804 -8.5574e+005 -6.4019e+005 -2.4092e+005 170492 200651,200729,200677
 7.8000e+001 200781 -6.0309e+005 -8.0262e+005 -4.2649e+005 170492 200651,200755,200729
 7.8000e+001 201077 -7.0377e+005 -2.3769e+006 -2.2257e+005 170088 200878,200956,200904
 7.8000e+001 201054 -4.9028e+005 -1.2099e+006 -1.6994e+005 170088 200852,200956,200878
 7.8000e+001 201031 -9.0001e+005 -1.3093e+006  2.0371e+006 170088 200904,200956,200930
 7.8000e+001 201008 -1.7532e+004 -1.6231e+006  1.1553e+005 170088 200852,200982,200956
 7.8000e+001 201278  1.1924e+004 -3.1552e+005 -1.2490e+005 169798 201102,201154,201128
 7.8000e+001 201255 -2.2669e+005 -1.0921e+006 -2.6799e+005 169798 201102,201206,201154
 7.8000e+001 201232 -1.2108e+006  1.9606e+005  1.2651e+005 169798 201154,201206,201180
 7.8000e+001 201430 -1.1948e+005 -2.2433e+006 -4.7308e+005 169337 201303,201355,201329
 7.8000e+001 201407 -1.0557e+005 -7.3160e+005 -1.2863e+005 169337 201303,201381,201355
 7.8000e+001 201631 -2.3042e+005 -2.9579e+006  6.5495e+005 168883 201481,201559,201507
 7.8000e+001 201608 -2.8205e+005 -2.5724e+006  8.8989e+005 168883 201455,201559,201481
 7.8000e+001 201585 -1.9901e+005 -2.0741e+006  7.0953e+005 168883 201507,201559,201533
 7.8000e+001 201832  3.0465e+005 -6.8068e+006  3.5454e+005 168479 201682,201734,201708
 7.8000e+001 201809 -2.0908e+006 -4.9924e+006 -1.2465e+006 168479 201656,201734,201682
 7.8000e+001 201786 -1.7606e+006 -3.6882e+006  8.8986e+003 168479 201656,201760,201734
 7.8000e+001 202033 -2.3688e+005 -2.4266e+006  1.4452e+005 167825 201883,201935,201909
 7.8000e+001 202010 -1.3170e+006 -3.4044e+006 -1.6200e+006 167825 201857,201935,201883
 7.8000e+001 201987  9.0367e+004 -9.1738e+006 -8.1152e+005 167825 201857,201961,201935
 7.8000e+001 202234 -1.0891e+005 -4.2425e+005 -2.0239e+004 167435 202058,202136,202084
 7.8000e+001 202211 -4.2136e+005 -1.1563e+006  6.9463e+005 167435 202058,202162,202136
 7.8000e+001 202188 -1.5887e+005 -2.2219e+005  1.4469e+005 167435 202084,202136,202110
 7.8000e+001 202386  2.8689e+004 -1.4779e+006  2.7302e+005 167002 202285,202337,202311
 7.8000e+001 202363 -2.9430e+005 -4.0867e+005  2.7101e+005 167002 202259,202337,202285
 7.8000e+001 202538 -2.6927e+006 -1.8372e+006 -1.9789e+006 166662 202411,202463,202437
 7.8000e+001 202515 -8.7005e+005 -4.3073e+006 -3.1995e+006 166662 202411,202489,202463
 7.8000e+001 202690 -1.2649e+004 -1.5258e+006 -5.9439e+005 166322 202589,202641,202615
 7.8000e+001 202667 -3.4706e+003 -8.5436e+005 -6.6333e+004 166322 202563,202641,202589
 7.8000e+001 202891 -1.5655e+005 -3.3126e+004 -1.1713e+004 165918 202715,202767,202741
 7.8000e+001 202868 -2.1436e+005 -3.8236e+005 -2.7470e+005 165918 202715,202793,202767
 7.8000e+001 202845 -4.0482e+005 -5.4571e+005 -1.6721e+005 165918 202715,202819,202793
 7.8000e+001 203092  1.3776e+005 -1.9763e+006 -2.8734e+005 165628 202916,202968,202942
 7.8000e+001 203069 -6.6692e+003 -1.2146e+006 -3.5483e+005 165628 202916,202994,202968
 7.8000e+001 203046 -2.0082e+005 -1.0973e+006 -4.7154e+005 165628 202916,203020,202994
 7.8000e+001 203293 -3.6367e+006 -1.9731e+006 -2.6275e+006 165266 203143,203195,203169
 7.8000e+001 203270 -1.4393e+006 -5.2184e+006 -5.9189e+005 165266 203143,203221,203195
 7.8000e+001 203247 -9.3466e+005 -5.5677e+006 -1.0043e+006 165266 203117,203221,203143
 7.8000e+001 203445 -2.5063e+005 -1.0595e+006  4.0039e+005 164826 203318,203370,203344
 7.8000e+001 203422 -8.3359e+004 -6.7841e+005 -3.9105e+004 164826 203318,203396,203370
 7.8000e+001 203597 -5.1059e+005 -1.6682e+006 -2.6521e+005 164386 203470,203522,203496
 7.8000e+001 203574 -7.4266e+005 -2.0952e+006 -6.3848e+005 164386 203470,203548,203522
 7.8000e+001 203798 -1.6134e+005 -3.8278e+004 -1.9260e+004 163996 203622,203674,203648
 7.8000e+001 203775 -7.2310e+005 -4.2526e+004  1.5701e+005 163996 203622,203726,203674
 7.8000e+001 203752 -6.8071e+005 -2.5468e+003 -4.3354e+004 163996 203674,203726,203700
 7.8000e+001 203901 -5.2667e+005 -1.1566e+006 -6.4012e+004 163770 203823,203875,203849
 7.8000e+001 204053 -1.7018e+006 -2.6560e+006 -9.3610e+005 163474 203952,204004,203978
 7.8000e+001 204030 -2.0635e+006 -3.1472e+006 -1.6627e+006 163474 203926,204004,203952
 7.8000e+001 204205 -1.4065e+005 -1.2527e+006 -2.0708e+005 163034 204104,204156,204130
 7.8000e+001 204182 -4.3084e+005 -1.6167e+006 -5.8306e+005 163034 204078,204156,204104
 7.8000e+001 204357 -1.0350e+005 -1.6078e+004  3.8379e+004 162624 204256,204308,204282
 7.8000e+001 204334 -6.2007e+004 -1.4704e+004  1.0254e+005 162624 204230,204308,204256
 7.8000e+001 204509 -3.0686e+003 -4.8548e+003  9.1087e+002 162200 204382,204434,204408
 7.8000e+001 204486 -3.1954e+003  2.6300e+002 -1.2636e+003 162200 204382,204460,204434
 7.8000e+001 204710 -1.9825e+006 -2.7275e+005  1.5252e+005 161810 204560,204638,204586
 7.8000e+001 204687 -1.4266e+006 -9.0904e+005 -7.4898e+005 161810 204534,204638,204560
 7.8000e+001 204664 -1.6659e+006 -2.4317e+005  5.4456e+005 161810 204586,204638,204612
 7.8000e+001 204862 -7.0550e+005 -7.8722e+005 -5.1913e+005 161406 204735,204787,204761
 7.8000e+001 204839 -5.2873e+005 -8.2596e+005 -5.3538e+005 161406 204735,204813,204787
 7.8000e+001 205014  3.4381e+002 -9.9026e+001  7.3356e+002 161180 204887,204939,204913
 7.8000e+001 204991 -2.3280e+002  7.8494e+000  7.3421e+002 161180 204887,204965,204939
 7.8000e+001 205215 -8.1791e+005 -1.2864e+006 -1.6969e+006 160726 205039,205091,205065
 7.8000e+001 205192 -1.2472e+006 -3.0732e+006 -1.5210e+006 160726 205039,205143,205091
 7.8000e+001 205169 -1.4615e+006 -1.7499e+006 -1.6454e+006 160726 205091,205143,205117
 7.8000e+001 205416 -4.5547e+004 -1.1827e+004  2.3203e+004 160272 205292,205344,205318
 7.8000e+001 205393 -1.4217e+005  1.4440e+004 -4.7065e+004 160272 205240,205344,205292
 7.8000e+001 205370 -1.4880e+005 -1.4529e+004 -4.9282e+004 160272 205240,205292,205266
 7.8000e+001 205568 -1.0421e+003 -1.4601e+003  2.0792e+003 159932 205441,205493,205467
 7.8000e+001 205545  8.1770e+002 -1.0813e+003  2.2273e+002 159932 205441,205519,205493
 7.8000e+001 205720 -2.0962e+002 -1.3050e+002  1.9731e+000 159542 205593,205645,205619
 7.8000e+001 205697 -2.2633e+002 -3.4435e+001 -7.6755e+001 159542 205593,205671,205645
 7.8000e+001 205872 -4.2244e+002  3.6254e+002  2.7851e+003 159252 205745,205797,205771
 7.8000e+001 205849  2.5888e+002  1.1008e+003 -1.7109e+003 159252 205745,205823,205797
 7.8000e+001 206024 -1.1456e+005 -7.7229e+005  3.3172e+005 159004 205923,205975,205949
 7.8000e+001 206001 -6.2717e+004 -1.4237e+006  4.7332e+005 159004 205897,205975,205923
 7.8000e+001 206127 -4.7503e+006 -4.0092e+006  3.5356e+003 158364 206049,206101,206075
 7.8000e+001 206328  1.3463e+002 -2.5104e+003 -9.6351e+002 157960 206178,206256,206204
 7.8000e+001 206305  2.1688e+003  3.8166e+002  1.7004e+003 157960 206152,206256,206178
 7.8000e+001 206282 -2.4910e+003 -2.7861e+003 -2.6010e+003 157960 206204,206256,206230
 7.8000e+001 206529 -1.6450e+006 -4.4409e+006  1.1160e+006 157648 206405,206457,206431
 7.8000e+001 206506 -2.6979e+006 -1.1976e+006  9.6869e+005 157648 206379,206457,206405
 7.8000e+001 206483 -2.7616e+006 -8.6940e+005  1.3790e+006 157648 206353,206457,206379
 7.8000e+001 206730 -6.0828e+004 -9.7539e+003  2.7829e+004 157208 206554,206606,206580
 7.8000e+001 206707 -2.6858e+004 -5.3087e+003  1.2090e+004 157208 206554,206632,206606
 7.8000e+001 206684 -8.4914e+004 -1.6303e+004  3.8622e+004 157208 206554,206658,206632
 7.8000e+001 206882 -3.4667e+002 -4.1906e+002 -2.5447e+002 157010 206755,206807,206781
 7.8000e+001 206859 -8.9240e+001 -4.1507e+002 -2.9491e+002 157010 206755,206833,206807
 7.8000e+001 207034 -1.6667e+002 -5.8770e+002  1.4494e+002 156620 206907,206959,206933
 7.8000e+001 207011  5.0786e+002 -5.5207e+002 -2.3962e+002 156620 206907,206985,206959
 7.8000e+001 207186 -1.3868e+005 -1.0737e+006 -7.6624e+004 156330 207085,207137,207111
 7.8000e+001 207163 -4.6374e+005 -1.2347e+006 -1.0096e+006 156330 207059,207137,207085
 7.8000e+001 207387 -8.8836e+005 -1.2701e+006 -2.3815e+005 155890 207211,207289,207237
 7.8000e+001 207364 -1.5744e+006 -1.4695e+006 -7.6904e+005 155890 207211,207315,207289
 7.8000e+001 207341 -3.2257e+005 -8.5538e+005  5.6463e+004 155890 207237,207289,207263
 7.8000e+001 207588 -5.7019e+005 -1.9939e+007  7.4745e+006 155436 207438,207490,207464
 7.8000e+001 207565 -1.2417e+006 -1.3995e+007 -9.3761e+005 155436 207412,207490,207438
 7.8000e+001 207542 -2.5572e+006 -6.7460e+006 -1.1329e+006 155436 207412,207516,207490
 7.8000e+001 207789  1.6792e+006 -2.9182e+007 -1.9455e+006 155260 207639,207691,207665
 7.8000e+001 207766 -3.6842e+006 -8.9608e+006  4.4609e+006 155260 207613,207691,207639
 7.8000e+001 207743 -1.4540e+006 -6.6151e+006 -9.1655e+004 155260 207613,207717,207691
 7.8000e+001 207990  6.7227e+002 -2.0193e+003  2.2736e+002 154920 207840,207918,207892
 7.8000e+001 207967 -6.9349e+002 -2.5332e+003 -6.3417e+002 154920 207814,207918,207840
 7.8000e+001 207944  3.8871e+002 -4.5174e+003  1.5848e+003 154920 207840,207892,207866
 7.8000e+001 208191 -3.2044e+003 -2.3587e+003  4.0925e+003 154630 208015,208093,208041
 7.8000e+001 208168 -1.2132e+003  2.5522e+003  2.4990e+003 154630 208015,208119,208093
 7.8000e+001 208145 -7.9537e+001 -6.1516e+002  2.7538e+003 154630 208041,208093,208067
 7.8000e+001 208343 -3.3727e+003 -1.5479e+003  2.2969e+003 154240 208216,208268,208242
 7.8000e+001 208320 -3.6259e+003  1.5947e+003 -1.1244e+003 154240 208216,208294,208268
 7.8000e+001 208495  5.8230e+005 -4.6545e+006 -7.7121e+005 153950 208394,208446,208420
 7.8000e+001 208472 -4.6227e+005 -2.2508e+006  8.7916e+005 153950 208368,208446,208394
 7.8000e+001 208647 -1.1516e+006 -6.7302e+005  1.8965e+006 153603 208520,208572,208546
 7.8000e+001 208624 -1.0661e+006 -1.4526e+006 -9.4557e+005 153603 208520,208598,208572
 7.8000e+001 208848 -1.1207e+006 -4.0334e+005  4.6624e+004 153149 208698,208776,208724
 7.8000e+001 208825 -2.4359e+006  1.0264e+005  1.5523e+005 153149 208672,208776,208698
 7.8000e+001 208802 -5.5780e+005 -2.4750e+005  3.7527e+005 153149 208724,208776,208750
 7.8000e+001 209000 -2.8076e+005 -1.2301e+006  1.1002e+005 152859 208873,208925,208899
 7.8000e+001 208977  4.6318e+005 -3.6960e+006  4.0214e+005 152859 208873,208951,208925
 7.8000e+001 209152  1.9565e+005 -2.2142e+006  2.0083e+005 152569 209051,209103,209077
 7.8000e+001 209129  3.3119e+005 -3.0950e+006 -2.7978e+005 152569 209025,209103,209051
 7.8000e+001 209304  7.2245e+002 -3.0934e+002  1.5373e+002 152065 209177,209229,209203
 7.8000e+001 209281  2.3656e+003 -7.6878e+002 -2.6283e+002 152065 209177,209255,209229
 7.8000e+001 209456 -1.7521e+006 -1.7508e+006 -4.8194e+005 151775 209355,209407,209381
 7.8000e+001 209433 -1.5275e+006 -5.2530e+006 -6.2976e+005 151775 209329,209407,209355
 7.8000e+001 209608 -9.8123e+005 -3.9126e+006 -1.3630e+006 151371 209481,209533,209507
 7.8000e+001 209585  8.0099e+005 -7.5361e+006 -4.1660e+005 151371 209481,209559,209533
 7.8000e+001 209760  3.1811e+003  2.4842e+003 -7.5240e+003 150981 209659,209711,209685
 7.8000e+001 209737  8.8293e+003  5.5779e+003 -4.4919e+003 150981 209633,209711,209659
 7.8000e+001 209912  2.2039e+006 -3.0074e+007 -2.6715e+006 150619 209811,209863,209837
 7.8000e+001 209889 -2.7948e+006 -1.2437e+007  3.3881e+006 150619 209785,209863,209811
 7.8000e+001 210064 -5.2845e+004 -1.6956e+005  6.4306e+004 150279 209937,209989,209963
 7.8000e+001 210041 -4.5302e+004 -6.6254e+004  5.3900e+004 150279 209937,210015,209989
 7.8000e+001 210265 -3.3610e+006 -5.2812e+006 -2.1745e+005 149989 210115,210167,210141
 7.8000e+001 210242 -1.2854e+006 -6.0975e+006 -1.3668e+006 149989 210115,210193,210167
 7.8000e+001 210219 -7.9301e+005 -6.0874e+006 -1.0294e+006 149989 210089,210193,210115
 7.8000e+001 210417 -4.0142e+004 -8.9920e+004  5.4653e+004 149599 210316,210368,210342
 7.8000e+001 210394  4.2577e+004 -1.7311e+005  4.6684e+004 149599 210290,210368,210316
 7.8000e+001 210618 -3.1841e+006 -1.3276e+007  3.4074e+006 149095 210468,210520,210494
 7.8000e+001 210595 -2.9192e+006 -1.3163e+007  2.9272e+006 149095 210442,210520,210468
 7.8000e+001 210572 -1.2918e+006 -1.5430e+007  2.6249e+006 149095 210442,210546,210520
 7.8000e+001 210819  8.8997e+002 -1.5559e+004 -7.6811e+002 148748 210695,210747,210721
 7.8000e+001 210796  4.8345e+003 -9.2210e+002  8.5432e+002 148748 210669,210747,210695
 7.8000e+001 210773 -5.5405e+002  9.1456e+001  1.1572e+003 148748 210643,210747,210669
 7.8000e+001 210971  1.9339e+002  4.2727e+002  2.8550e+002 148408 210870,210922,210896
 7.8000e+001 210948 -7.4841e+001  2.6342e+001  8.2181e+001 148408 210844,210922,210870
 7.8000e+001 211123 -2.3117e+005 -1.8460e+006  4.8391e+005 148118 210996,211048,211022
 7.8000e+001 211100 -9.9825e+005 -1.8416e+006  1.1600e+006 148118 210996,211074,211048
 7.8000e+001 211275 -6.9756e+005 -1.3968e+006  8.3060e+005 147778 211148,211200,211174
 7.8000e+001 211252 -1.0632e+006 -2.6136e+006  1.7277e+006 147778 211148,211226,211200
 7.8000e+001 211427 -4.5786e+005  1.0592e+005  8.4702e+004 147324 211326,211378,211352
 7.8000e+001 211404  9.4166e+004 -3.8577e+005  3.8508e+004 147324 211300,211378,211326
 7.8000e+001 211628 -2.1272e+006 -1.2774e+006  8.8534e+005 147012 211452,211504,211478
 7.8000e+001 211605 -2.0729e+006  9.3998e+005  1.2618e+006 147012 211452,211556,211504
 7.8000e+001 211582 -1.9762e+006 -3.6570e+005  1.8122e+006 147012 211504,211556,211530
 7.8000e+001 211829 -4.8303e+005 -1.2202e+006  4.9270e+005 146636 211679,211757,211731
 7.8000e+001 211806  9.1760e+004 -1.3270e+006  6.0184e+005 146636 211653,211757,211679
 7.8000e+001 211783 -7.7226e+005 -1.9981e+006  1.5004e+006 146636 211679,211731,211705
 7.8000e+001 211981  1.1642e+003  1.0288e+002  6.7231e+002 146246 211880,211932,211906
 7.8000e+001 211958 -6.4558e+001 -5.7073e+002 -2.6079e+002 146246 211854,211932,211880
 7.8000e+001 212133  1.1400e+003 -1.2780e+003 -1.2073e+002 145956 212006,212058,212032
 7.8000e+001 212110  2.2746e+002 -1.1168e+003 -9.0728e+000 145956 212006,212084,212058
 7.8000e+001 212285 -1.0964e+002 -2.1871e+003  4.6261e+001 145544 212184,212236,212210
 7.8000e+001 212262 -3.8861e+001 -3.4090e+002 -3.1213e+001 145544 212158,212236,212184
 7.8000e+001 212486 -7.5996e+005 -1.6062e+007  4.2268e+006 144990 212362,212414,212388
 7.8000e+001 212463  2.8680e+005 -1.3255e+007  5.8685e+006 144990 212310,212414,212362
 7.8000e+001 212440 -4.9846e+006 -2.6124e+006  2.2583e+006 144990 212310,212362,212336
 7.8000e+001 212638 -1.7444e+004 -7.5300e+004  3.3655e+004 144600 212537,212589,212563
 7.8000e+001 212615 -2.1744e+004 -8.5450e+004  4.1196e+004 144600 212511,212589,212537
 7.8000e+001 212839 -2.1772e+005 -1.5458e+006  3.6453e+005 144210 212689,212741,212715
 7.8000e+001 212816 -2.9730e+005 -1.7007e+006  5.8741e+005 144210 212663,212741,212689
 7.8000e+001 212793 -3.0647e+005 -1.7392e+006  6.1306e+005 144210 212663,212767,212741
 7.8000e+001 212991  4.2591e+003  9.0766e+003  4.3329e+003 143920 212890,212942,212916
 7.8000e+001 212968  2.9273e+003 -1.3052e+004  2.2348e+003 143920 212864,212942,212890
 7.8000e+001 213143 -1.6749e+002  3.6712e+002  2.2838e+002 143480 213016,213068,213042
 7.8000e+001 213120 -5.1386e+002  3.0326e+002  2.6240e+002 143480 213016,213094,213068
 7.8000e+001 213295 -5.6692e+004 -1.1454e+005  7.6568e+004 142990 213194,213246,213220
 7.8000e+001 213272 -7.7326e+004 -1.2810e+005 -1.6420e+004 142990 213168,213246,213194
 7.8000e+001 213447  1.8537e+005 -1.8698e+006  9.1542e+005 142600 213320,213372,213346
 7.8000e+001 213424 -3.3648e+005 -1.6340e+006  6.9323e+005 142600 213320,213398,213372
 7.8000e+001 213599 -6.4725e+003 -7.9216e+004  1.0523e+004 142260 213472,213524,213498
 7.8000e+001 213576 -3.4538e+004 -9.6906e+004  7.5002e+004 142260 213472,213550,213524
 7.8000e+001 213751 -5.4990e+004 -2.1586e+005 -1.0878e+005 141870 213624,213676,213650
 7.8000e+001 213728 -5.7660e+004 -2.4387e+005 -6.1418e+004 141870 213624,213702,213676
 7.8000e+001 213903 -1.6708e+006 -1.9575e+006 -1.7990e+006 141530 213776,213828,213802
 7.8000e+001 213880 -4.5930e+005 -2.2818e+006 -9.0304e+005 141530 213776,213854,213828
 7.8000e+001 214055 -4.7922e+006 -9.3364e+004  5.7892e+005 141218 213928,213980,213954
 7.8000e+001 214032 -2.9078e+006 -5.8418e+005  1.6522e+005 141218 213928,214006,213980
 7.8000e+001 214207 -1.0293e+003  3.5609e+002 -1.5986e+003 140928 214080,214132,214106
 7.8000e+001 214184 -1.1931e+003 -5.2972e+002  6.3009e+002 140928 214080,214158,214132
 7.8000e+001 214359 -7.6184e+003 -4.0629e+004  1.4944e+003 140538 214232,214284,214258
 7.8000e+001 214336 -3.1329e+004 -1.4792e+005  8.9300e+004 140538 214232,214310,214284
 7.8000e+001 214560 -3.5566e+005 -4.7325e+006  1.0177e+006 140248 214384,214462,214410
 7.8000e+001 214537  8.8733e+004 -2.4072e+006  4.5238e+005 140248 214384,214488,214462
 7.8000e+001 214514 -3.5480e+005 -3.0929e+006 -8.8808e+004 140248 214410,214462,214436
 7.8000e+001 214712  2.2119e+004 -3.1763e+004  7.9755e+004 140000 214611,214663,214637
 7.8000e+001 214689 -1.5229e+004 -9.4848e+004  4.1758e+004 140000 214585,214663,214611
 7.8000e+001 214913 -3.3110e+005 -2.1594e+006 -5.6137e+005 139596 214737,214815,214763
 7.8000e+001 214890 -2.9413e+005 -1.1985e+006  1.6215e+004 139596 214737,214841,214815
 7.8000e+001 214867  9.0455e+005 -7.4042e+006  7.9290e+005 139596 214763,214815,214789
 7.8000e+001 215016 -1.0104e+002  8.3031e+001 -1.3661e+002 139420 214938,214990,214964
 7.8000e+001 215168 -4.1374e+006 -1.0053e+007  6.6137e+006 139130 215067,215119,215093
 7.8000e+001 215145 -2.0594e+006 -1.1565e+007  3.7879e+006 139130 215041,215119,215067
 7.8000e+001 215320 -2.4755e+006 -5.1098e+006  3.2176e+006 138790 215219,215271,215245
 7.8000e+001 215297 -2.1889e+006 -1.1292e+007  6.0180e+006 138790 215193,215271,215219
 7.8000e+001 215472 -4.8439e+004 -5.2647e+005  2.2519e+005 138514 215345,215397,215371
 7.8000e+001 215449 -6.5146e+004 -3.4724e+005  7.6903e+004 138514 215345,215423,215397
 7.8000e+001 215624 -3.0075e+005 -7.2035e+006  1.9305e+006 138174 215497,215549,215523
 7.8000e+001 215601 -4.2294e+005 -5.7282e+006  1.6816e+006 138174 215497,215575,215549
 7.8000e+001 215776 -8.0744e+004 -7.3000e+005 -2.6956e+005 137734 215649,215701,215675
 7.8000e+001 215753 -1.5935e+004 -7.7268e+005 -1.1166e+005 137734 215649,215727,215701
 7.8000e+001 215977  2.3484e+006 -9.6315e+006  1.3163e+006 137344 215801,215879,215827
 7.8000e+001 215954 -1.1629e+006 -2.0323e+006 -1.4050e+006 137344 215801,215905,215879
 7.8000e+001 215931  6.9823e+005 -1.4556e+007 -5.6455e+006 137344 215827,215879,215853
 7.8000e+001 216129 -5.6520e+005 -1.7071e+006  3.1776e+005 136940 216028,216080,216054
 7.8000e+001 216106 -5.2066e+005 -2.8061e+006  8.8928e+005 136940 216002,216080,216028
 7.8000e+001 216330 -1.0909e+006 -7.4677e+006  1.0182e+006 136600 216180,216232,216206
 7.8000e+001 216307 -1.2610e+006 -7.5862e+006  3.1168e+006 136600 216154,216232,216180
 7.8000e+001 216284 -1.0165e+006 -4.4451e+006  1.1504e+006 136600 216154,216258,216232
 7.8000e+001 216482  5.3223e+005 -4.7800e+006  1.1453e+006 136260 216381,216433,216407
 7.8000e+001 216459  1.9501e+005 -3.1819e+006  1.1546e+006 136260 216355,216433,216381
 7.8000e+001 216634 -4.2006e+004 -7.3026e+004  5.5794e+004 135970 216533,216585,216559
 7.8000e+001 216611 -3.0016e+004 -1.6209e+005  8.3351e+004 135970 216507,216585,216533
 7.8000e+001 216835 -1.6259e+005 -3.5044e+006  1.8303e+005 135608 216685,216763,216711
 7.8000e+001 216812  1.5447e+005 -3.8164e+006 -3.4755e+005 135608 216659,216763,216685
 7.8000e+001 216789 -3.5861e+004 -1.6600e+006  1.1809e+004 135608 216711,216763,216737
 7.8000e+001 217036 -5.6522e+005 -9.3002e+005  5.9143e+005 135312 216912,216964,216938
 7.8000e+001 217013 -5.3121e+005 -2.5204e+006  1.3775e+006 135312 216886,216964,216912
 7.8000e+001 216990  3.4219e+005 -4.6334e+006  9.5967e+005 135312 216860,216964,216886
 7.8000e+001 217237 -1.8921e+005 -1.2825e+006  4.4024e+005 134908 217061,217139,217113
 7.8000e+001 217214 -3.3094e+005 -1.3756e+006  7.3445e+005 134908 217061,217165,217139
 7.8000e+001 217191 -3.5865e+005 -1.6883e+006  6.4759e+005 134908 217061,217113,217087
 7.8000e+001 217438 -4.0011e+005 -1.3144e+007 -2.2299e+006 134568 217288,217366,217314
 7.8000e+001 217415 -1.1982e+006 -1.3119e+007 -2.3776e+006 134568 217262,217366,217288
 7.8000e+001 217392 -9.5344e+005 -1.6545e+007 -3.0170e+006 134568 217314,217366,217340
 7.8000e+001 217590 -8.0366e+004 -6.0180e+005  3.0003e+005 134106 217463,217515,217489
 7.8000e+001 217567 -6.7513e+004 -5.0220e+005  1.3900e+005 134106 217463,217541,217515
 7.8000e+001 217791  1.0774e+006  7.1119e+006  2.7698e+006 133816 217641,217693,217667
 7.8000e+001 217768 -1.7635e+006 -2.2573e+007 -6.3092e+006 133816 217641,217719,217693
 7.8000e+001 217745 -8.3101e+006 -2.1569e+006  4.2337e+006 133816 217615,217719,217641
 7.8000e+001 217992 -4.2200e+006 -5.3409e+006  5.3570e+006 133355 217842,217920,217894
 7.8000e+001 217969 -1.6110e+006 -9.7937e+006  3.8864e+006 133355 217816,217920,217842
 7.8000e+001 217946 -9.1563e+005 -3.0119e+006  6.6382e+005 133355 217842,217894,217868
 7.8000e+001 218193  8.1327e+004 -7.3717e+006  3.5215e+005 132851 218017,218095,218069
 7.8000e+001 218170 -5.6127e+006 -7.5361e+006  7.1566e+006 132851 218017,218121,218095
 7.8000e+001 218147 -1.7937e+006 -3.3640e+006 -9.0385e+005 132851 218017,218069,218043
 7.8000e+001 218345 -1.7328e+004 -9.5277e+004  3.1249e+004 132511 218244,218296,218270
 7.8000e+001 218322 -1.5496e+004 -2.4375e+005  7.1317e+004 132511 218218,218296,218244
 7.8000e+001 218497  2.0772e+006 -2.4171e+007  5.8500e+005 132235 218396,218448,218422
 7.8000e+001 218474  2.5316e+005 -9.1233e+006  1.2521e+006 132235 218370,218448,218396
 7.8000e+001 218698 -4.1843e+005 -8.0638e+006 -2.1475e+006 131945 218574,218626,218600
 7.8000e+001 218675 -1.7412e+006 -1.5719e+007 -1.4235e+006 131945 218522,218626,218574
 7.8000e+001 218652 -2.8063e+006 -6.6789e+006 -3.1602e+006 131945 218522,218574,218548
 7.8000e+001 218850 -4.0183e+005 -1.4850e+007  1.0972e+006 131655 218723,218775,218749
 7.8000e+001 218827  3.4645e+005 -1.1085e+007  6.1203e+005 131655 218723,218801,218775
 7.8000e+001 218953  8.9093e+001 -4.8131e+001 -6.5670e+001 131215 218875,218927,218901
 7.8000e+001 219105 -1.0335e+005 -2.3815e+006 -1.3035e+005 130875 218978,219030,219004
 7.8000e+001 219082 -5.0000e+004 -1.0580e+006  2.4156e+004 130875 218978,219056,219030
 7.8000e+001 219306 -6.0041e+005 -1.5570e+006  2.7269e+005 130429 219156,219234,219208
 7.8000e+001 219283 -5.6727e+005 -1.1778e+006  3.7421e+005 130429 219130,219234,219156
 7.8000e+001 219260 -1.7294e+006 -1.8732e+006  1.2091e+006 130429 219156,219208,219182
 7.8000e+001 219507 -5.2997e+005 -1.7654e+006  8.1647e+005 130025 219383,219435,219409
 7.8000e+001 219484 -4.9440e+005 -2.1680e+006  1.0069e+006 130025 219331,219435,219383
 7.8000e+001 219461 -4.8865e+005 -1.4428e+006  6.6488e+005 130025 219331,219383,219357
 7.8000e+001 219659 -1.1204e-002 -8.0417e-001  9.4919e-002 129685 219558,219610,219584
 7.8000e+001 219636  2.5788e-002  1.8510e+000 -2.1848e-001 129685 219532,219610,219558
 7.8000e+001 219860 -3.3324e+005 -1.1464e+006  7.2931e+005 129395 219710,219788,219762
 7.8000e+001 219837 -2.4766e+005 -1.5421e+006  7.5887e+005 129395 219684,219788,219710
 7.8000e+001 219814 -1.9300e+005 -1.4509e+006  5.1751e+005 129395 219710,219762,219736
 7.8000e+001 220061  6.8665e+003 -1.1235e+005  5.8245e+004 128991 219937,219989,219963
 7.8000e+001 220038  4.1010e+003 -1.9964e+005  4.4830e+004 128991 219885,219989,219937
 7.8000e+001 220015 -8.7972e+003 -2.6052e+005  8.6599e+004 128991 219885,219937,219911
 7.8000e+001 220262 -4.5993e+004 -6.2533e+004  1.0582e+004 128701 220086,220164,220112
 7.8000e+001 220239 -1.7613e+004 -1.8794e+005  7.5035e+004 128701 220086,220190,220164
 7.8000e+001 220216 -5.4520e+003 -5.1745e+004  1.6327e+004 128701 220112,220164,220138
 7.8000e+001 220463 -3.3145e+006 -9.5294e+006  4.4479e+006 128297 220339,220391,220365
 7.8000e+001 220440 -2.0177e+006 -1.1208e+007  3.9437e+006 128297 220313,220391,220339
 7.8000e+001 220417 -1.4293e+006 -1.5277e+007 -6.8293e+006 128297 220287,220391,220313
 7.8000e+001 220615 -5.8776e-002 -2.1001e-002 -3.5133e-002 128007 220488,220540,220514
 7.8000e+001 220592  6.3940e-002  2.2846e-002  3.8220e-002 128007 220488,220566,220540
 7.8000e+001 220767 -1.6048e+005 -4.3133e+006  6.8115e+005 127567 220640,220692,220666
 7.8000e+001 220744 -5.2818e+004 -2.7795e+006  4.0250e+005 127567 220640,220718,220692
 7.8000e+001 220919 -9.8547e+005 -1.3393e+007 -1.4863e+006 127163 220792,220844,220818
 7.8000e+001 220896 -4.5234e+005 -1.6469e+007  2.6628e+006 127163 220792,220870,220844
 7.8000e+001 221071 -3.3819e+006 -3.7439e+006  3.4047e+006 126915 220970,221022,220996
 7.8000e+001 221048 -2.1668e+006 -6.9694e+006  2.7833e+006 126915 220944,221022,220970
 7.8000e+001 221272 -2.0192e+006 -5.4333e+006  3.7719e+006 126461 221122,221174,221148
 7.8000e+001 221249  1.7130e+005 -5.9416e+006  9.5379e+005 126461 221122,221200,221174
 7.8000e+001 221226 -1.5145e+006 -3.0646e+006  2.1537e+006 126461 221096,221200,221122
 7.8000e+001 221375  3.2117e+000 -2.8543e+001 -5.4762e+000 126213 221297,221349,221323
 7.8000e+001 221478 -1.1785e-280  1.1275e-280  9.8525e-280 125766 221400,221452,221426
 7.8000e+001 221679 -1.5460e+004 -1.2025e+005  3.6172e+004 125212 221503,221555,221529
 7.8000e+001 221656 -8.2573e+003 -1.0539e+005  2.8294e+004 125212 221503,221581,221555
 7.8000e+001 221633 -2.4250e+004 -3.1599e+005  1.4053e+005 125212 221503,221607,221581
 7.8000e+001 221929 -7.3882e+000  5.8277e+002  3.0321e+002 124872 221782,221834,221808
 7.8000e+001 221906  4.1008e+002  1.0149e+003 -6.3861e+001 124872 221756,221834,221782
 7.8000e+001 221883 -9.7160e+001  9.7378e+002 -8.1751e+002 124872 221704,221834,221756
 7.8000e+001 221860 -1.6907e+002  1.9399e+003 -4.8200e+002 124872 221704,221756,221730
 7.8000e+001 222130 -9.8912e+005 -6.7527e+006 -1.0888e+005 124582 221980,222058,222006
 7.8000e+001 222107 -2.4136e+006 -5.6992e+006  7.0478e+005 124582 221954,222058,221980
 7.8000e+001 222084 -2.4202e+006 -6.7814e+006 -7.5920e+005 124582 222006,222058,222032
 7.8000e+001 222282 -2.1650e+006 -5.1909e+006 -6.8630e+005 124192 222181,222233,222207
 7.8000e+001 222259 -4.8479e+005 -4.0703e+006  2.2202e+005 124192 222155,222233,222181
 7.8000e+001 222483 -2.1781e+005 -8.2507e+004 -1.6067e+004 123702 222333,222385,222359
 7.8000e+001 222460 -1.8493e+004 -3.3428e+004  1.0524e+004 123702 222333,222411,222385
 7.8000e+001 222437 -2.1168e+004 -7.0275e+003 -2.8131e+003 123702 222307,222411,222333
 7.8000e+001 222635 -1.1783e+003  1.3431e+003  8.6662e+002 123312 222508,222560,222534
 7.8000e+001 222612  3.3987e+002 -6.4597e+002  1.3552e+002 123312 222508,222586,222560
 7.8000e+001 222787 -2.1519e+000 -9.6684e-002  4.5430e-001 122858 222686,222738,222712
 7.8000e+001 222764  7.4665e-001  3.2315e-002 -1.5723e-001 122858 222660,222738,222686
 7.8000e+001 222939 -1.4440e+004 -3.5287e+005 -1.4634e+003 122568 222812,222864,222838
 7.8000e+001 222916  2.2344e+004 -2.0461e+005 -7.7521e+003 122568 222812,222890,222864
 7.8000e+001 223091 -4.7525e+005 -1.5059e+005  1.5049e+005 122392 222964,223016,222990
 7.8000e+001 223068 -2.0807e+005 -4.0127e+004  6.5719e+004 122392 222964,223042,223016
 7.8000e+001 223292 -4.2676e+005 -1.2843e+006  3.0134e+005 121852 223142,223220,223194
 7.8000e+001 223269 -2.3830e+006 -4.8534e+005  4.5188e+005 121852 223116,223220,223142
 7.8000e+001 223246 -1.4718e+006 -1.2234e+006 -1.2779e+006 121852 223142,223194,223168
 7.8000e+001 223493 -1.2292e+006 -4.8339e+005  7.8177e+005 121406 223343,223395,223369
 7.8000e+001 223470 -1.3091e+006 -5.1624e+005  8.0805e+005 121406 223343,223421,223395
 7.8000e+001 223447 -5.2386e+005 -7.2290e+005  5.0767e+005 121406 223317,223421,223343
 7.8000e+001 223645  2.7277e+005 -1.4333e+007  3.0449e+006 121002 223544,223596,223570
 7.8000e+001 223622 -1.2708e+006 -1.1387e+007  2.9044e+006 121002 223518,223596,223544
 7.8000e+001 223846 -3.0882e+002 -1.8681e+002 -2.8863e+002 120662 223670,223748,223696
 7.8000e+001 223823 -4.2034e+002  1.8923e+001  2.6732e+001 120662 223670,223774,223748
 7.8000e+001 223800 -3.2001e+002 -2.6654e+002 -2.5322e+002 120662 223696,223748,223722
 7.8000e+001 224047 -1.0350e+000 -7.2298e+001  1.2607e+002 120222 223897,223949,223923
 7.8000e+001 224024 -1.2905e+002 -8.0632e+001  1.1882e+002 120222 223871,223949,223897
 7.8000e+001 224001  9.1885e+000 -6.5213e+001  8.3333e+001 120222 223871,223975,223949
 7.8000e+001 224248 -2.1512e+003 -1.3676e+003  6.9743e+002 119875 224124,224176,224150
 7.8000e+001 224225  1.6595e+002 -5.8435e+002  1.8632e+003 119875 224098,224176,224124
 7.8000e+001 224202 -6.7957e+002 -2.4561e+003 -1.2235e+002 119875 224072,224176,224098
 7.8000e+001 224449  2.5627e-001  1.3634e+001  4.0467e+001 119677 224325,224377,224351
 7.8000e+001 224426  1.9769e+001  9.2327e+001  3.0509e+001 119677 224299,224377,224325
 7.8000e+001 224403 -5.6451e+001  4.0333e+001 -1.1908e+001 119677 224273,224377,224299
 7.8000e+001 224552  2.5396e+001 -2.6372e+001  5.6144e+000 119273 224474,224526,224500
 7.8000e+001 224704 -4.7655e+004 -2.6503e+005  1.1173e+005 118983 224603,224655,224629
 7.8000e+001 224681 -4.9639e+004 -2.6025e+005  1.1452e+005 118983 224577,224655,224603
 7.8000e+001 224856 -4.0377e+005  1.1544e+004  1.4136e+004 118529 224755,224807,224781
 7.8000e+001 224833  5.5144e+004 -5.2438e+005  1.4047e+005 118529 224729,224807,224755
 7.8000e+001 225008  4.9293e+001  9.2151e+000 -1.5914e+001 118353 224881,224933,224907
 7.8000e+001 224985  3.1891e+001 -8.0366e+000 -2.0472e+000 118353 224881,224959,224933
 7.8000e+001 225209 -1.3729e+006 -5.6040e+006 -1.4816e+006 117949 225059,225137,225111
 7.8000e+001 225186 -2.8845e+005 -3.8697e+006  9.4780e+005 117949 225033,225137,225059
 7.8000e+001 225163  8.0791e+005 -1.1357e+007  1.4646e+006 117949 225059,225111,225085
 7.8000e+001 225410  1.2722e+005 -8.1049e+006  5.4046e+005 117559 225260,225338,225312
 7.8000e+001 225387 -2.6488e+006 -8.7650e+006  4.8520e+005 117559 225234,225338,225260
 7.8000e+001 225364 -6.6111e+005 -6.0654e+006 -2.0001e+006 117559 225260,225312,225286
 7.8000e+001 225611 -1.6191e+006 -1.2061e+007 -3.8843e+006 117361 225461,225513,225487
 7.8000e+001 225588 -2.9937e+006 -1.3398e+007  1.9698e+006 117361 225461,225539,225513
 7.8000e+001 225565 -7.2604e+005 -1.4559e+007  1.3013e+006 117361 225435,225539,225461
 7.8000e+001 225812  6.6519e+005 -1.0092e+007 -4.2464e+005 116900 225636,225714,225662
 7.8000e+001 225789 -2.7387e+006 -3.2740e+006 -1.1773e+006 116900 225636,225740,225714
 7.8000e+001 225766 -7.8182e+001 -1.0261e+007 -3.1808e+004 116900 225662,225714,225688
 7.8000e+001 225964 -8.7601e+004 -7.3502e+006 -3.9312e+004 116560 225837,225889,225863
 7.8000e+001 225941  3.0414e+005 -8.5075e+006  1.8421e+005 116560 225837,225915,225889
 7.8000e+001 226165  1.8631e+003  2.1721e+002 -2.0853e+002 116106 226015,226093,226041
 7.8000e+001 226142 -2.3860e+003  1.0874e+003 -2.0143e+003 116106 225989,226093,226015
 7.8000e+001 226119 -7.8826e+002  1.3624e+002  7.8392e+002 116106 226041,226093,226067
 7.8000e+001 226268 -2.0547e+006 -5.5049e+006  1.4325e+006 115716 226190,226242,226216
 7.8000e+001 226420 -1.2551e+005 -1.2763e+007  2.1869e+006 115376 226293,226345,226319
 7.8000e+001 226397 -6.7741e+005 -1.4074e+007  4.4056e+006 115376 226293,226371,226345
 7.8000e+001 226621 -1.0577e+006 -2.8698e+006  7.3085e+005 114972 226497,226549,226523
 7.8000e+001 226598 -4.9563e+005 -1.4505e+007 -2.4471e+005 114972 226445,226549,226497
 7.8000e+001 226575  5.1210e+005 -7.6539e+006  9.7424e+005 114972 226445,226497,226471
 7.8000e+001 226773 -1.4336e+006 -4.4607e+006 -1.6858e+006 114670 226646,226698,226672
 7.8000e+001 226750  6.9612e+005 -1.0051e+007  1.1255e+006 114670 226646,226724,226698
 7.8000e+001 226974  7.9034e+004 -3.7073e+006 -6.1887e+005 114082 226798,226850,226824
 7.8000e+001 226951  2.1292e+005 -4.9924e+006 -1.5924e+005 114082 226798,226902,226850
 7.8000e+001 226928  5.5846e+004 -6.8787e+006 -6.3297e+005 114082 226850,226902,226876
 7.8000e+001 227175 -8.9029e+005 -6.2761e+006 -3.3894e+006 113678 226999,227051,227025
 7.8000e+001 227152 -1.9077e+006 -9.6310e+006 -4.2553e+006 113678 226999,227077,227051
 7.8000e+001 227129 -3.3151e+006 -5.2564e+006 -3.4602e+006 113678 226999,227103,227077
 7.8000e+001 227425 -3.2517e+006 -7.2795e+006 -7.5398e+006 113274 227226,227278,227252
 7.8000e+001 227402  8.8595e+004 -7.0036e+006 -1.3357e+006 113274 227226,227330,227278
 7.8000e+001 227379 -2.1334e+006 -3.0612e+006 -8.5601e+005 113274 227200,227330,227226
 7.8000e+001 227356 -1.0812e+006 -8.1101e+005 -1.0328e+006 113274 227278,227330,227304
 7.8000e+001 227626 -1.5243e+006 -4.6039e+006 -3.9513e+006 112934 227502,227554,227528
 7.8000e+001 227603  9.8814e+005 -3.8572e+006 -3.7317e+005 112934 227450,227554,227502
 7.8000e+001 227580 -2.4857e+006 -5.2575e+005  1.2959e+006 112934 227450,227502,227476
 7.8000e+001 227876 -1.6663e+005 -2.1415e+006 -1.9958e+005 112437 227677,227755,227703
 7.8000e+001 227853 -1.2626e+006 -2.5788e+006  1.6414e+006 112437 227677,227781,227755
 7.8000e+001 227830 -2.5856e+005 -1.0573e+006  4.1207e+005 112437 227703,227755,227729
 7.8000e+001 227807 -2.5852e+005 -9.4711e+006 -6.8253e+005 112437 227651,227781,227677
 7.8000e+001 228126 -3.2568e+005 -5.2202e+006 -5.1829e+005 112041 227927,228005,227953
 7.8000e+001 228103 -5.2274e+005 -5.6336e+006 -7.7675e+005 112041 227927,228031,228005
 7.8000e+001 228080 -1.9205e+005 -6.1323e+006 -4.4433e+005 112041 227953,228005,227979
 7.8000e+001 228057 -1.0423e+006 -4.4564e+006 -1.1187e+006 112041 227901,228031,227927
 7.8000e+001 228327 -3.0678e+006 -3.7916e+006  2.1970e+005 111693 228151,228203,228177
 7.8000e+001 228304  1.8160e+004 -2.5967e+006 -1.7311e+006 111693 228151,228229,228203
 7.8000e+001 228281  1.0361e+006 -7.2083e+006  1.6774e+006 111693 228151,228255,228229
 7.8000e+001 228479 -1.8471e+006 -9.2426e+005 -1.7783e+006 111253 228352,228404,228378
 7.8000e+001 228456 -1.1687e+006 -1.4425e+005  6.4089e+004 111253 228352,228430,228404
 7.8000e+001 228582 -3.0375e-002 -4.3883e-003 -1.1809e-002 110906 228504,228556,228530
 7.8000e+001 228783 -8.5468e+003 -1.9294e+006 -6.4962e+004 110416 228633,228711,228659
 7.8000e+001 228760  2.5007e+004 -1.7906e+006 -6.1492e+004 110416 228607,228711,228633
 7.8000e+001 228737  5.4737e+004 -2.2607e+006 -1.0983e+005 110416 228659,228711,228685
 7.8000e+001 228935 -3.3309e+005 -4.7855e+006 -1.8146e+006 110012 228808,228860,228834
 7.8000e+001 228912 -1.8230e+006 -8.7575e+006 -2.9283e+006 110012 228808,228886,228860
 7.8000e+001 229087 -2.5285e+006 -3.4219e+006 -2.4503e+006 109672 228960,229012,228986
 7.8000e+001 229064  6.2942e+005 -8.0026e+006 -1.3650e+006 109672 228960,229038,229012
 7.8000e+001 229190  1.8262e+001 -4.1478e+001  1.2845e+001 109332 229112,229164,229138
 7.8000e+001 229391 -6.3095e+004 -1.0052e+005  3.6016e+004 109156 229267,229319,229293
 7.8000e+001 229368 -1.3722e+005 -9.0113e+005  1.1224e+005 109156 229215,229319,229267
 7.8000e+001 229345  5.7617e+003 -1.5429e+005  1.7085e+005 109156 229215,229267,229241
 7.8000e+001 229543  8.9402e+005 -9.9822e+006  1.1595e+006 108752 229416,229468,229442
 7.8000e+001 229520 -4.8415e+005 -4.9933e+006 -4.9698e+005 108752 229416,229494,229468
 7.8000e+001 229744 -2.4429e+005 -5.8250e+006 -7.8972e+003 108198 229594,229646,229620
 7.8000e+001 229721 -1.0232e+005 -5.7913e+006  1.6680e+004 108198 229594,229672,229646
 7.8000e+001 229698 -4.1736e+005 -6.4070e+006 -3.6607e+005 108198 229568,229672,229594
 7.8000e+001 229847 -3.7746e+004 -1.1563e+006 -2.2954e+005 107758 229769,229821,229795
 7.8000e+001 230048 -8.6649e+005 -2.9489e+006 -4.6402e+005 107468 229898,229950,229924
 7.8000e+001 230025 -7.3894e+005 -2.3149e+006  7.6484e+005 107468 229872,229950,229898
 7.8000e+001 230002 -1.4366e+006 -1.8590e+006  3.1279e+005 107468 229872,229976,229950
 7.8000e+001 230298  1.5785e+005 -1.5184e+006  7.2598e+005 107121 230099,230203,230177
 7.8000e+001 230275 -5.5441e+005 -1.7230e+006  1.8916e+005 107121 230073,230203,230099
 7.8000e+001 230252  7.7530e+005 -2.0601e+006 -5.2446e+005 107121 230099,230177,230151
 7.8000e+001 230229 -2.5662e+005 -2.0115e+006 -7.1844e+005 107121 230099,230151,230125
 7.8000e+001 230450 -2.3707e+005 -5.3885e+005  1.6210e+005 106823 230349,230401,230375
 7.8000e+001 230427 -1.2159e+004 -1.3339e+006  1.1351e+004 106823 230323,230401,230349
 7.8000e+001 230602 -4.6456e+006 -8.7905e+006 -8.9229e+006 106533 230501,230553,230527
 7.8000e+001 230579  2.3190e+006 -1.4634e+007  5.0791e+006 106533 230475,230553,230501
 7.8000e+001 230803 -1.0026e+005 -2.3191e+006 -5.5506e+004 106029 230679,230731,230705
 7.8000e+001 230780  5.9339e+004 -1.6732e+006 -4.1580e+004 106029 230653,230731,230679
 7.8000e+001 230757 -7.5269e+003 -2.1500e+006 -1.3482e+005 106029 230627,230731,230653
 7.8000e+001 231004 -1.8051e+005 -2.8774e+006  2.3710e+005 105689 230854,230906,230880
 7.8000e+001 230981  2.1916e+005 -3.3486e+006 -3.0939e+005 105689 230828,230906,230854
 7.8000e+001 230958 -6.8891e+005 -2.3631e+006 -1.1040e+006 105689 230828,230932,230906
 7.8000e+001 231156  2.1349e+005 -7.5563e+006 -2.3080e+005 105377 231055,231107,231081
 7.8000e+001 231133 -1.8251e+005 -5.7084e+006  2.9165e+005 105377 231029,231107,231055
 7.8000e+001 231406 -9.9536e+005 -7.1860e+006 -1.1519e+006 104858 231207,231259,231233
 7.8000e+001 231383 -1.7455e+006 -6.9173e+006 -1.7228e+006 104858 231207,231311,231259
 7.8000e+001 231360 -1.0529e+006 -8.4940e+006 -2.3878e+006 104858 231259,231311,231285
 7.8000e+001 231337 -7.1969e+005 -8.3702e+006 -1.9311e+006 104858 231181,231311,231207
 7.8000e+001 231558 -1.0498e+006 -1.8541e+007  1.3815e+006 104418 231457,231509,231483
 7.8000e+001 231535 -3.7704e+006 -1.8412e+007 -8.3768e+006 104418 231431,231509,231457
 7.8000e+001 231710 -3.1990e+006 -5.1665e+005 -1.2977e+005 103978 231583,231635,231609
 7.8000e+001 231687 -1.5947e+006 -8.4923e+005 -1.0117e+006 103978 231583,231661,231635
 7.8000e+001 231862 -1.2196e+006 -8.6264e+006 -1.0655e+006 103588 231761,231813,231787
 7.8000e+001 231839  1.5379e+005 -3.8252e+006 -1.9384e+005 103588 231735,231813,231761
 7.8000e+001 232014 -1.0503e+006 -8.2177e+006 -3.1468e+006 103248 231887,231939,231913
 7.8000e+001 231991 -2.2596e+006 -1.3681e+007 -5.1935e+006 103248 231887,231965,231939
 7.8000e+001 232215 -1.4693e+004 -8.8939e+003 -1.2004e+003 102844 232039,232117,232065
 7.8000e+001 232192 -1.2311e+004 -1.8197e+003 -2.9079e+003 102844 232039,232143,232117
 7.8000e+001 232169 -3.7181e+004 -8.3881e+003 -1.0875e+003 102844 232065,232117,232091
 7.8000e+001 232416 -2.7977e+006 -7.7890e+006 -4.1334e+006 102554 232240,232318,232292
 7.8000e+001 232393  5.9939e+005 -1.3140e+007 -8.5552e+005 102554 232240,232344,232318
 7.8000e+001 232370 -3.9908e+006 -2.2021e+006 -1.0947e+006 102554 232240,232292,232266
 7.8000e+001 232568 -5.1894e+004 -3.2358e+006  2.2338e+005 102100 232441,232493,232467
 7.8000e+001 232545 -5.6478e+004 -3.3234e+006  5.4256e+005 102100 232441,232519,232493
 7.8000e+001 232769 -1.9170e+005 -2.0555e+006  4.1362e+005 101596 232645,232697,232671
 7.8000e+001 232746  5.6265e+004 -1.1301e+006  2.3287e+005 101596 232593,232697,232645
 7.8000e+001 232723 -7.9880e+004 -1.9748e+006  4.0286e+005 101596 232593,232645,232619
 7.8000e+001 232921 -2.4141e+005 -6.5380e+004  1.9209e+004 101420 232794,232846,232820
 7.8000e+001 232898 -2.5167e+005 -2.1495e+005  4.8799e+003 101420 232794,232872,232846
 7.8000e+001 233073 -1.1791e+006 -2.2654e+006 -3.3416e+005 101023 232946,232998,232972
 7.8000e+001 233050  3.0917e+005 -4.9838e+006  1.7895e+006 101023 232946,233024,232998
 7.8000e+001 233225  3.8864e+002 -1.4967e+004  6.8794e+002 100661 233098,233150,233124
 7.8000e+001 233202 -1.9872e+003  4.9289e+003 -1.3492e+003 100661 233098,233176,233150
 7.8000e+001 233426 -1.5880e+006 -6.8003e+006 -2.2589e+006 100265 233276,233328,233302
 7.8000e+001 233403 -1.2001e+006 -6.3244e+006 -1.1837e+006 100265 233276,233354,233328
 7.8000e+001 233380 -1.2484e+006 -6.5581e+006 -1.2523e+006 100265 233250,233354,233276
 7.8000e+001 233578 -7.1731e+003 -2.0075e+006  1.2054e+005 100032 233451,233503,233477
 7.8000e+001 233555 -2.6115e+005 -2.0229e+006  4.3488e+005 100032 233451,233529,233503
 7.8000e+001 233681 -2.0368e+006  8.8707e+004 -1.0564e+005 99742 233603,233655,233629
 7.8000e+001 233784 -6.6721e+005 -1.4088e+006  4.3738e+005 99402 233706,233758,233732
 7.8000e+001 233936 -6.6904e+005 -1.5146e+006  6.9829e+005 99062 233835,233887,233861
 7.8000e+001 233913 -7.5017e+005 -1.8487e+006  7.3523e+005 99062 233809,233887,233835
 7.8000e+001 234088 -8.5818e+005 -1.6342e+006  6.2423e+005 98772 233987,234039,234013
 7.8000e+001 234065 -2.4409e+005 -1.5380e+006  5.4598e+005 98772 233961,234039,233987
 7.8000e+001 234240 -5.1125e+003 -1.0031e+005  2.4768e+004 98160 234139,234191,234165
 7.8000e+001 234217 -7.6129e+003 -1.0895e+005  2.6562e+004 98160 234113,234191,234139
 7.8000e+001 234441 -2.5522e+002  2.6241e+002  6.3283e+002 97820 234317,234369,234343
 7.8000e+001 234418 -3.2058e+002 -2.7189e+002  2.4076e+002 97820 234291,234369,234317
 7.8000e+001 234395 -8.7042e+002  4.9203e+002  3.7246e+001 97820 234265,234369,234291
 7.8000e+001 234593 -1.1688e+005 -1.0217e+006  1.2563e+005 97366 234466,234518,234492
 7.8000e+001 234570 -2.3148e+005 -1.3583e+006  2.2300e+005 97366 234466,234544,234518
 7.8000e+001 234794 -4.1966e+005 -5.4329e+005 -3.5299e+005 96976 234618,234670,234644
 7.8000e+001 234771 -1.1028e+005 -1.0943e+006 -2.9725e+005 96976 234618,234722,234670
 7.8000e+001 234748 -1.5172e+005 -1.0598e+006 -3.7709e+005 96976 234670,234722,234696
 7.8000e+001 234946 -3.1897e+005 -2.5840e+005  1.5973e+005 96568 234845,234897,234871
 7.8000e+001 234923 -2.4118e+005 -1.6709e+005  3.4859e+005 96568 234819,234897,234845
 7.8000e+001 235196 -4.3774e+004 -4.4898e+005 -7.1066e+004 96216 234997,235075,235049
 7.8000e+001 235173  3.3823e+004 -1.6425e+006  4.1777e+005 96216 234997,235101,235075
 7.8000e+001 235150 -1.3779e+005 -7.2203e+005 -1.3149e+003 96216 234997,235049,235023
 7.8000e+001 235127 -6.0050e+004 -1.7091e+006  3.2005e+005 96216 234971,235101,234997
 7.8000e+001 235348 -1.5321e+006 -1.9378e+006 -8.7234e+005 95863 235247,235299,235273
 7.8000e+001 235325 -1.2240e+006 -1.2007e+006 -6.0937e+005 95863 235221,235299,235247
 7.8000e+001 235500 -1.1186e+005 -8.8041e+005  1.5839e+005 95339 235373,235425,235399
 7.8000e+001 235477 -2.3564e+005 -1.2135e+006  1.4999e+006 95339 235373,235451,235425
 7.8000e+001 235701  6.7304e+004 -1.6154e+006  3.2666e+005 95023 235525,235577,235551
 7.8000e+001 235678 -6.4432e+004 -1.5008e+006  2.3042e+005 95023 235525,235629,235577
 7.8000e+001 235655 -1.7357e+005 -2.3830e+006  4.6118e+005 95023 235577,235629,235603
 7.8000e+001 235853  9.6674e+004 -1.3162e+007 -4.1361e+005 94671 235726,235778,235752
 7.8000e+001 235830  2.2351e+005 -1.4310e+007  4.4766e+005 94671 235726,235804,235778
 7.8000e+001 236005 -2.1280e+006 -6.9165e+006  1.0166e+006 94261 235904,235956,235930
 7.8000e+001 235982 -9.6474e+005 -1.1954e+007 -3.9939e+006 94261 235878,235956,235904
 7.8000e+001 236206 -1.6134e+006 -6.7094e+005  9.4778e+005 93853 236056,236134,236082
 7.8000e+001 236183 -2.1443e+006 -8.0990e+005  8.1327e+005 93853 236030,236134,236056
 7.8000e+001 236160 -1.3499e+006 -9.0898e+005  9.8197e+005 93853 236082,236134,236108
 7.8000e+001 236407 -1.5845e+006 -3.5956e+006  6.2518e+005 93557 236257,236309,236283
 7.8000e+001 236384 -2.8319e+006 -4.5399e+006 -2.4687e+006 93557 236231,236309,236257
 7.8000e+001 236361  1.4383e+006 -1.8908e+007  2.1059e+006 93557 236231,236335,236309
 7.8000e+001 236559 -4.9589e+003 -3.2189e+004  7.2673e+003 93149 236432,236484,236458
 7.8000e+001 236536 -2.2410e+003 -1.9322e+004  5.5521e+003 93149 236432,236510,236484
 7.8000e+001 236711 -1.9879e+005 -2.6191e+005  2.1979e+005 92853 236584,236636,236610
 7.8000e+001 236688 -1.1814e+005 -2.2081e+005  1.7928e+005 92853 236584,236662,236636
 7.8000e+001 236912 -9.1941e+004 -4.3423e+005  1.9673e+005 92501 236736,236788,236762
 7.8000e+001 236889 -1.6697e+005 -2.4975e+005  9.9360e+004 92501 236736,236840,236788
 7.8000e+001 236866 -1.5009e+005 -3.9038e+005 -3.8369e+004 92501 236788,236840,236814
 7.8000e+001 237113 -8.2792e+004 -4.2704e+006  1.5121e+005 92291 236963,237041,237015
 7.8000e+001 237090  1.8722e+005 -2.4358e+006  1.0221e+005 92291 236937,237041,236963
 7.8000e+001 237067 -1.9624e+005 -3.8840e+006  8.7174e+005 92291 236963,237015,236989
 7.8000e+001 237265  5.6522e+004 -3.2145e+005 -3.0942e+005 91871 237138,237190,237164
 7.8000e+001 237242 -2.2499e+005 -1.1286e+006 -5.0354e+005 91871 237138,237216,237190
 7.8000e+001 237368 -2.7858e+004 -2.1843e+006 -9.0037e+004 91581 237290,237342,237316
 7.8000e+001 237520 -7.7468e+004 -1.5681e+005  9.9591e+004 91184 237419,237471,237445
 7.8000e+001 237497 -2.0010e+005 -5.1348e+004  2.0037e+005 91184 237393,237471,237419
 7.8000e+001 237672 -1.4879e+005 -5.9151e+005 -1.4704e+005 90894 237545,237597,237571
 7.8000e+001 237649 -5.1253e+004 -2.1942e+006  5.9412e+005 90894 237545,237623,237597
 7.8000e+001 237873 -4.1943e+005 -2.3269e+006  9.0508e+005 90490 237749,237801,237775
 7.8000e+001 237850 -1.8378e+005 -2.8851e+006  1.1509e+006 90490 237723,237801,237749
 7.8000e+001 237827 -4.7185e+005 -2.9476e+006  1.8108e+005 90490 237697,237801,237723
 7.8000e+001 238074 -6.0031e+005 -5.0860e+006  4.1557e+005 90100 237898,237976,237950
 7.8000e+001 238051 -2.2124e+006 -4.9793e+006 -2.0083e+005 90100 237898,238002,237976
 7.8000e+001 238028 -7.5998e+005 -2.2627e+006  5.8958e+005 90100 237898,237950,237924
 7.8000e+001 238275 -9.5476e+004 -5.6928e+005  1.2214e+005 89696 238125,238177,238151
 7.8000e+001 238252 -5.9126e+005 -3.4247e+005 -5.1296e+005 89696 238099,238177,238125
 7.8000e+001 238229 -7.0754e+005 -4.1970e+005 -4.3717e+005 89696 238099,238203,238177
 7.8000e+001 238427 -2.3698e+002  5.8201e+002 -6.0755e+002 89206 238326,238378,238352
 7.8000e+001 238404  1.6260e+002 -2.1676e+001 -3.8142e+002 89206 238300,238378,238326
 7.8000e+001 238579 -1.3237e+005 -6.0695e+005  3.4161e+005 88908 238452,238504,238478
 7.8000e+001 238556 -3.5443e+004 -4.2341e+005 -2.8597e+002 88908 238452,238530,238504
 7.8000e+001 238682 -5.1461e+002  1.7591e+002 -2.4343e+001 88568 238604,238656,238630
 7.8000e+001 238883 -1.0311e+005 -4.0938e+006  1.4667e+006 88278 238733,238811,238785
 7.8000e+001 238860 -6.3947e+005 -2.6289e+006  1.3544e+006 88278 238707,238811,238733
 7.8000e+001 238837 -1.4377e+005 -4.4079e+006  7.9508e+005 88278 238733,238785,238759
 7.8000e+001 239035 -2.5057e+006 -4.4369e+006 -7.4896e+005 87988 238908,238960,238934
 7.8000e+001 239012 -2.6677e+006 -2.3948e+006 -7.4398e+004 87988 238908,238986,238960
 7.8000e+001 239138 -1.0440e+006 -8.4915e+005 -6.3961e+005 87648 239060,239112,239086
 7.8000e+001 239339 -3.3252e+006 -3.6006e+006 -3.2700e+006 87358 239163,239215,239189
 7.8000e+001 239316 -3.3395e+006 -1.4738e+006 -4.3301e+005 87358 239163,239241,239215
 7.8000e+001 239293 -1.3712e+006 -1.4512e+006 -8.8257e+005 87358 239163,239267,239241
 7.8000e+001 239589 -1.3865e+003 -1.3354e+005  2.9561e+004 86961 239390,239468,239416
 7.8000e+001 239566 -1.4704e+005 -7.5633e+004  1.7364e+005 86961 239390,239494,239468
 7.8000e+001 239543 -2.1644e+004 -4.6507e+003  9.6803e+003 86961 239416,239468,239442
 7.8000e+001 239520 -1.8375e+005 -5.2456e+004  1.6938e+005 86961 239364,239494,239390
 7.8000e+001 239741 -1.2679e+006 -9.8394e+005 -3.2300e+004 86621 239640,239692,239666
 7.8000e+001 239718 -3.1835e+005 -2.9971e+006 -1.4295e+006 86621 239614,239692,239640
 7.8000e+001 239893 -6.6353e+005 -3.3130e+006  1.1119e+006 86217 239792,239844,239818
 7.8000e+001 239870 -5.8429e+005 -3.9367e+006  1.4246e+006 86217 239766,239844,239792
 7.8000e+001 240045 -7.5002e+005 -2.9424e+006  8.0087e+005 85827 239918,239970,239944
 7.8000e+001 240022 -2.4846e+005 -2.7926e+006  1.9122e+005 85827 239918,239996,239970
 7.8000e+001 240197 -5.8150e+005 -5.4350e+006  7.5422e+005 85437 240096,240148,240122
 7.8000e+001 240174 -7.2732e+005 -7.6964e+005  1.8793e+005 85437 240070,240148,240096
 7.8000e+001 240349  1.7159e+004 -3.0845e+005  8.0147e+004 85147 240222,240274,240248
 7.8000e+001 240326 -1.7921e+004 -2.0131e+005 -3.2579e+004 85147 240222,240300,240274
 7.8000e+001 240501 -7.7483e+004 -3.2901e+005 -2.1771e+004 84807 240374,240426,240400
 7.8000e+001 240478 -5.9399e+005 -1.1701e+006  8.0270e+005 84807 240374,240452,240426
 7.8000e+001 240653  4.5392e+002 -2.9676e+002  7.3756e+002 84303 240552,240604,240578
 7.8000e+001 240630  2.3243e+002 -2.4703e+002  2.7916e+002 84303 240526,240604,240552
 7.8000e+001 240854 -8.9494e+005 -9.3703e+006 -5.1447e+006 83929 240704,240756,240730
 7.8000e+001 240831  1.4480e+006 -7.0684e+006  2.5239e+006 83929 240704,240782,240756
 7.8000e+001 240808 -3.2064e+006  2.3686e+006  2.6599e+006 83929 240678,240782,240704
 7.8000e+001 241055 -6.0640e+001 -1.1799e+003  5.9266e+002 83539 240879,240957,240931
 7.8000e+001 241032 -1.0956e+003 -5.3053e+002 -7.3421e+002 83539 240879,240983,240957
 7.8000e+001 241009  4.5051e+002 -4.7955e+002  2.3884e+002 83539 240879,240931,240905
 7.8000e+001 241207 -2.2045e+004 -2.5736e+005  3.0813e+004 83079 241106,241158,241132
 7.8000e+001 241184  9.3769e+003 -2.6899e+005  4.4955e+004 83079 241080,241158,241106
 7.8000e+001 241408 -4.6979e+005 -9.3595e+005 -1.0394e+006 82665 241232,241284,241258
 7.8000e+001 241385 -3.4066e+005  7.8605e+005 -2.9826e+006 82665 241232,241336,241284
 7.8000e+001 241362 -3.0368e+006 -1.1499e+007  5.1346e+006 82665 241284,241336,241310
 7.8000e+001 241658 -2.2574e+005 -3.9044e+006  5.5319e+005 82375 241485,241563,241511
 7.8000e+001 241635 -1.2914e+004 -2.2521e+006  2.3446e+005 82375 241433,241563,241485
 7.8000e+001 241612 -1.0848e+005 -2.6619e+006  2.2636e+005 82375 241433,241485,241459
 7.8000e+001 241589 -6.6190e+005 -4.3244e+006  8.1198e+005 82375 241511,241563,241537
 7.8000e+001 241810 -7.0553e+005 -1.1786e+006 -4.9680e+005 82035 241683,241735,241709
 7.8000e+001 241787 -6.3252e+005 -1.9455e+006  5.6431e+005 82035 241683,241761,241735
 7.8000e+001 241962 -8.5427e+005 -1.9269e+006  6.5443e+005 81695 241861,241913,241887
 7.8000e+001 241939 -4.1648e+005 -2.6858e+006 -7.6916e+005 81695 241835,241913,241861
 7.8000e+001 242114 -1.1238e+006 -4.9842e+006  1.0726e+006 81355 242013,242065,242039
 7.8000e+001 242091 -4.0793e+005 -2.3518e+006  6.9767e+005 81355 241987,242065,242013
 7.8000e+001 242266 -8.5727e+002 -2.8321e+005  1.5946e+004 80951 242139,242191,242165
 7.8000e+001 242243 -9.7336e+002 -2.8387e+005  1.6867e+004 80951 242139,242217,242191
 7.8000e+001 242467 -4.2971e+005 -4.9401e+006  5.7720e+005 80311 242291,242369,242343
 7.8000e+001 242444  1.5423e+005 -2.4741e+006  4.4120e+005 80311 242291,242395,242369
 7.8000e+001 242421 -1.7894e+005 -1.2163e+006  2.1986e+005 80311 242291,242343,242317
 7.8000e+001 242619 -1.4622e+006 -2.5524e+006  3.8040e+005 80021 242492,242544,242518
 7.8000e+001 242596 -1.4009e+006 -2.3246e+006  1.4731e+006 80021 242492,242570,242544
 7.8000e+001 242869 -3.6899e+004 -6.2828e+004 -1.4827e+004 79631 242644,242722,242696
 7.8000e+001 242846 -1.9655e+004 -3.3742e+005  6.1139e+004 79631 242644,242774,242722
 7.8000e+001 242823  3.2351e+004 -1.8116e+005  9.5481e+003 79631 242722,242774,242748
 7.8000e+001 242800 -2.8168e+004 -6.6596e+004  3.2619e+004 79631 242644,242696,242670
 7.8000e+001 243070  1.6783e+005 -1.4225e+007  3.3606e+006 79341 242920,242972,242946
 7.8000e+001 243047 -7.1034e+005 -6.6471e+006 -5.6994e+005 79341 242920,242998,242972
 7.8000e+001 243024 -7.7274e+005 -3.9576e+006  1.7490e+006 79341 242894,242998,242920
 7.8000e+001 243222 -3.5416e+005 -2.7009e+006  1.1085e+006 78801 243121,243173,243147
 7.8000e+001 243199 -3.8678e+005 -2.8507e+006  1.0902e+006 78801 243095,243173,243121
 7.8000e+001 243423 -8.6595e+005 -2.1168e+006 -8.2265e+005 78511 243273,243325,243299
 7.8000e+001 243400  7.7024e+005 -5.5091e+006  8.6495e+005 78511 243273,243351,243325
 7.8000e+001 243377 -2.2345e+003 -5.7402e+006  1.1784e+005 78511 243247,243351,243273
 7.8000e+001 243624 -3.7343e+005 -3.1500e+006 -1.1356e+006 78107 243474,243552,243526
 7.8000e+001 243601 -5.2699e+005 -3.8597e+006 -1.1721e+006 78107 243448,243552,243474
 7.8000e+001 243578 -5.0650e+005 -2.1561e+006 -2.0071e+005 78107 243474,243526,243500
 7.8000e+001 243776 -1.0106e+006 -4.5706e+006 -1.1741e+006 77653 243649,243701,243675
 7.8000e+001 243753 -1.3663e+006 -5.0994e+006 -7.8460e+005 77653 243649,243727,243701
 7.8000e+001 243977 -4.0115e+005 -5.8567e+006  5.4335e+004 77093 243801,243853,243827
 7.8000e+001 243954 -7.3271e+004 -4.8428e+006  7.2744e+005 77093 243801,243879,243853
 7.8000e+001 243931 -3.9742e+005 -1.8063e+006 -2.0049e+005 77093 243801,243905,243879
 7.8000e+001 244080 -5.6697e+005 -6.2471e+006  3.5606e+005 76791 244002,244054,244028
 7.8000e+001 244232 -4.6184e+004 -2.7417e+006 -1.5935e+005 76311 244131,244183,244157
 7.8000e+001 244209 -1.8918e+005 -5.1059e+006 -8.2373e+004 76311 244105,244183,244131
 7.8000e+001 244433  4.3391e+005 -1.5742e+007  4.3053e+006 75903 244283,244335,244309
 7.8000e+001 244410 -1.0003e+006 -9.4845e+006 -4.8381e+005 75903 244283,244361,244335
 7.8000e+001 244387 -1.3828e+006 -8.3383e+006  3.1936e+005 75903 244257,244361,244283
 7.8000e+001 244585  3.0361e+005 -1.5504e+007  1.5249e+006 75419 244458,244510,244484
 7.8000e+001 244562 -7.7999e+005 -8.1362e+006 -1.9256e+005 75419 244458,244536,244510
 7.8000e+001 244737 -4.0685e+005 -7.1836e+005 -1.8165e+005 75215 244636,244688,244662
 7.8000e+001 244714 -2.8891e+005 -3.2029e+006 -1.7496e+005 75215 244610,244688,244636
 7.8000e+001 244889 -9.1541e+005 -4.5377e+006 -6.2592e+005 74857 244788,244840,244814
 7.8000e+001 244866 -2.0407e+005 -1.9059e+006 -2.5310e+005 74857 244762,244840,244788
 7.8000e+001 245041 -2.3797e+005 -1.8095e+006 -9.8374e+005 74653 244940,244992,244966
 7.8000e+001 245018 -2.9875e+005 -4.2555e+005  8.0785e+005 74653 244914,244992,244940
 7.8000e+001 245144 -1.5139e+006 -6.1848e+006 -1.4859e+006 74359 245066,245118,245092
 7.8000e+001 245296 -1.3494e+004 -3.1906e+005 -9.9299e+004 74007 245169,245221,245195
 7.8000e+001 245273 -9.3841e+004 -5.4431e+005 -1.5548e+005 74007 245169,245247,245221
 7.8000e+001 245448 -2.1582e+006 -5.4528e+006 -5.8063e+005 73711 245321,245373,245347
 7.8000e+001 245425 -2.0432e+006 -5.4131e+006 -1.1762e+006 73711 245321,245399,245373
 7.8000e+001 245600  9.5102e+005 -1.2525e+007 -1.3173e+006 73301 245499,245551,245525
 7.8000e+001 245577 -1.5058e+006 -8.2601e+006  1.9258e+006 73301 245473,245551,245499
 7.8000e+001 245752 -2.7892e+006 -4.1906e+006 -2.5468e+006 72995 245625,245677,245651
 7.8000e+001 245729  8.8729e+005 -1.5757e+007 -2.2062e+006 72995 245625,245703,245677
 7.8000e+001 245953 -1.1705e+006 -1.3678e+007  7.5574e+005 72585 245777,245829,245803
 7.8000e+001 245930 -5.2522e+005 -1.4076e+007  1.7078e+006 72585 245777,245855,245829
 7.8000e+001 245907 -1.6585e+006 -9.0721e+006  3.6279e+005 72585 245777,245881,245855
 7.8000e+001 246154 -4.0936e+005 -7.0442e+006  1.3155e+006 72127 246030,246082,246056
 7.8000e+001 246131 -9.3615e+005 -8.0486e+006  6.4442e+005 72127 245978,246082,246030
 7.8000e+001 246108 -9.4142e+004 -8.8830e+006  2.9978e+005 72127 245978,246030,246004
 7.8000e+001 246257 -1.6356e+006 -2.7237e+005 -2.2699e+005 71737 246179,246231,246205
 7.8000e+001 246360  1.3392e+005 -3.0760e+006  5.1319e+005 71447 246282,246334,246308
 7.8000e+001 246512 -1.1859e+005 -2.1219e+006  8.7553e+005 71157 246385,246437,246411
 7.8000e+001 246489 -6.3961e+004 -1.6106e+006 -7.9491e+004 71157 246385,246463,246437
 7.8000e+001 246664 -1.6843e+005 -1.9652e+006 -4.8908e+005 70753 246537,246589,246563
 7.8000e+001 246641 -7.0241e+005 -8.1056e+005 -2.4607e+005 70753 246537,246615,246589
 7.8000e+001 246865 -1.4516e+006 -7.8510e+006  4.0851e+006 70249 246715,246767,246741
 7.8000e+001 246842 -3.3879e+006 -7.7391e+006 -3.8708e+004 70249 246715,246793,246767
 7.8000e+001 246819 -1.3523e+005 -1.5056e+007 -4.3581e+006 70249 246689,246793,246715
 7.8000e+001 247066  1.7942e+003 -1.6379e+006  2.3591e+005 70023 246916,246994,246942
 7.8000e+001 247043 -8.6759e+004 -1.3660e+006  3.5050e+005 70023 246890,246994,246916
 7.8000e+001 247020  5.6113e+004 -1.5147e+006  3.3205e+005 70023 246942,246994,246968
 7.8000e+001 247267 -2.4950e+005 -3.2861e+006 -3.6922e+005 69633 247091,247143,247117
 7.8000e+001 247244 -7.0139e+004 -2.1890e+006 -2.8285e+005 69633 247091,247169,247143
 7.8000e+001 247221 -3.2864e+004 -2.3790e+006 -3.6298e+005 69633 247091,247195,247169
 7.8000e+001 247419 -1.0969e+006 -4.8825e+006  4.8137e+005 69457 247318,247370,247344
 7.8000e+001 247396 -1.2312e+006 -2.1360e+006  7.6208e+005 69457 247292,247370,247318
 7.8000e+001 247522 -9.5872e+001 -2.8428e+001  1.1850e+002 69209 247444,247496,247470
 7.8000e+001 247625 -1.3359e+006 -1.3677e+006 -1.0148e+006 68919 247547,247599,247573
 7.8000e+001 247777  1.2231e+005 -4.8999e+006 -1.9973e+005 68579 247650,247702,247676
 7.8000e+001 247754  4.0330e+004 -1.2238e+006 -2.2340e+005 68579 247650,247728,247702
 7.8000e+001 247929 -9.0584e+004 -3.6380e+006  7.5185e+005 68289 247802,247854,247828
 7.8000e+001 247906 -3.7344e+005 -2.0344e+006 -6.8866e+005 68289 247802,247880,247854
 7.8000e+001 248081 -2.9695e+005 -3.4124e+006  1.0936e+006 67949 247980,248032,248006
 7.8000e+001 248058 -4.2352e+005 -4.9737e+005  7.6911e+004 67949 247954,248032,247980
 7.8000e+001 248233 -1.7563e+006 -5.3559e+006 -7.0135e+005 67616 248132,248184,248158
 7.8000e+001 248210 -6.5784e+005 -4.8038e+006 -1.7228e+005 67616 248106,248184,248132
 7.8000e+001 248434 -9.9027e+004 -3.1751e+006 -1.8819e+005 67212 248284,248336,248310
 7.8000e+001 248411 -3.0438e+005 -3.2082e+006 -1.3297e+005 67212 248258,248336,248284
 7.8000e+001 248388 -1.2990e+006 -1.3294e+006 -4.9518e+005 67212 248258,248362,248336
 7.8000e+001 248586 -2.3470e+005 -4.5558e+006 -3.2089e+005 66872 248485,248537,248511
 7.8000e+001 248563  2.7497e+004 -1.7648e+006 -2.8224e+005 66872 248459,248537,248485
 7.8000e+001 248738 -4.2848e+005 -5.1623e+006  1.8662e+005 66510 248637,248689,248663
 7.8000e+001 248715 -5.6539e+005 -6.0424e+006  1.1583e+005 66510 248611,248689,248637
 7.8000e+001 248890 -2.8274e+004 -7.2957e+005  1.4259e+005 66220 248789,248841,248815
 7.8000e+001 248867 -4.7853e+004 -9.5347e+005 -3.0253e+005 66220 248763,248841,248789
 7.8000e+001 249091 -1.0906e+006 -7.9564e+006  1.2922e+006 65759 248915,248967,248941
 7.8000e+001 249068 -9.0677e+005 -4.8343e+006  1.8332e+006 65759 248915,248993,248967
 7.8000e+001 249045 -4.1079e+005 -3.5673e+006  2.5986e+005 65759 248915,249019,248993
 7.8000e+001 249243 -8.0459e+004 -7.5150e+006  1.5786e+006 65419 249142,249194,249168
 7.8000e+001 249220  1.9800e+005 -1.8522e+006  3.4742e+005 65419 249116,249194,249142
 7.8000e+001 249395 -1.6972e+005 -1.7894e+006 -2.5794e+005 65079 249268,249320,249294
 7.8000e+001 249372 -2.7642e+005 -3.5094e+006 -6.0278e+005 65079 249268,249346,249320
 7.8000e+001 249547 -1.6133e+006 -5.7016e+006  1.5928e+006 64739 249420,249472,249446
 7.8000e+001 249524 -1.7749e+005 -4.1783e+006 -1.2154e+006 64739 249420,249498,249472
 7.8000e+001 249650 -1.7522e+006 -3.9421e+006 -1.9129e+006 64342 249572,249624,249598
 7.8000e+001 249851 -1.3909e+004 -3.0940e+006 -2.9951e+005 63938 249701,249779,249753
 7.8000e+001 249828 -6.6866e+004 -3.2369e+006  4.7542e+005 63938 249675,249779,249701
 7.8000e+001 249805 -3.5653e+005 -1.2125e+006 -2.0950e+005 63938 249701,249753,249727
 7.8000e+001 250052 -3.5248e+005 -4.4741e+006 -3.6306e+005 63341 249876,249954,249902
 7.8000e+001 250029 -2.6894e+005 -5.2348e+006 -5.6273e+005 63341 249876,249980,249954
 7.8000e+001 250006 -9.0018e+004 -4.2509e+006 -5.3684e+005 63341 249902,249954,249928
 7.8000e+001 250253 -6.4541e+005 -6.9464e+005 -4.2598e+004 63058 250077,250129,250103
 7.8000e+001 250230 -2.3104e+006 -2.3477e+006  1.3493e+006 63058 250077,250155,250129
 7.8000e+001 250207 -4.2029e+005 -1.3926e+006  3.6397e+005 63058 250077,250181,250155
 7.8000e+001 250454 -6.5780e+005 -5.9940e+006  6.9690e+005 62832 250304,250382,250330
 7.8000e+001 250431  4.8000e+004 -7.3681e+006 -1.9846e+006 62832 250278,250382,250304
 7.8000e+001 250408 -1.3939e+006 -4.3016e+006  1.3525e+005 62832 250330,250382,250356
 7.8000e+001 250606 -9.1179e+005 -5.8817e+006 -1.5118e+006 62428 250479,250531,250505
 7.8000e+001 250583  2.0417e+004 -1.0740e+007 -1.4433e+006 62428 250479,250557,250531
 7.8000e+001 250758 -1.7469e+005 -6.9564e+006  8.6951e+005 62202 250631,250683,250657
 7.8000e+001 250735 -3.7817e+005 -6.5554e+006  2.1919e+005 62202 250631,250709,250683
 7.8000e+001 250861  2.3657e+005 -3.1162e+006 -2.8140e+005 61954 250783,250835,250809
 7.8000e+001 251062 -2.5243e+006 -4.9374e+006 -2.5906e+005 61557 250912,250990,250938
 7.8000e+001 251039  3.2253e+005 -1.1045e+007 -2.5923e+006 61557 250886,250990,250912
 7.8000e+001 251016 -2.1313e+006 -7.6717e+006 -3.5643e+006 61557 250938,250990,250964
 7.8000e+001 251263 -3.8121e+005 -6.1251e+006 -4.0138e+003 61167 251113,251165,251139
 7.8000e+001 251240 -3.9428e+005 -5.2883e+006 -1.2808e+005 61167 251113,251191,251165
 7.8000e+001 251217 -1.2112e+006 -5.3066e+006  8.7793e+005 61167 251087,251191,251113
 7.8000e+001 251415 -1.0273e+006 -5.4742e+006  2.0739e+006 60827 251288,251340,251314
 7.8000e+001 251392 -4.1306e+005 -2.1690e+006 -4.3763e+005 60827 251288,251366,251340
 7.8000e+001 251567 -1.1664e+005 -2.7266e+006 -2.2164e+005 60487 251466,251518,251492
 7.8000e+001 251544 -5.8179e+005 -4.1238e+006 -5.4249e+005 60487 251440,251518,251466
 7.8000e+001 251719 -2.0494e+005 -7.9662e+006 -6.7108e+005 59983 251592,251644,251618
 7.8000e+001 251696 -9.8722e+005 -6.4962e+006 -4.6728e+005 59983 251592,251670,251644
 7.8000e+001 251920 -9.0635e+004 -1.4661e+006  3.7323e+003 59807 251770,251848,251796
 7.8000e+001 251897 -5.2460e+004 -1.0605e+006 -4.7895e+004 59807 251744,251848,251770
 7.8000e+001 251874 -8.7877e+004 -1.3501e+006  6.7115e+004 59807 251796,251848,251822
 7.8000e+001 252023  4.6985e+005 -4.2200e+006 -1.0875e+005 59517 251945,251997,251971
 7.8000e+001 252175  1.2398e+006 -1.0594e+007 -1.8589e+005 59269 252074,252126,252100
 7.8000e+001 252152 -6.7466e+004 -7.1483e+006  5.7092e+004 59269 252048,252126,252074
 7.8000e+001 252278 -1.0295e+006 -7.6377e+006  1.2024e+006 58979 252200,252252,252226
 7.8000e+001 252381 -2.4466e+006 -1.7642e+006  1.4013e+006 58689 252303,252355,252329
 7.8000e+001 252533 -4.6784e+005 -3.1746e+006 -8.2277e+005 58249 252432,252484,252458
 7.8000e+001 252510 -9.5940e+005 -5.0315e+006 -6.4854e+005 58249 252406,252484,252432
 7.8000e+001 252734 -2.7025e+005 -2.1257e+006  3.4951e+005 57902 252584,252662,252610
 7.8000e+001 252711  1.0895e+005 -4.5657e+006 -8.5095e+005 57902 252558,252662,252584
 7.8000e+001 252688 -2.3231e+005 -1.2626e+006 -1.1131e+005 57902 252610,252662,252636
 7.8000e+001 252886  1.5731e+005 -5.3192e+006 -2.4603e+005 57540 252785,252837,252811
 7.8000e+001 252863  6.1023e+004 -3.9587e+006  1.3033e+005 57540 252759,252837,252785
 7.8000e+001 253038 -9.3292e+005 -6.2411e+006  1.6296e+006 57086 252937,252989,252963
 7.8000e+001 253015 -2.7642e+005 -1.2803e+006  4.0799e+005 57086 252911,252989,252937
 7.8000e+001 253239 -8.4278e+005 -6.3511e+006 -5.1615e+005 56796 253063,253141,253115
 7.8000e+001 253216 -2.4606e+004 -6.6957e+006  5.9816e+005 56796 253063,253167,253141
 7.8000e+001 253193 -5.9205e+006 -1.5402e+006  8.8697e+005 56796 253063,253115,253089
 7.8000e+001 253342 -6.7939e+005 -1.3679e+007 -1.2822e+005 56349 253264,253316,253290
 7.8000e+001 253543 -2.9398e+005 -2.6721e+006 -1.2099e+006 56009 253367,253419,253393
 7.8000e+001 253520 -5.6749e+005 -1.2400e+006 -6.4296e+005 56009 253367,253445,253419
 7.8000e+001 253497 -4.1278e+005 -1.2448e+006 -6.6014e+005 56009 253367,253471,253445
 7.8000e+001 253695 -6.9193e+004 -6.8232e+005  3.0296e+005 55733 253594,253646,253620
 7.8000e+001 253672 -3.3469e+005 -2.1435e+005  2.5738e+005 55733 253568,253646,253594
 7.8000e+001 253798 -6.3444e+005 -1.5630e+006 -2.0159e+005 55557 253720,253772,253746
 7.8000e+001 253950 -6.4552e+005 -3.1022e+006  9.0431e+004 55153 253849,253901,253875
 7.8000e+001 253927 -1.8703e+005 -3.6158e+006 -5.1446e+005 55153 253823,253901,253849
 7.8000e+001 254151 -1.0869e+006 -3.9580e+006  4.2586e+005 54863 253975,254053,254001
 7.8000e+001 254128 -8.2381e+005 -3.6610e+006  1.6318e+005 54863 253975,254079,254053
 7.8000e+001 254105 -9.4842e+005 -5.0051e+006  8.8226e+005 54863 254001,254053,254027
 7.8000e+001 254303 -1.1082e+005 -3.4972e+005  2.1239e+005 54373 254176,254228,254202
 7.8000e+001 254280 -3.2233e+005 -4.7464e+005  3.2495e+005 54373 254176,254254,254228
 7.8000e+001 254455 -5.3214e+004 -4.3978e+006 -4.2065e+005 53975 254354,254406,254380
 7.8000e+001 254432 -2.8920e+005 -9.7774e+005  1.4670e+005 53975 254328,254406,254354
 7.8000e+001 254607 -2.1379e+005 -5.1875e+006 -8.3005e+004 53585 254480,254532,254506
 7.8000e+001 254584 -3.6372e+005 -4.4975e+006 -1.5600e+005 53585 254480,254558,254532
 7.8000e+001 254808 -1.0143e+006 -3.4868e+006  2.0772e+005 53245 254658,254736,254684
 7.8000e+001 254785 -9.1999e+005 -5.1274e+005 -8.8588e+004 53245 254632,254736,254658
 7.8000e+001 254762 -5.2190e+005 -1.8426e+006 -7.3814e+004 53245 254684,254736,254710
 7.8000e+001 254911 -1.5236e+005 -1.3717e+006 -3.2422e+005 52955 254833,254885,254859
 7.8000e+001 255063 -4.9553e+005 -6.9101e+006  2.2041e+004 52551 254962,255014,254988
 7.8000e+001 255040 -6.3107e+005 -7.1232e+006 -9.4954e+004 52551 254936,255014,254962
 7.8000e+001 255264 -1.1504e+006 -1.0717e+006 -6.1190e+005 52261 255114,255166,255140
 7.8000e+001 255241 -1.2649e+006 -2.3589e+006 -1.7776e+005 52261 255114,255192,255166
 7.8000e+001 255218 -5.4835e+006 -1.0614e+006  1.0416e+006 52261 255088,255192,255114
 7.8000e+001 255416 -9.0422e+005 -5.6476e+006  2.1968e+006 51971 255289,255341,255315
 7.8000e+001 255393 -3.3685e+005 -4.9236e+006 -5.6900e+005 51971 255289,255367,255341
 7.8000e+001 255568  1.8501e+005 -1.5101e+006 -5.0045e+005 51681 255441,255493,255467
 7.8000e+001 255545 -1.3538e+005 -1.0381e+006 -5.1033e+005 51681 255441,255519,255493
 7.8000e+001 255769 -2.4615e+005 -2.7842e+006  4.2610e+004 51291 255619,255697,255671
 7.8000e+001 255746 -2.2515e+005 -2.4483e+006 -2.6202e+005 51291 255593,255697,255619
 7.8000e+001 255723 -2.9008e+005 -5.7221e+006 -6.7571e+005 51291 255619,255671,255645
 7.8000e+001 255921 -6.6593e+005 -3.2748e+006  8.2317e+005 50951 255820,255872,255846
 7.8000e+001 255898 -1.0848e+005 -1.3447e+006  5.0946e+004 50951 255794,255872,255820
 7.8000e+001 256171 -8.6408e+005 -5.3205e+006  6.3582e+005 50547 256024,256076,256050
 7.8000e+001 256148 -8.6792e+005 -4.1933e+006  3.2817e+005 50547 255972,256076,256024
 7.8000e+001 256125 -4.6087e+004 -4.3804e+006  1.9714e+005 50547 255946,256076,255972
 7.8000e+001 256102 -7.2615e+005 -4.8355e+006  4.9701e+005 50547 255972,256024,255998
 7.8000e+001 256323  1.4459e+005 -4.3300e+006  4.4194e+005 50093 256196,256248,256222
 7.8000e+001 256300 -1.0386e+006 -2.6842e+006 -8.6960e+005 50093 256196,256274,256248
 7.8000e+001 256426 -4.1868e+002 -2.7568e+002 -6.5765e+001 49845 256348,256400,256374
 7.8000e+001 256627  4.5306e+004 -5.7597e+006  7.5707e+004 49555 256477,256555,256503
 7.8000e+001 256604 -6.0520e+004 -3.0320e+006  2.1271e+005 49555 256451,256555,256477
 7.8000e+001 256581 -3.8186e+005 -5.1472e+006  3.3223e+005 49555 256503,256555,256529
 7.8000e+001 256828 -4.2913e+005 -2.3731e+006 -4.7159e+005 49056 256652,256730,256678
 7.8000e+001 256805 -7.1776e+005 -2.0248e+006 -2.8015e+005 49056 256652,256756,256730
 7.8000e+001 256782 -3.1241e+005 -3.7073e+006  4.6337e+005 49056 256678,256730,256704
 7.8000e+001 256931 -3.1125e+004 -1.3381e+005  1.3899e+004 48766 256853,256905,256879
 7.8000e+001 257083 -1.7232e+006 -5.1033e+006 -7.6072e+005 48568 256982,257034,257008
 7.8000e+001 257060 -6.5972e+005 -8.8547e+005 -1.8244e+005 48568 256956,257034,256982
 7.8000e+001 257186  2.1091e+003 -3.1173e+006 -1.2215e+003 48228 257108,257160,257134
 7.8000e+001 257338 -1.2567e+006 -5.2734e+005  2.9178e+005 47888 257237,257289,257263
 7.8000e+001 257315 -6.2048e+005 -3.6267e+006  2.0569e+006 47888 257211,257289,257237
 7.8000e+001 257539 -3.9380e+005 -3.4669e+006  1.3146e+005 47548 257363,257441,257415
 7.8000e+001 257516 -7.1172e+005 -3.2189e+006 -3.4444e+005 47548 257363,257467,257441
 7.8000e+001 257493 -7.9285e+005 -2.4219e+006 -8.9204e+004 47548 257363,257415,257389
 7.8000e+001 257740 -8.4183e+004 -5.3283e+006  4.5320e+005 46994 257564,257642,257616
 7.8000e+001 257717 -4.2863e+005 -3.7822e+006 -1.3695e+005 46994 257564,257668,257642
 7.8000e+001 257694 -8.5959e+005 -5.2597e+006 -1.8467e+005 46994 257564,257616,257590
 7.8000e+001 257843 -3.2303e+005 -8.9749e+005 -1.2882e+005 46654 257765,257817,257791
 7.8000e+001 257995 -5.9053e+005 -2.8605e+006  3.5473e+005 46364 257894,257946,257920
 7.8000e+001 257972 -6.7489e+005 -2.9932e+006  2.7161e+005 46364 257868,257946,257894
 7.8000e+001 258147 -5.8971e+004 -3.4335e+006  1.1504e+005 46024 258046,258098,258072
 7.8000e+001 258124 -3.8752e+005 -2.5111e+006  4.1386e+005 46024 258020,258098,258046
 7.8000e+001 258250 -3.5626e+005 -5.9452e+005  3.3282e+005 45741 258172,258224,258198
 7.8000e+001 258402 -9.1860e+005 -3.1342e+006  7.4250e+005 45401 258301,258353,258327
 7.8000e+001 258379 -4.7375e+005 -2.8183e+006  9.9749e+005 45401 258275,258353,258301
 7.8000e+001 258603 -6.9146e+005 -1.8380e+006  1.1941e+004 45071 258427,258505,258479
 7.8000e+001 258580 -2.3937e+005 -4.3198e+006  2.5561e+005 45071 258427,258531,258505
 7.8000e+001 258557 -2.9243e+005 -2.6973e+006  1.9221e+005 45071 258427,258479,258453
 7.8000e+001 258755 -2.0766e+005 -4.1088e+006 -4.0026e+005 44681 258654,258706,258680
 7.8000e+001 258732 -3.3349e+005 -3.3364e+006 -4.0567e+005 44681 258628,258706,258654
 7.8000e+001 258907 -1.7743e+005 -3.2845e+006 -3.0990e+005 44157 258806,258858,258832
 7.8000e+001 258884 -7.3841e+005 -2.4562e+006 -2.1952e+005 44157 258780,258858,258806
 7.8000e+001 259010 -5.4447e+005 -2.2484e+006 -9.8542e+004 43705 258932,258984,258958
 7.8000e+001 259113 -4.8662e+005 -2.9729e+006  1.5206e+005 43284 259035,259087,259061
 7.8000e+001 259216 -3.5572e+005 -4.6430e+006 -2.2297e+005 42954 259138,259190,259164
 7.8000e+001 259319 -6.9176e+005 -1.4098e+006 -1.1401e+004 42116 259241,259293,259267
 7.8000e+001 259422 -6.6303e+005 -7.1511e+006  1.4076e+006 41804 259344,259396,259370
 7.8000e+001 259525 -6.3173e+005 -6.2066e+006  9.2646e+005 41219 259447,259499,259473
 7.8000e+001 259628 -6.0110e+005 -2.7656e+006 -5.9871e+005 385 259550,259602,259576
 8.0000e+000 190120 -1.2086e+006 -3.1069e+006  1.2841e+005 189630 189993,190045,190019
 8.0000e+000 190097 -5.8587e+005 -3.1588e+006  2.2670e+005 189630 189993,190071,190045
 8.0000e+000 190319 -5.9822e+005 -4.8523e+006  1.6964e+005 189312 190169,190221,190195
 8.0000e+000 190296 -8.3793e+005 -4.2164e+006 -4.5738e+005 189312 190169,190247,190221
 8.0000e+000 190273 -6.9970e+005 -4.0224e+006 -1.5382e+005 189312 190143,190247,190169
 8.0000e+000 190518 -3.2723e+005 -4.3178e+006 -3.6669e+005 189124 190368,190446,190420
 8.0000e+000 190495 -8.7391e+005 -4.2317e+006 -2.9856e+005 189124 190342,190446,190368
 8.0000e+000 190472 -7.0959e+005 -4.1775e+006 -1.1423e+006 189124 190368,190420,190394
 8.0000e+000 190619 -4.7824e+005 -6.9908e+005 -4.4883e+004 188926 190541,190593,190567
 8.0000e+000 190771 -1.2477e+006 -4.7769e+006 -2.4712e+005 188614 190670,190722,190696
 8.0000e+000 190748 -7.3058e+005 -5.4524e+006 -2.5642e+005 188614 190644,190722,190670
 8.0000e+000 190972 -3.6347e+005 -4.0341e+006  3.6939e+005 188324 190848,190900,190874
 8.0000e+000 190949 -4.0085e+005 -4.6610e+006  7.6494e+003 188324 190796,190900,190848
 8.0000e+000 190926 -6.6129e+005 -5.2609e+006 -1.9894e+005 188324 190796,190848,190822
 8.0000e+000 191124 -2.2325e+005 -2.8939e+006 -6.7553e+004 188034 191023,191075,191049
 8.0000e+000 191101 -5.9003e+005 -2.5336e+006 -2.6003e+005 188034 190997,191075,191023
 8.0000e+000 191276 -2.2334e+005 -2.9363e+006 -9.4272e+004 187836 191149,191201,191175
 8.0000e+000 191253 -4.3804e+005 -2.5040e+006  1.2574e+005 187836 191149,191227,191201
 8.0000e+000 191379 -3.7238e+005 -1.5310e+006 -1.0700e+005 187546 191301,191353,191327
 8.0000e+000 191531 -5.6936e+004 -5.9504e+006 -1.5079e+006 187256 191430,191482,191456
 8.0000e+000 191508 -5.4719e+005 -4.7255e+006  2.6405e+005 187256 191404,191482,191430
 8.0000e+000 191634 -2.8740e+005 -4.1693e+006 -4.8548e+005 187058 191556,191608,191582
 8.0000e+000 191835 -4.2169e+005 -3.5100e+006  2.0014e+005 186860 191659,191711,191685
 8.0000e+000 191812 -3.3909e+005 -3.4878e+006  2.3418e+005 186860 191659,191737,191711
 8.0000e+000 191789 -6.0600e+004 -2.3590e+006  1.8222e+005 186860 191659,191763,191737
 8.0000e+000 191987 -4.7900e+005 -2.6534e+006 -5.7597e+005 186662 191886,191938,191912
 8.0000e+000 191964 -3.7343e+005 -3.0794e+006 -2.7824e+005 186662 191860,191938,191886
 8.0000e+000 192090 -6.8064e+005 -2.1857e+006 -1.6873e+005 186486 192012,192064,192038
 8.0000e+000 192242 -5.1613e+005 -5.5298e+006  1.3969e+004 186288 192115,192167,192141
 8.0000e+000 192219 -4.5304e+005 -4.8599e+006  1.9968e+005 186288 192115,192193,192167
 8.0000e+000 192394 -1.6477e+005 -4.8094e+006 -3.0531e+005 185935 192293,192345,192319
 8.0000e+000 192371 -3.9842e+005 -4.1126e+006 -4.6139e+005 185935 192267,192345,192293
 8.0000e+000 192546 -3.1893e+005 -3.0014e+006 -9.1910e+004 185675 192419,192471,192445
 8.0000e+000 192523 -1.3442e+005 -2.9535e+006  9.9735e+003 185675 192419,192497,192471
 8.0000e+000 192649 -4.7167e+005 -2.1611e+006 -8.4490e+004 185499 192571,192623,192597
 8.0000e+000 192801 -1.1740e+006 -2.3645e+006 -4.6656e+005 185301 192674,192726,192700
 8.0000e+000 192778 -5.3336e+005 -2.3831e+006  5.3283e+004 185301 192674,192752,192726
 8.0000e+000 193002 -1.4768e+005 -2.5317e+006 -4.9472e+005 185046 192852,192930,192878
 8.0000e+000 192979 -4.0779e+005 -3.5481e+006 -4.3026e+005 185046 192826,192930,192852
 8.0000e+000 192956  3.3119e+005 -4.2948e+006  3.8199e+004 185046 192878,192930,192904
 8.0000e+000 193203 -1.4921e+006 -3.5191e+006 -3.3552e+005 184798 193079,193131,193105
 8.0000e+000 193180 -3.0988e+005 -4.9385e+006 -9.3567e+005 184798 193027,193131,193079
 8.0000e+000 193157 -4.1258e+005 -5.0652e+006  3.9845e+005 184798 193027,193079,193053
 8.0000e+000 193404 -2.5909e+005 -3.8304e+006 -3.8514e+005 184600 193254,193306,193280
 8.0000e+000 193381 -5.5011e+005 -3.7998e+006 -5.5300e+003 184600 193254,193332,193306
 8.0000e+000 193358 -8.2471e+005 -3.3652e+006 -5.2243e+004 184600 193228,193332,193254
 8.0000e+000 193556  9.0328e+004 -4.3019e+006 -8.1173e+004 184402 193429,193481,193455
 8.0000e+000 193533  7.2168e+004 -4.5437e+006  9.8848e+004 184402 193429,193507,193481
 8.0000e+000 193708 -8.0803e+005 -3.9150e+006 -1.2318e+005 184204 193607,193659,193633
 8.0000e+000 193685 -8.7044e+005 -5.2174e+006 -4.6268e+005 184204 193581,193659,193607
 8.0000e+000 193860 -5.2021e+005 -2.8715e+006  3.9033e+005 183908 193759,193811,193785
 8.0000e+000 193837 -2.8777e+005 -3.2794e+006  4.0278e+005 183908 193733,193811,193759
 8.0000e+000 194061 -1.2168e+005 -1.6140e+006 -3.7682e+005 183710 193911,193989,193937
 8.0000e+000 194038 -6.5972e+005 -2.2949e+006  2.0861e+005 183710 193885,193989,193911
 8.0000e+000 194015 -4.5440e+004 -3.4583e+006 -5.4568e+004 183710 193937,193989,193963
 8.0000e+000 194262 -1.2599e+006 -3.4109e+006 -9.4228e+005 183420 194086,194164,194112
 8.0000e+000 194239 -1.2989e+006 -3.0777e+006 -4.0120e+004 183420 194086,194190,194164
 8.0000e+000 194216 -2.9698e+005 -7.1778e+006  8.0979e+005 183420 194112,194164,194138
 8.0000e+000 194414 -2.4634e+005 -4.9938e+006  6.1281e+005 183222 194287,194339,194313
 8.0000e+000 194391 -6.1571e+005 -3.0265e+006  5.0791e+004 183222 194287,194365,194339
 8.0000e+000 194517 -7.9366e+005 -3.7389e+006  1.1286e+005 183024 194439,194491,194465
 8.0000e+000 194718 -3.7376e+005 -8.7946e+006  5.2733e+005 182734 194568,194620,194594
 8.0000e+000 194695 -8.8551e+005 -4.2426e+006 -1.5491e+006 182734 194542,194620,194568
 8.0000e+000 194672 -2.0004e+006 -2.3204e+006 -7.0304e+005 182734 194542,194646,194620
 8.0000e+000 194870 -4.3252e+005 -3.0571e+006  2.4366e+004 182444 194769,194821,194795
 8.0000e+000 194847 -3.1914e+005 -2.4626e+006 -1.0351e+005 182444 194743,194821,194769
 8.0000e+000 195071 -1.6184e+006 -4.9040e+006  7.1036e+004 182154 194895,194947,194921
 8.0000e+000 195048 -1.0575e+006 -3.1548e+006  4.9504e+005 182154 194895,194999,194947
 8.0000e+000 195025 -4.9850e+005 -5.5461e+006  6.2226e+005 182154 194947,194999,194973
 8.0000e+000 195223 -1.0514e+006 -4.2734e+006  6.2298e+005 181814 195096,195148,195122
 8.0000e+000 195200 -7.4253e+005 -2.8510e+006  9.9702e+005 181814 195096,195174,195148
 8.0000e+000 195375 -5.2921e+004 -3.9829e+006  2.0879e+005 181524 195248,195300,195274
 8.0000e+000 195352  1.1836e+005 -4.0303e+006  1.5349e+005 181524 195248,195326,195300
 8.0000e+000 195527 -2.2066e+005 -1.2971e+006 -4.8802e+005 181326 195426,195478,195452
 8.0000e+000 195504 -6.0902e+005 -1.5299e+006 -2.3535e+005 181326 195400,195478,195426
 8.0000e+000 195679  4.8667e+005 -6.4083e+006  3.6581e+005 180936 195578,195630,195604
 8.0000e+000 195656 -3.3617e+005 -3.9540e+006  1.4780e+005 180936 195552,195630,195578
 8.0000e+000 195831 -6.7542e+005 -6.1795e+005 -3.4899e+005 180646 195704,195756,195730
 8.0000e+000 195808 -5.6939e+005 -2.1135e+005 -9.1221e+004 180646 195704,195782,195756
 8.0000e+000 196032 -5.9358e+005 -2.5863e+006  1.2732e+006 180306 195882,195960,195934
 8.0000e+000 196009 -1.2477e+006 -3.2600e+006  2.7314e+005 180306 195856,195960,195882
 8.0000e+000 195986  4.0390e+005 -3.9751e+006 -2.9576e+005 180306 195882,195934,195908
 8.0000e+000 196233 -3.5250e+005 -1.0611e+006 -4.0338e+005 179944 196057,196109,196083
 8.0000e+000 196210 -1.6089e+006 -6.7922e+006  1.3090e+006 179944 196057,196135,196109
 8.0000e+000 196187 -2.8891e+006  3.9720e+006 -1.3303e+006 179944 196057,196161,196135
 8.0000e+000 196385 -2.8220e+002 -1.4711e+005 -3.2691e+003 179604 196258,196310,196284
 8.0000e+000 196362  3.2218e+002 -1.4417e+005 -3.5673e+003 179604 196258,196336,196310
 8.0000e+000 196586  2.1945e+005 -2.4947e+006 -4.2319e+005 179114 196410,196488,196436
 8.0000e+000 196563 -2.2815e+005 -1.4644e+006 -2.7220e+005 179114 196410,196514,196488
 8.0000e+000 196540 -2.8858e+004 -2.5937e+006 -2.7409e+005 179114 196436,196488,196462
 8.0000e+000 196738 -7.3541e+005 -2.6593e+006 -3.9993e+005 178674 196611,196663,196637
 8.0000e+000 196715 -1.2946e+005 -3.7374e+006 -1.8062e+005 178674 196611,196689,196663
 8.0000e+000 196939  6.6245e+005 -5.8960e+006 -5.4056e+005 178334 196789,196867,196841
 8.0000e+000 196916  5.2880e+004 -5.9578e+006 -3.9895e+005 178334 196763,196867,196789
 8.0000e+000 196893 -5.6196e+005 -5.1007e+006 -1.8743e+006 178334 196789,196841,196815
 8.0000e+000 197091 -4.0256e+005 -2.9510e+006 -3.2891e+005 177930 196990,197042,197016
 8.0000e+000 197068 -6.6305e+005 -4.0209e+006 -3.4561e+005 177930 196964,197042,196990
 8.0000e+000 197194 -3.8136e+002 -1.0477e+006 -5.7535e+002 177732 197116,197168,197142
 8.0000e+000 197346 -6.1241e+005 -6.5298e+006  1.0203e+005 177534 197219,197271,197245
 8.0000e+000 197323 -2.6286e+005 -7.8228e+006  7.9772e+005 177534 197219,197297,197271
 8.0000e+000 197547 -9.3114e+005 -3.3503e+006 -1.8722e+006 177130 197397,197449,197423
 8.0000e+000 197524 -6.5596e+005 -3.5970e+006 -3.0643e+005 177130 197397,197475,197449
 8.0000e+000 197501 -9.6632e+005 -7.3243e+006 -8.9532e+005 177130 197371,197475,197397
 8.0000e+000 197748 -5.4047e+005 -6.2994e+006  6.1830e+005 176790 197598,197676,197624
 8.0000e+000 197725 -2.9025e+005 -5.4333e+006  8.2983e+005 176790 197572,197676,197598
 8.0000e+000 197702 -7.1478e+005 -4.9249e+006  1.0422e+006 176790 197624,197676,197650
 8.0000e+000 197900 -2.1832e+005 -3.5176e+006 -8.3062e+005 176300 197773,197825,197799
 8.0000e+000 197877 -1.4111e+005 -3.6771e+006 -8.4042e+005 176300 197773,197851,197825
 8.0000e+000 198052 -1.2954e+005 -5.8978e+006 -1.3048e+006 176010 197925,197977,197951
 8.0000e+000 198029 -8.1396e+005 -4.6531e+006 -6.8361e+005 176010 197925,198003,197977
 8.0000e+000 198204 -2.0916e+006 -5.7099e+006  1.5689e+006 175670 198103,198155,198129
 8.0000e+000 198181 -1.5232e+006 -5.8081e+006  3.1728e+005 175670 198077,198155,198103
 8.0000e+000 198405 -7.3694e+005 -5.8040e+006 -1.2837e+005 175266 198255,198307,198281
 8.0000e+000 198382 -5.2845e+005 -5.4527e+006  1.5350e+005 175266 198229,198307,198255
 8.0000e+000 198359 -3.9503e+005 -5.3391e+006  6.8120e+004 175266 198229,198333,198307
 8.0000e+000 198606 -5.1460e+005 -3.3752e+006 -4.5131e+005 174876 198430,198508,198482
 8.0000e+000 198583 -8.9832e+005 -3.6007e+006  6.9511e+005 174876 198430,198534,198508
 8.0000e+000 198560 -6.2289e+005 -3.9205e+006 -2.2390e+005 174876 198430,198482,198456
 8.0000e+000 198758 -3.4008e+004 -4.2602e+005 -6.7439e+004 174536 198657,198709,198683
 8.0000e+000 198735  5.5759e+003 -1.9621e+005 -3.2180e+004 174536 198631,198709,198657
 8.0000e+000 199008 -2.1971e+005 -8.4844e+006 -1.3292e+004 174132 198835,198913,198887
 8.0000e+000 198985 -1.6108e+005 -5.7760e+006  1.3844e+005 174132 198809,198913,198835
 8.0000e+000 198962 -6.9566e+004 -5.8854e+006 -8.4342e+005 174132 198783,198913,198809
 8.0000e+000 198939 -5.9335e+005 -6.8097e+006  4.5369e+005 174132 198835,198887,198861
 8.0000e+000 199160 -3.3619e+005 -5.9343e+006  6.8777e+005 173842 199059,199111,199085
 8.0000e+000 199137 -6.2770e+005 -4.1004e+006  7.6520e+004 173842 199033,199111,199059
 8.0000e+000 199361 -7.7393e+005 -6.0960e+006  5.6542e+005 173438 199237,199289,199263
 8.0000e+000 199338 -7.9942e+005 -4.6527e+006  8.7805e+005 173438 199211,199289,199237
 8.0000e+000 199315 -6.9293e+005 -5.6718e+006  1.1899e+004 173438 199185,199289,199211
 8.0000e+000 199513 -1.3462e+005 -6.2114e+006  9.4043e+005 173190 199386,199438,199412
 8.0000e+000 199490 -6.5292e+005 -5.4079e+006  4.0835e+005 173190 199386,199464,199438
 8.0000e+000 199665 -1.3401e+005 -2.6897e+006  7.2269e+004 172750 199564,199616,199590
 8.0000e+000 199642 -4.2084e+005 -1.9051e+006 -1.0238e+005 172750 199538,199616,199564
 8.0000e+000 199817 -6.0397e+005 -6.8180e+006 -1.9385e+006 172524 199690,199742,199716
 8.0000e+000 199794 -2.1611e+006 -4.3547e+006 -1.3556e+006 172524 199690,199768,199742
 8.0000e+000 199969 -1.3043e+006 -5.4704e+006 -1.6243e+006 172348 199842,199894,199868
 8.0000e+000 199946  1.0574e+005 -5.2973e+006  2.2906e+004 172348 199842,199920,199894
 8.0000e+000 200121  1.0553e+005 -6.1588e+006 -7.9326e+005 172008 199994,200046,200020
 8.0000e+000 200098 -4.3948e+005 -3.8368e+006 -5.9748e+005 172008 199994,200072,200046
 8.0000e+000 200273 -6.7303e+005 -6.6234e+006  1.2542e+006 171668 200172,200224,200198
 8.0000e+000 200250 -4.4546e+005 -7.3138e+006  1.8939e+006 171668 200146,200224,200172
 8.0000e+000 200474 -3.9859e+005 -7.5998e+006 -4.5565e+005 171264 200350,200402,200376
 8.0000e+000 200451 -6.9346e+005 -6.2266e+006 -7.5363e+004 171264 200324,200402,200350
 8.0000e+000 200428 -5.4355e+005 -5.8098e+006  4.1667e+005 171264 200298,200402,200324
 8.0000e+000 200626  1.5786e+005 -7.3448e+006  4.0541e+005 170832 200525,200577,200551
 8.0000e+000 200603 -1.1212e+005 -6.2881e+006  3.2998e+005 170832 200499,200577,200525
 8.0000e+000 200827  1.2762e+005 -6.3251e+006  8.0949e+005 170492 200677,200729,200703
 8.0000e+000 200804 -6.6155e+005 -3.9823e+006 -1.0417e+006 170492 200651,200729,200677
 8.0000e+000 200781 -1.0151e+006 -4.3361e+006 -7.7835e+005 170492 200651,200755,200729
 8.0000e+000 201077  4.0773e+005 -2.9562e+006  1.3163e+004 170088 200878,200956,200904
 8.0000e+000 201054 -6.2923e+005 -3.5169e+006 -1.1116e+006 170088 200852,200956,200878
 8.0000e+000 201031  1.4649e+005 -2.6958e+006  1.6200e+006 170088 200904,200956,200930
 8.0000e+000 201008  2.3045e+006 -7.5996e+006  1.7416e+006 170088 200852,200982,200956
 8.0000e+000 201278  6.0994e+004 -3.2888e+006  5.4272e+005 169798 201102,201154,201128
 8.0000e+000 201255 -1.0081e+006 -7.5755e+006  5.8913e+005 169798 201102,201206,201154
 8.0000e+000 201232 -1.3292e+006 -3.6927e+006  1.3041e+006 169798 201154,201206,201180
 8.0000e+000 201430 -1.3462e+006 -8.6427e+006 -7.0951e+005 169337 201303,201355,201329
 8.0000e+000 201407 -8.4200e+005 -6.1349e+006 -8.9962e+005 169337 201303,201381,201355
 8.0000e+000 201631 -2.3248e+005 -5.5720e+006 -3.1253e+005 168883 201481,201559,201507
 8.0000e+000 201608  2.4693e+005 -5.6334e+006 -3.1790e+005 168883 201455,201559,201481
 8.0000e+000 201585 -1.0507e+006 -7.3307e+006 -9.2953e+005 168883 201507,201559,201533
 8.0000e+000 201832 -2.2115e+005 -7.9877e+006 -5.5339e+004 168479 201682,201734,201708
 8.0000e+000 201809 -1.0691e+006 -7.4380e+006 -5.3565e+005 168479 201656,201734,201682
 8.0000e+000 201786 -8.3561e+005 -6.5088e+006 -4.4477e+005 168479 201656,201760,201734
 8.0000e+000 202033 -2.1219e+005 -4.7491e+006  7.7748e+005 167825 201883,201935,201909
 8.0000e+000 202010 -1.0742e+005 -5.2528e+006 -4.4662e+005 167825 201857,201935,201883
 8.0000e+000 201987 -3.5228e+005 -6.8941e+006  3.1569e+004 167825 201857,201961,201935
 8.0000e+000 202234 -1.0712e+006 -6.2526e+006 -1.7090e+006 167435 202058,202136,202084
 8.0000e+000 202211 -2.7815e+006 -9.4439e+006  1.8596e+006 167435 202058,202162,202136
 8.0000e+000 202188 -1.2721e+006 -3.5327e+006  1.9763e+005 167435 202084,202136,202110
 8.0000e+000 202386  9.0363e+003 -4.7533e+006  3.0179e+005 167002 202285,202337,202311
 8.0000e+000 202363 -9.7223e+004 -4.5653e+006  2.7771e+005 167002 202259,202337,202285
 8.0000e+000 202538  9.0898e+004 -6.0052e+006 -1.5643e+005 166662 202411,202463,202437
 8.0000e+000 202515 -4.6322e+005 -3.8723e+006  2.4957e+005 166662 202411,202489,202463
 8.0000e+000 202690 -6.0314e+005 -6.1937e+006 -8.6625e+005 166322 202589,202641,202615
 8.0000e+000 202667  2.3853e+004 -6.0391e+006 -7.3759e+005 166322 202563,202641,202589
 8.0000e+000 202891 -1.4845e+006 -4.6634e+006  3.9182e+005 165918 202715,202767,202741
 8.0000e+000 202868 -1.3641e+006 -4.3009e+006 -2.0837e+004 165918 202715,202793,202767
 8.0000e+000 202845 -2.6641e+005 -4.1069e+006 -2.8762e+005 165918 202715,202819,202793
 8.0000e+000 203092 -7.9533e+005 -7.5469e+006 -6.7750e+005 165628 202916,202968,202942
 8.0000e+000 203069 -9.9643e+005 -9.1184e+006 -2.3902e+005 165628 202916,202994,202968
 8.0000e+000 203046 -8.1669e+005 -9.2118e+006 -1.1235e+005 165628 202916,203020,202994
 8.0000e+000 203293 -1.8635e+006 -1.0151e+007  1.9945e+006 165266 203143,203195,203169
 8.0000e+000 203270 -2.6535e+006 -6.0680e+006 -6.5671e+005 165266 203143,203221,203195
 8.0000e+000 203247 -1.3624e+005 -7.9590e+006 -2.8651e+006 165266 203117,203221,203143
 8.0000e+000 203445 -6.7277e+005 -4.0506e+006  2.5752e+005 164826 203318,203370,203344
 8.0000e+000 203422 -5.4185e+005 -4.5161e+006  6.0012e+005 164826 203318,203396,203370
 8.0000e+000 203597 -6.2251e+005 -6.0500e+006  2.1551e+005 164386 203470,203522,203496
 8.0000e+000 203574 -3.4778e+005 -4.6539e+006  1.1414e+005 164386 203470,203548,203522
 8.0000e+000 203798  4.4418e+004 -5.9515e+006  6.3499e+005 163996 203622,203674,203648
 8.0000e+000 203775 -3.2876e+005 -3.4371e+006  7.8648e+004 163996 203622,203726,203674
 8.0000e+000 203752 -1.2776e+006 -6.5648e+006  1.5774e+006 163996 203674,203726,203700
 8.0000e+000 203901 -2.3815e+005 -3.4332e+006 -5.0053e+005 163770 203823,203875,203849
 8.0000e+000 204053 -9.3274e+005 -5.5145e+006  4.2854e+005 163474 203952,204004,203978
 8.0000e+000 204030 -9.9367e+005 -5.6104e+006  2.6858e+005 163474 203926,204004,203952
 8.0000e+000 204205  1.0370e+005 -5.4634e+006 -6.8761e+005 163034 204104,204156,204130
 8.0000e+000 204182 -9.3398e+005 -6.5218e+006 -1.5971e+006 163034 204078,204156,204104
 8.0000e+000 204357 -5.0013e+005 -5.6067e+006  6.2826e+005 162624 204256,204308,204282
 8.0000e+000 204334 -5.0510e+005 -3.3549e+006  3.6158e+004 162624 204230,204308,204256
 8.0000e+000 204509 -5.1399e+003 -1.6061e+005  2.9133e+004 162200 204382,204434,204408
 8.0000e+000 204486 -5.3073e+003 -1.6018e+005  2.8789e+004 162200 204382,204460,204434
 8.0000e+000 204710 -1.1278e+005 -1.8503e+006  8.2153e+004 161810 204560,204638,204586
 8.0000e+000 204687 -2.8146e+004 -2.3639e+006 -4.2791e+005 161810 204534,204638,204560
 8.0000e+000 204664 -2.4461e+005 -1.6351e+006 -2.1227e+005 161810 204586,204638,204612
 8.0000e+000 204862 -1.3569e+006 -4.6253e+006 -7.8155e+005 161406 204735,204787,204761
 8.0000e+000 204839 -1.6930e+006 -5.9469e+006 -5.5672e+004 161406 204735,204813,204787
 8.0000e+000 205014 -4.3784e+005 -3.0133e+006  6.2491e+005 161180 204887,204939,204913
 8.0000e+000 204991 -4.6971e+005 -2.2724e+006  2.4276e+005 161180 204887,204965,204939
 8.0000e+000 205215  1.3985e+005 -3.2070e+006 -2.2729e+005 160726 205039,205091,205065
 8.0000e+000 205192 -6.3887e+005 -6.3494e+006 -2.4438e+005 160726 205039,205143,205091
 8.0000e+000 205169 -5.9805e+005 -1.8062e+006 -3.1821e+004 160726 205091,205143,205117
 8.0000e+000 205416 -3.5895e+005 -3.9421e+006  9.4649e+005 160272 205292,205344,205318
 8.0000e+000 205393 -4.5473e+005 -3.6235e+006  8.8930e+005 160272 205240,205344,205292
 8.0000e+000 205370 -5.4232e+005 -4.2305e+006  4.7250e+005 160272 205240,205292,205266
 8.0000e+000 205568  1.1321e+005 -3.5765e+006  5.9980e+005 159932 205441,205493,205467
 8.0000e+000 205545 -2.3733e+005 -4.2601e+006  8.6738e+005 159932 205441,205519,205493
 8.0000e+000 205720 -1.1819e+005 -3.4286e+006 -7.2153e+005 159542 205593,205645,205619
 8.0000e+000 205697 -5.8369e+005 -1.2107e+006 -6.5171e+004 159542 205593,205671,205645
 8.0000e+000 205872  2.9471e+005 -7.8503e+005  6.5269e+004 159252 205745,205797,205771
 8.0000e+000 205849 -3.8661e+005 -3.9266e+006 -2.1540e+005 159252 205745,205823,205797
 8.0000e+000 206024 -2.7343e+006 -2.9670e+006 -9.9678e+005 159004 205923,205975,205949
 8.0000e+000 206001 -8.6600e+005 -3.0419e+006  2.2673e+005 159004 205897,205975,205923
 8.0000e+000 206127  1.3946e+000 -3.5983e+000 -1.0677e+000 158364 206049,206101,206075
 8.0000e+000 206328 -3.2234e+005 -3.8776e+006  2.5574e+005 157960 206178,206256,206204
 8.0000e+000 206305  4.8474e+004 -3.8272e+006  2.4944e+005 157960 206152,206256,206178
 8.0000e+000 206282 -2.7200e+005 -3.1894e+006  3.6453e+005 157960 206204,206256,206230
 8.0000e+000 206529 -3.6658e+005 -5.3753e+006  2.4871e+005 157648 206405,206457,206431
 8.0000e+000 206506 -1.2971e+006 -5.3518e+006 -2.3390e+005 157648 206379,206457,206405
 8.0000e+000 206483 -3.3847e+005 -5.6163e+006 -7.3086e+005 157648 206353,206457,206379
 8.0000e+000 206730  2.5459e+005 -8.6340e+006  5.8040e+005 157208 206554,206606,206580
 8.0000e+000 206707 -2.4929e+004 -1.0988e+007  6.5227e+005 157208 206554,206632,206606
 8.0000e+000 206684 -3.2119e+006 -4.7628e+006  1.0616e+006 157208 206554,206658,206632
 8.0000e+000 206882  1.1314e+004 -2.7991e+006  2.0587e+005 157010 206755,206807,206781
 8.0000e+000 206859  9.4280e+004 -3.4328e+006  4.8665e+005 157010 206755,206833,206807
 8.0000e+000 207034 -4.9496e+003 -7.2196e+006 -2.9330e+003 156620 206907,206959,206933
 8.0000e+000 207011 -5.6193e+004 -7.0013e+006  4.5085e+003 156620 206907,206985,206959
 8.0000e+000 207186 -2.9809e+004 -2.6884e+006  9.2983e+004 156330 207085,207137,207111
 8.0000e+000 207163 -2.1086e+005 -2.7539e+006 -3.7325e+005 156330 207059,207137,207085
 8.0000e+000 207387 -1.5432e+005 -5.8594e+006  4.5983e+005 155890 207211,207289,207237
 8.0000e+000 207364 -2.6371e+005 -5.8884e+006  2.9466e+005 155890 207211,207315,207289
 8.0000e+000 207341 -9.2562e+005 -4.0659e+006  1.5895e+006 155890 207237,207289,207263
 8.0000e+000 207588  3.6831e+005 -9.4002e+006  1.5024e+006 155436 207438,207490,207464
 8.0000e+000 207565 -4.5854e+005 -8.6674e+006  4.1168e+005 155436 207412,207490,207438
 8.0000e+000 207542 -3.0154e+005 -7.7359e+006  2.3049e+005 155436 207412,207516,207490
 8.0000e+000 207789 -5.7036e+005 -1.3370e+007 -4.2866e+005 155260 207639,207691,207665
 8.0000e+000 207766 -1.0844e+006 -7.9351e+006  1.6233e+006 155260 207613,207691,207639
 8.0000e+000 207743 -2.4983e+005 -7.1350e+006  2.5746e+005 155260 207613,207717,207691
 8.0000e+000 207990 -2.9494e+005 -1.9357e+006  5.7207e+005 154920 207840,207918,207892
 8.0000e+000 207967 -1.1162e+006 -2.4120e+006 -2.4965e+005 154920 207814,207918,207840
 8.0000e+000 207944 -2.0256e+005 -1.5327e+006  3.1729e+005 154920 207840,207892,207866
 8.0000e+000 208191  3.9256e+005 -7.9796e+006 -1.2913e+006 154630 208015,208093,208041
 8.0000e+000 208168 -1.2193e+006 -5.8847e+006 -3.8079e+005 154630 208015,208119,208093
 8.0000e+000 208145 -8.1693e+005 -7.6981e+006 -1.6077e+006 154630 208041,208093,208067
 8.0000e+000 208343 -5.9340e+004 -2.1109e+006  6.1619e+004 154240 208216,208268,208242
 8.0000e+000 208320  1.1245e+005 -1.4653e+006 -7.2717e+003 154240 208216,208294,208268
 8.0000e+000 208495 -6.4312e+005 -1.0870e+007 -1.7834e+006 153950 208394,208446,208420
 8.0000e+000 208472 -1.2488e+006 -8.4080e+006  3.5395e+004 153950 208368,208446,208394
 8.0000e+000 208647 -4.8386e+005 -7.4092e+006  2.0967e+006 153603 208520,208572,208546
 8.0000e+000 208624 -2.3687e+006 -5.4764e+006  3.2323e+005 153603 208520,208598,208572
 8.0000e+000 208848 -5.4704e+005 -5.9719e+006  6.3438e+005 153149 208698,208776,208724
 8.0000e+000 208825  4.7753e+004 -7.9479e+006 -3.4336e+005 153149 208672,208776,208698
 8.0000e+000 208802 -1.1705e+006 -7.5432e+006  1.2501e+005 153149 208724,208776,208750
 8.0000e+000 209000 -4.0963e+005 -7.6117e+006  1.0586e+004 152859 208873,208925,208899
 8.0000e+000 208977 -1.6897e+005 -8.8493e+006  1.7985e+005 152859 208873,208951,208925
 8.0000e+000 209152 -3.6177e+005 -8.0458e+006 -1.7311e+005 152569 209051,209103,209077
 8.0000e+000 209129 -9.4022e+005 -8.1779e+006 -2.9882e+005 152569 209025,209103,209051
 8.0000e+000 209304 -2.7336e+005 -1.7191e+006 -1.2702e+004 152065 209177,209229,209203
 8.0000e+000 209281 -4.3149e+005 -2.7258e+006  4.4338e+005 152065 209177,209255,209229
 8.0000e+000 209456  8.0616e+004 -8.2644e+006  2.3087e+004 151775 209355,209407,209381
 8.0000e+000 209433 -3.7398e+004 -9.6733e+006 -1.8247e+005 151775 209329,209407,209355
 8.0000e+000 209608 -5.7021e+005 -9.9388e+006 -2.4864e+005 151371 209481,209533,209507
 8.0000e+000 209585  2.3888e+005 -1.1287e+007  2.3712e+004 151371 209481,209559,209533
 8.0000e+000 209760 -1.8048e+006 -6.9208e+006 -1.3797e+006 150981 209659,209711,209685
 8.0000e+000 209737 -2.0114e+005 -6.7320e+006 -1.3564e+006 150981 209633,209711,209659
 8.0000e+000 209912  6.1485e+005 -1.2884e+007 -7.4566e+005 150619 209811,209863,209837
 8.0000e+000 209889  9.9954e+005 -1.0282e+007  3.8266e+005 150619 209785,209863,209811
 8.0000e+000 210064 -3.0811e+005 -8.9511e+006 -6.6406e+005 150279 209937,209989,209963
 8.0000e+000 210041 -2.9518e+005 -7.0604e+006 -9.3892e+005 150279 209937,210015,209989
 8.0000e+000 210265 -4.7100e+005 -9.8195e+006 -2.4219e+006 149989 210115,210167,210141
 8.0000e+000 210242 -1.3272e+006 -7.0311e+006  9.9153e+005 149989 210115,210193,210167
 8.0000e+000 210219 -1.5479e+006 -1.1163e+007  6.1709e+005 149989 210089,210193,210115
 8.0000e+000 210417 -7.4578e+005 -8.0273e+006 -6.7174e+005 149599 210316,210368,210342
 8.0000e+000 210394 -6.3055e+005 -6.0507e+006 -1.3849e+005 149599 210290,210368,210316
 8.0000e+000 210618 -2.5335e+006 -6.2344e+006 -1.5772e+006 149095 210468,210520,210494
 8.0000e+000 210595 -2.0320e+006 -6.6681e+006  1.7423e+006 149095 210442,210520,210468
 8.0000e+000 210572 -3.8406e+005 -1.1136e+007  1.6574e+006 149095 210442,210546,210520
 8.0000e+000 210819 -4.7144e+005 -2.7283e+006  4.4098e+005 148748 210695,210747,210721
 8.0000e+000 210796 -1.0835e+005 -3.8512e+006  1.0175e+006 148748 210669,210747,210695
 8.0000e+000 210773 -5.4306e+005 -3.5546e+006  1.3441e+006 148748 210643,210747,210669
 8.0000e+000 210971 -7.3255e+004 -1.6995e+006 -3.9136e+004 148408 210870,210922,210896
 8.0000e+000 210948 -1.8058e+005 -2.1567e+006 -9.4158e+004 148408 210844,210922,210870
 8.0000e+000 211123 -6.6837e+005 -5.5096e+006  1.4529e+006 148118 210996,211048,211022
 8.0000e+000 211100 -1.6402e+006 -5.8562e+006  1.7031e+006 148118 210996,211074,211048
 8.0000e+000 211275 -1.5063e+006 -7.7985e+006  6.4904e+005 147778 211148,211200,211174
 8.0000e+000 211252 -1.8708e+006 -9.2768e+006  1.5917e+006 147778 211148,211226,211200
 8.0000e+000 211427 -8.4503e+005 -7.8650e+006 -4.8243e+005 147324 211326,211378,211352
 8.0000e+000 211404 -2.0285e+005 -7.4369e+006 -1.7643e+005 147324 211300,211378,211326
 8.0000e+000 211628  1.1113e+005 -5.7573e+005  3.4475e+004 147012 211452,211504,211478
 8.0000e+000 211605 -3.3730e+004 -1.7776e+006 -2.3394e+004 147012 211452,211556,211504
 8.0000e+000 211582 -7.6028e+004 -2.0307e+006 -1.3617e+004 147012 211504,211556,211530
 8.0000e+000 211829 -1.0413e+006 -6.3423e+006  6.1772e+005 146636 211679,211757,211731
 8.0000e+000 211806  7.8209e+005 -9.1963e+006 -2.1037e+005 146636 211653,211757,211679
 8.0000e+000 211783  4.9656e+005 -5.9705e+006  4.2978e+005 146636 211679,211731,211705
 8.0000e+000 211981  8.9368e+004 -2.3799e+006  7.8381e+004 146246 211880,211932,211906
 8.0000e+000 211958 -1.5674e+005 -7.2289e+005 -1.1468e+005 146246 211854,211932,211880
 8.0000e+000 212133  3.2907e+004 -1.5218e+006 -7.2785e+004 145956 212006,212058,212032
 8.0000e+000 212110 -4.0326e+005 -1.7478e+006  9.7366e+004 145956 212006,212084,212058
 8.0000e+000 212285 -1.1418e+005 -2.3871e+006  4.7394e+004 145544 212184,212236,212210
 8.0000e+000 212262 -1.2670e+005 -1.0682e+006 -6.3782e+004 145544 212158,212236,212184
 8.0000e+000 212486 -2.1438e+005 -5.3645e+006  5.9472e+005 144990 212362,212414,212388
 8.0000e+000 212463  4.1287e+004 -4.9021e+006  8.8365e+005 144990 212310,212414,212362
 8.0000e+000 212440 -5.0488e+005 -3.2224e+006  5.7250e+005 144990 212310,212362,212336
 8.0000e+000 212638 -6.4566e+005 -3.7714e+006  9.7792e+005 144600 212537,212589,212563
 8.0000e+000 212615 -2.5516e+005 -2.2249e+006  1.7762e+005 144600 212511,212589,212537
 8.0000e+000 212839 -1.0423e+004 -1.8779e+006 -2.0916e+004 144210 212689,212741,212715
 8.0000e+000 212816 -9.9967e+004 -1.8922e+006 -9.8500e+003 144210 212663,212741,212689
 8.0000e+000 212793 -2.3918e+005 -1.9085e+006 -2.3426e+005 144210 212663,212767,212741
 8.0000e+000 212991 -1.1731e+006 -3.4545e+006  5.7342e+005 143920 212890,212942,212916
 8.0000e+000 212968 -6.1487e+005 -5.8669e+006  3.3873e+005 143920 212864,212942,212890
 8.0000e+000 213143  5.7535e+003 -1.9621e+006  9.2509e+004 143480 213016,213068,213042
 8.0000e+000 213120  1.3473e+005 -1.7861e+006 -6.4078e+004 143480 213016,213094,213068
 8.0000e+000 213295 -6.4524e+005 -2.9047e+006  5.7915e+005 142990 213194,213246,213220
 8.0000e+000 213272 -1.1712e+006 -2.0952e+006 -4.3984e+005 142990 213168,213246,213194
 8.0000e+000 213447 -6.9638e+005 -4.0422e+006  8.5023e+005 142600 213320,213372,213346
 8.0000e+000 213424 -1.4698e+006 -2.3902e+006 -3.0838e+005 142600 213320,213398,213372
 8.0000e+000 213599 -3.5015e+005 -3.4901e+006 -1.0414e+005 142260 213472,213524,213498
 8.0000e+000 213576 -1.7403e+005 -3.7884e+006  7.1743e+005 142260 213472,213550,213524
 8.0000e+000 213751 -1.1240e+006 -4.9943e+006  8.3824e+005 141870 213624,213676,213650
 8.0000e+000 213728 -1.7395e+006 -4.7841e+006  4.2080e+005 141870 213624,213702,213676
 8.0000e+000 213903 -1.4957e+006 -4.9283e+006 -2.3194e+006 141530 213776,213828,213802
 8.0000e+000 213880 -3.0836e+005 -6.0342e+006 -4.4032e+005 141530 213776,213854,213828
 8.0000e+000 214055 -7.4662e+004 -1.0230e+006 -7.4366e+004 141218 213928,213980,213954
 8.0000e+000 214032  8.6030e+004 -2.1111e+006  2.0616e+005 141218 213928,214006,213980
 8.0000e+000 214207 -3.6573e+005 -8.9795e+005 -6.4925e+004 140928 214080,214132,214106
 8.0000e+000 214184 -5.1211e+005 -9.6545e+005  2.2286e+005 140928 214080,214158,214132
 8.0000e+000 214359 -3.8197e+005 -2.0542e+006 -5.7547e+005 140538 214232,214284,214258
 8.0000e+000 214336  1.5588e+003 -4.9908e+006  1.3988e+006 140538 214232,214310,214284
 8.0000e+000 214560 -1.5616e+005 -2.6064e+006  2.6738e+005 140248 214384,214462,214410
 8.0000e+000 214537 -2.8719e+005 -1.9593e+006 -5.3572e+003 140248 214384,214488,214462
 8.0000e+000 214514 -1.0390e+005 -2.1356e+006  8.6172e+004 140248 214410,214462,214436
 8.0000e+000 214712 -1.3148e+005 -4.6587e+006  3.5200e+005 140000 214611,214663,214637
 8.0000e+000 214689 -4.8941e+005 -3.0406e+006  2.8751e+004 140000 214585,214663,214611
 8.0000e+000 214913 -4.6230e+005 -3.5654e+006 -8.2025e+005 139596 214737,214815,214763
 8.0000e+000 214890 -3.4625e+005 -2.0141e+006 -5.7566e+004 139596 214737,214841,214815
 8.0000e+000 214867  2.8815e+005 -5.3790e+006 -4.4276e+005 139596 214763,214815,214789
 8.0000e+000 215016  1.8961e+001 -5.3488e+004  4.1896e+001 139420 214938,214990,214964
 8.0000e+000 215168 -5.5463e+005 -3.6646e+006  8.4392e+005 139130 215067,215119,215093
 8.0000e+000 215145 -7.1261e+005 -3.7030e+006  8.6209e+005 139130 215041,215119,215067
 8.0000e+000 215320 -5.3486e+005 -2.6023e+006  7.2685e+005 138790 215219,215271,215245
 8.0000e+000 215297 -2.2259e+005 -3.4197e+006  9.8707e+005 138790 215193,215271,215219
 8.0000e+000 215472 -4.4399e+005 -2.2179e+006  6.9690e+005 138514 215345,215397,215371
 8.0000e+000 215449 -3.2242e+005 -1.7367e+006  3.2400e+005 138514 215345,215423,215397
 8.0000e+000 215624 -8.1052e+005 -5.3825e+006 -1.9125e+005 138174 215497,215549,215523
 8.0000e+000 215601 -3.6880e+005 -5.0185e+006 -4.6938e+005 138174 215497,215575,215549
 8.0000e+000 215776 -1.1673e+006 -3.9475e+006  1.4117e+006 137734 215649,215701,215675
 8.0000e+000 215753 -1.3583e+006 -3.5481e+006  5.8623e+005 137734 215649,215727,215701
 8.0000e+000 215977 -2.4755e+006 -6.9537e+006  1.5382e+006 137344 215801,215879,215827
 8.0000e+000 215954  1.5407e+005 -6.8168e+006  1.5355e+006 137344 215801,215905,215879
 8.0000e+000 215931  2.6040e+006 -1.2780e+007 -2.3814e+006 137344 215827,215879,215853
 8.0000e+000 216129 -6.9142e+005 -5.3852e+006 -5.7331e+005 136940 216028,216080,216054
 8.0000e+000 216106 -6.7083e+005 -5.1898e+006 -5.9746e+005 136940 216002,216080,216028
 8.0000e+000 216330 -5.7117e+005 -5.0227e+006  6.2290e+005 136600 216180,216232,216206
 8.0000e+000 216307 -5.7270e+005 -5.0455e+006  7.0274e+005 136600 216154,216232,216180
 8.0000e+000 216284 -1.0387e+006 -4.1934e+006  3.6765e+005 136600 216154,216258,216232
 8.0000e+000 216482 -8.1373e+005 -4.5154e+006 -4.7013e+005 136260 216381,216433,216407
 8.0000e+000 216459 -9.9499e+005 -4.4560e+006 -5.3192e+005 136260 216355,216433,216381
 8.0000e+000 216634 -4.4154e+005 -3.7458e+006  6.6505e+005 135970 216533,216585,216559
 8.0000e+000 216611 -1.7927e+005 -4.5876e+006  8.0243e+005 135970 216507,216585,216533
 8.0000e+000 216835 -5.5918e+005 -4.3818e+006  2.3801e+005 135608 216685,216763,216711
 8.0000e+000 216812  2.1988e+005 -5.0138e+006 -8.7180e+005 135608 216659,216763,216685
 8.0000e+000 216789 -6.6815e+005 -5.0137e+006  2.1873e+005 135608 216711,216763,216737
 8.0000e+000 217036 -1.0088e+005 -2.7104e+006  4.1089e+005 135312 216912,216964,216938
 8.0000e+000 217013 -1.1025e+005 -3.2039e+006  5.4343e+005 135312 216886,216964,216912
 8.0000e+000 216990 -5.6703e+004 -4.0511e+006  2.3641e+005 135312 216860,216964,216886
 8.0000e+000 217237 -3.1905e+004 -1.3140e+006  2.8289e+004 134908 217061,217139,217113
 8.0000e+000 217214 -3.0765e+005 -1.5781e+006  8.2059e+005 134908 217061,217165,217139
 8.0000e+000 217191 -4.4145e+005 -9.0128e+005 -5.7859e+004 134908 217061,217113,217087
 8.0000e+000 217438 -7.4961e+005 -9.7239e+006  9.7478e+005 134568 217288,217366,217314
 8.0000e+000 217415 -4.0401e+005 -9.0731e+006  1.2453e+006 134568 217262,217366,217288
 8.0000e+000 217392  1.1323e+005 -6.9534e+006  4.1456e+005 134568 217314,217366,217340
 8.0000e+000 217590 -1.1222e+005 -2.8325e+006  4.6505e+005 134106 217463,217515,217489
 8.0000e+000 217567 -2.2647e+004 -2.7111e+006  3.0567e+005 134106 217463,217541,217515
 8.0000e+000 217791 -2.5513e+006 -1.5558e+007 -7.5006e+006 133816 217641,217693,217667
 8.0000e+000 217768  8.4460e+005 -1.8732e+007  3.5301e+006 133816 217641,217719,217693
 8.0000e+000 217745 -3.8577e+006 -4.5801e+006  2.5317e+006 133816 217615,217719,217641
 8.0000e+000 217992 -1.0063e+006 -4.4566e+006  9.5336e+004 133355 217842,217920,217894
 8.0000e+000 217969 -5.6139e+005 -6.2138e+006 -8.5879e+005 133355 217816,217920,217842
 8.0000e+000 217946 -8.7305e+005 -4.4194e+006  7.7117e+004 133355 217842,217894,217868
 8.0000e+000 218193 -1.1298e+006 -4.5506e+006 -1.6751e+005 132851 218017,218095,218069
 8.0000e+000 218170 -8.7773e+005 -4.7175e+006  3.9167e+005 132851 218017,218121,218095
 8.0000e+000 218147 -1.1072e+005 -6.3928e+006 -2.8902e+005 132851 218017,218069,218043
 8.0000e+000 218345 -4.7619e+005 -2.5445e+006  5.2057e+005 132511 218244,218296,218270
 8.0000e+000 218322 -8.8598e+005 -2.2704e+006  6.0342e+004 132511 218218,218296,218244
 8.0000e+000 218497 -2.2321e+006 -1.3358e+007 -2.4352e+005 132235 218396,218448,218422
 8.0000e+000 218474 -2.1329e+006 -7.5875e+006  9.7179e+005 132235 218370,218448,218396
 8.0000e+000 218698 -5.6241e+004 -5.0377e+006  1.8090e+005 131945 218574,218626,218600
 8.0000e+000 218675 -4.9232e+005 -7.1535e+006  3.3762e+005 131945 218522,218626,218574
 8.0000e+000 218652 -2.5674e+005 -6.3241e+006  2.9884e+004 131945 218522,218574,218548
 8.0000e+000 218850 -1.3699e+005 -8.8719e+006 -1.2130e+006 131655 218723,218775,218749
 8.0000e+000 218827 -1.3311e+006 -8.2194e+006  2.1730e+005 131655 218723,218801,218775
 8.0000e+000 218953 -8.2425e+005 -4.6160e+006 -3.8694e+005 131215 218875,218927,218901
 8.0000e+000 219105 -4.9754e+005 -6.2651e+006 -4.6861e+005 130875 218978,219030,219004
 8.0000e+000 219082 -4.6298e+005 -5.0532e+006 -2.7475e+005 130875 218978,219056,219030
 8.0000e+000 219306 -5.4467e+005 -5.0917e+006  2.1078e+004 130429 219156,219234,219208
 8.0000e+000 219283 -9.4436e+005 -4.3342e+006  7.6248e+004 130429 219130,219234,219156
 8.0000e+000 219260 -1.0068e+006 -5.2832e+006  8.6590e+005 130429 219156,219208,219182
 8.0000e+000 219507 -2.9052e+005 -2.5930e+006  6.1720e+004 130025 219383,219435,219409
 8.0000e+000 219484 -3.5354e+005 -3.5473e+006  2.3353e+005 130025 219331,219435,219383
 8.0000e+000 219461 -2.9931e+005 -3.2843e+006  1.0742e+005 130025 219331,219383,219357
 8.0000e+000 219659 -1.4572e+006 -7.2769e+006 -1.5469e+006 129685 219558,219610,219584
 8.0000e+000 219636 -6.6756e+005 -7.8182e+006 -2.3223e+006 129685 219532,219610,219558
 8.0000e+000 219860 -4.3709e+005 -3.8808e+006  4.2682e+005 129395 219710,219788,219762
 8.0000e+000 219837 -6.1939e+005 -4.4238e+006  2.7462e+005 129395 219684,219788,219710
 8.0000e+000 219814 -1.6866e+004 -5.1877e+006 -5.5372e+005 129395 219710,219762,219736
 8.0000e+000 220061 -1.1564e+004 -2.2754e+006  8.2059e+004 128991 219937,219989,219963
 8.0000e+000 220038 -1.3463e+005 -4.0121e+006 -3.4190e+005 128991 219885,219989,219937
 8.0000e+000 220015  1.2143e+005 -3.2820e+006 -4.2633e+004 128991 219885,219937,219911
 8.0000e+000 220262 -1.9369e+005 -2.2704e+006 -2.9511e+005 128701 220086,220164,220112
 8.0000e+000 220239  2.9257e+005 -3.1692e+006 -4.3283e+003 128701 220086,220190,220164
 8.0000e+000 220216 -9.2435e+004 -1.8486e+006  4.1347e+005 128701 220112,220164,220138
 8.0000e+000 220463 -1.0767e+006 -7.5435e+006  1.3976e+006 128297 220339,220391,220365
 8.0000e+000 220440  2.1891e+005 -9.1072e+006  1.0778e+006 128297 220313,220391,220339
 8.0000e+000 220417 -2.3130e+005 -1.0094e+007 -6.7805e+005 128297 220287,220391,220313
 8.0000e+000 220615  1.5138e+005 -8.8230e+006 -6.6279e+005 128007 220488,220540,220514
 8.0000e+000 220592 -6.3290e+005 -6.9013e+006 -8.7600e+005 128007 220488,220566,220540
 8.0000e+000 220767  8.0034e+004 -3.0875e+006 -5.2379e+005 127567 220640,220692,220666
 8.0000e+000 220744 -2.3929e+005 -2.1285e+006 -3.8781e+005 127567 220640,220718,220692
 8.0000e+000 220919 -2.7270e+004 -8.7394e+006  1.3211e+005 127163 220792,220844,220818
 8.0000e+000 220896  1.0081e+006 -1.0089e+007  1.4451e+006 127163 220792,220870,220844
 8.0000e+000 221071 -5.8502e+005 -3.6831e+006  3.6813e+005 126915 220970,221022,220996
 8.0000e+000 221048 -6.6969e+005 -3.5013e+006  4.2382e+005 126915 220944,221022,220970
 8.0000e+000 221272 -1.1484e+006 -8.4829e+006  3.3189e+005 126461 221122,221174,221148
 8.0000e+000 221249 -1.0667e+006 -8.4912e+006  2.4245e+005 126461 221122,221200,221174
 8.0000e+000 221226 -3.3981e+005 -9.0059e+006  5.9733e+004 126461 221096,221200,221122
 8.0000e+000 221375 -3.4183e+000 -1.4719e+005 -2.3621e+002 126213 221297,221349,221323
 8.0000e+000 221478 -8.7668e+001 -2.0689e+005 -1.6122e+002 125766 221400,221452,221426
 8.0000e+000 221679 -8.3368e+004 -2.6859e+006 -2.6145e+005 125212 221503,221555,221529
 8.0000e+000 221656 -1.5587e+005 -3.3384e+006 -4.1398e+005 125212 221503,221581,221555
 8.0000e+000 221633 -4.3445e+005 -3.4444e+006 -3.2200e+005 125212 221503,221607,221581
 8.0000e+000 221929 -3.6683e+005 -2.4424e+006  7.4080e+004 124872 221782,221834,221808
 8.0000e+000 221906 -5.3638e+005 -2.4026e+006  3.0286e+005 124872 221756,221834,221782
 8.0000e+000 221883 -4.9170e+005 -3.2858e+006  4.9061e+005 124872 221704,221834,221756
 8.0000e+000 221860 -5.3406e+005 -3.2242e+006  6.0222e+005 124872 221704,221756,221730
 8.0000e+000 222130 -4.8978e+005 -6.5145e+006 -7.3299e+005 124582 221980,222058,222006
 8.0000e+000 222107 -1.2522e+006 -7.1724e+006 -1.3166e+006 124582 221954,222058,221980
 8.0000e+000 222084 -1.4055e+006 -7.1298e+006 -1.2063e+006 124582 222006,222058,222032
 8.0000e+000 222282 -1.7344e+006 -8.9394e+006 -1.7852e+006 124192 222181,222233,222207
 8.0000e+000 222259 -8.4281e+005 -9.0497e+006 -2.0984e+006 124192 222155,222233,222181
 8.0000e+000 222483 -6.0994e+005 -5.3912e+006  2.8513e+005 123702 222333,222385,222359
 8.0000e+000 222460 -2.6312e+005 -5.5425e+006 -6.3894e+004 123702 222333,222411,222385
 8.0000e+000 222437 -5.9775e+004 -2.7357e+006 -2.3867e+005 123702 222307,222411,222333
 8.0000e+000 222635 -3.0359e+005 -3.7824e+006 -2.2873e+005 123312 222508,222560,222534
 8.0000e+000 222612  5.2304e+005 -7.1965e+006 -2.1385e+005 123312 222508,222586,222560
 8.0000e+000 222787 -3.3462e+005 -4.5239e+006 -1.2863e+005 122858 222686,222738,222712
 8.0000e+000 222764 -1.8819e+005 -3.5628e+006 -4.2549e+005 122858 222660,222738,222686
 8.0000e+000 222939 -4.4833e+005 -6.4998e+006 -5.0232e+004 122568 222812,222864,222838
 8.0000e+000 222916 -8.9627e+004 -4.3669e+006  4.8290e+005 122568 222812,222890,222864
 8.0000e+000 223091 -4.2937e+005 -4.8559e+006 -3.4027e+005 122392 222964,223016,222990
 8.0000e+000 223068  3.2836e+005 -5.4484e+006  1.8734e+005 122392 222964,223042,223016
 8.0000e+000 223292 -4.7058e+005 -8.3534e+006 -5.2383e+005 121852 223142,223220,223194
 8.0000e+000 223269 -7.1719e+005 -8.6984e+006 -7.6138e+005 121852 223116,223220,223142
 8.0000e+000 223246 -2.4969e+005 -8.0116e+006 -1.1943e+006 121852 223142,223194,223168
 8.0000e+000 223493 -1.3029e+006 -7.8669e+006  1.4818e+005 121406 223343,223395,223369
 8.0000e+000 223470 -3.4849e+005 -6.8824e+006 -6.3092e+005 121406 223343,223421,223395
 8.0000e+000 223447 -1.1009e+006 -6.1787e+006  9.9310e+005 121406 223317,223421,223343
 8.0000e+000 223645 -1.7964e+004 -8.9196e+006  4.9189e+005 121002 223544,223596,223570
 8.0000e+000 223622 -7.4496e+005 -5.9675e+006  7.6360e+005 121002 223518,223596,223544
 8.0000e+000 223846 -1.1498e+005 -7.4068e+006 -3.0150e+004 120662 223670,223748,223696
 8.0000e+000 223823  1.5332e+005 -6.7875e+006 -6.6364e+005 120662 223670,223774,223748
 8.0000e+000 223800  4.6314e+005 -6.4542e+006 -4.9636e+005 120662 223696,223748,223722
 8.0000e+000 224047 -6.0358e+005 -5.3454e+006  2.9370e+005 120222 223897,223949,223923
 8.0000e+000 224024 -5.4135e+005 -6.0733e+006 -6.0083e+005 120222 223871,223949,223897
 8.0000e+000 224001  3.2357e+005 -8.9542e+006  1.2040e+005 120222 223871,223975,223949
 8.0000e+000 224248  3.6018e+004 -5.1809e+006 -2.5856e+005 119875 224124,224176,224150
 8.0000e+000 224225 -8.4882e+005 -9.3791e+006 -7.9596e+005 119875 224098,224176,224124
 8.0000e+000 224202 -8.8982e+005 -3.9848e+006 -6.7037e+005 119875 224072,224176,224098
 8.0000e+000 224449 -3.8404e+005 -5.0359e+006 -5.6752e+004 119677 224325,224377,224351
 8.0000e+000 224426 -6.8556e+005 -6.2347e+006 -2.0175e+005 119677 224299,224377,224325
 8.0000e+000 224403 -3.9932e+005 -6.5474e+006  2.9791e+004 119677 224273,224377,224299
 8.0000e+000 224552 -8.2103e+005 -5.4542e+006 -2.5500e+005 119273 224474,224526,224500
 8.0000e+000 224704 -2.2209e+006 -9.0435e+006 -1.3734e+006 118983 224603,224655,224629
 8.0000e+000 224681 -1.2671e+006 -9.4524e+006 -1.5862e+006 118983 224577,224655,224603
 8.0000e+000 224856 -2.2296e+005 -9.1709e+006 -6.3191e+005 118529 224755,224807,224781
 8.0000e+000 224833  6.0305e+004 -1.0367e+007 -9.1813e+005 118529 224729,224807,224755
 8.0000e+000 225008 -1.4264e+005 -6.4156e+006  3.5408e+004 118353 224881,224933,224907
 8.0000e+000 224985 -1.8626e+005 -5.1111e+006  1.0421e+005 118353 224881,224959,224933
 8.0000e+000 225209 -8.5449e+005 -5.1340e+006 -4.5563e+005 117949 225059,225137,225111
 8.0000e+000 225186 -7.8567e+005 -5.1550e+006 -5.5844e+005 117949 225033,225137,225059
 8.0000e+000 225163 -1.5454e+005 -7.4543e+006  3.7822e+005 117949 225059,225111,225085
 8.0000e+000 225410 -9.5664e+004 -5.9447e+006 -4.3572e+005 117559 225260,225338,225312
 8.0000e+000 225387 -9.4540e+005 -5.9851e+006  6.9605e+004 117559 225234,225338,225260
 8.0000e+000 225364 -5.9490e+005 -4.8683e+006 -1.7034e+006 117559 225260,225312,225286
 8.0000e+000 225611 -1.7367e+006 -1.0483e+007 -5.2649e+006 117361 225461,225513,225487
 8.0000e+000 225588  2.3364e+006 -1.0459e+007  4.4134e+005 117361 225461,225539,225513
 8.0000e+000 225565 -2.7012e+006 -3.4718e+006  4.8432e+006 117361 225435,225539,225461
 8.0000e+000 225812 -8.4288e+004 -5.4695e+006  1.0950e+005 116900 225636,225714,225662
 8.0000e+000 225789  2.6591e+005 -5.4404e+006 -4.8544e+004 116900 225636,225740,225714
 8.0000e+000 225766 -5.5060e+005 -5.4255e+006 -5.0849e+005 116900 225662,225714,225688
 8.0000e+000 225964 -2.5015e+005 -5.3872e+006  3.8294e+005 116560 225837,225889,225863
 8.0000e+000 225941 -9.5857e+004 -4.8909e+006  2.1976e+005 116560 225837,225915,225889
 8.0000e+000 226165 -2.0418e+005 -6.5022e+006 -6.6184e+003 116106 226015,226093,226041
 8.0000e+000 226142  5.1048e+005 -8.5961e+006 -1.7352e+006 116106 225989,226093,226015
 8.0000e+000 226119 -1.8032e+006 -5.3895e+006 -5.9847e+005 116106 226041,226093,226067
 8.0000e+000 226268 -1.3148e+006 -6.8940e+006  4.8222e+005 115716 226190,226242,226216
 8.0000e+000 226420 -7.4163e+005 -6.7167e+006  1.6462e+006 115376 226293,226345,226319
 8.0000e+000 226397 -7.6591e+005 -6.3047e+006  9.3253e+005 115376 226293,226371,226345
 8.0000e+000 226621 -6.9436e+004 -4.9736e+006 -1.6069e+005 114972 226497,226549,226523
 8.0000e+000 226598 -6.4920e+005 -7.1098e+006 -7.4837e+005 114972 226445,226549,226497
 8.0000e+000 226575 -4.6514e+005 -5.0665e+006  1.1159e+005 114972 226445,226497,226471
 8.0000e+000 226773 -2.8197e+005 -5.2074e+006 -4.1028e+005 114670 226646,226698,226672
 8.0000e+000 226750 -2.7471e+005 -5.6303e+006 -2.3681e+005 114670 226646,226724,226698
 8.0000e+000 226974  1.7142e+005 -3.6028e+006 -1.0811e+005 114082 226798,226850,226824
 8.0000e+000 226951 -8.5180e+004 -2.6912e+006 -3.9162e+005 114082 226798,226902,226850
 8.0000e+000 226928 -2.1730e+005 -3.2001e+006 -3.4421e+005 114082 226850,226902,226876
 8.0000e+000 227175 -6.4551e+005 -6.3089e+006  1.1020e+005 113678 226999,227051,227025
 8.0000e+000 227152 -1.0660e+006 -7.0327e+006 -4.3545e+005 113678 226999,227077,227051
 8.0000e+000 227129 -5.2411e+005 -8.7480e+006 -1.0211e+006 113678 226999,227103,227077
 8.0000e+000 227425 -5.8594e+003 -6.8083e+006 -5.3572e+005 113274 227226,227278,227252
 8.0000e+000 227402 -2.9694e+005 -6.8672e+006 -8.0264e+005 113274 227226,227330,227278
 8.0000e+000 227379  1.7024e+005 -8.8683e+006 -1.2114e+006 113274 227200,227330,227226
 8.0000e+000 227356 -2.3612e+006 -8.0274e+006  5.1428e+005 113274 227278,227330,227304
 8.0000e+000 227626  1.1224e+005 -3.7222e+006 -6.0591e+005 112934 227502,227554,227528
 8.0000e+000 227603  7.2074e+004 -2.9508e+006 -2.5390e+005 112934 227450,227554,227502
 8.0000e+000 227580 -7.6249e+005 -5.4575e+006 -8.3608e+005 112934 227450,227502,227476
 8.0000e+000 227876 -5.1651e+004 -3.8473e+006 -2.7752e+005 112437 227677,227755,227703
 8.0000e+000 227853 -6.9394e+005 -4.0944e+006  3.1325e+005 112437 227677,227781,227755
 8.0000e+000 227830 -4.2024e+005 -2.6643e+006  4.1872e+005 112437 227703,227755,227729
 8.0000e+000 227807 -4.2916e+005 -4.8975e+006  4.9375e+004 112437 227651,227781,227677
 8.0000e+000 228126 -6.5321e+005 -5.2873e+006  4.5744e+005 112041 227927,228005,227953
 8.0000e+000 228103 -1.5411e+005 -6.7887e+006 -4.0032e+005 112041 227927,228031,228005
 8.0000e+000 228080 -5.5283e+005 -6.6936e+006  4.8423e+005 112041 227953,228005,227979
 8.0000e+000 228057 -2.8811e+005 -4.6775e+006 -4.3122e+005 112041 227901,228031,227927
 8.0000e+000 228327 -7.5126e+005 -6.5120e+006 -1.0213e+006 111693 228151,228203,228177
 8.0000e+000 228304 -8.5317e+005 -4.1051e+006 -1.1347e+006 111693 228151,228229,228203
 8.0000e+000 228281  1.8844e+005 -5.6013e+006 -4.3867e+004 111693 228151,228255,228229
 8.0000e+000 228479 -1.1431e+006 -7.1970e+006 -2.9423e+006 111253 228352,228404,228378
 8.0000e+000 228456 -1.7882e+006 -6.4141e+006 -1.2356e+006 111253 228352,228430,228404
 8.0000e+000 228582 -4.9655e+000 -4.7330e+004  1.0483e+002 110906 228504,228556,228530
 8.0000e+000 228783 -8.3478e+005 -6.2360e+006  8.4929e+005 110416 228633,228711,228659
 8.0000e+000 228760 -5.2743e+005 -2.6836e+006  1.4218e+005 110416 228607,228711,228633
 8.0000e+000 228737 -5.1290e+005 -4.1648e+006  7.3058e+005 110416 228659,228711,228685
 8.0000e+000 228935 -1.1966e+005 -3.6389e+006 -3.9380e+005 110012 228808,228860,228834
 8.0000e+000 228912 -8.5769e+004 -5.0864e+006 -6.0820e+005 110012 228808,228886,228860
 8.0000e+000 229087 -5.1411e+005 -4.8502e+006 -4.6277e+005 109672 228960,229012,228986
 8.0000e+000 229064 -8.0576e+005 -5.0253e+006 -3.3001e+005 109672 228960,229038,229012
 8.0000e+000 229190 -1.2832e+005 -2.6933e+006  1.2575e+005 109332 229112,229164,229138
 8.0000e+000 229391 -1.3187e+005 -1.5969e+006 -1.9669e+005 109156 229267,229319,229293
 8.0000e+000 229368 -3.1877e+005 -2.6459e+006 -2.7636e+005 109156 229215,229319,229267
 8.0000e+000 229345 -2.4198e+005 -1.9814e+006  1.4493e+005 109156 229215,229267,229241
 8.0000e+000 229543 -4.9510e+005 -7.8421e+006  4.7998e+005 108752 229416,229468,229442
 8.0000e+000 229520 -4.7624e+005 -8.3345e+006  6.6731e+005 108752 229416,229494,229468
 8.0000e+000 229744 -6.0643e+005 -6.9282e+006  4.2525e+005 108198 229594,229646,229620
 8.0000e+000 229721 -1.0604e+006 -7.0373e+006  3.8070e+005 108198 229594,229672,229646
 8.0000e+000 229698 -1.5014e+005 -8.8019e+006 -5.7241e+005 108198 229568,229672,229594
 8.0000e+000 229847 -1.6945e+005 -2.5542e+006 -8.1732e+004 107758 229769,229821,229795
 8.0000e+000 230048 -9.1889e+005 -4.4023e+006 -1.0269e+006 107468 229898,229950,229924
 8.0000e+000 230025 -4.6443e+005 -3.8780e+006 -1.5256e+005 107468 229872,229950,229898
 8.0000e+000 230002 -6.2004e+005 -4.1717e+006  9.9008e+004 107468 229872,229976,229950
 8.0000e+000 230298 -1.2504e+004 -4.0465e+006  3.7350e+005 107121 230099,230203,230177
 8.0000e+000 230275 -7.5378e+005 -3.3874e+006 -6.9245e+003 107121 230073,230203,230099
 8.0000e+000 230252 -9.6323e+005 -4.3441e+006  1.3037e+005 107121 230099,230177,230151
 8.0000e+000 230229 -6.1196e+005 -4.8291e+006  5.3790e+005 107121 230099,230151,230125
 8.0000e+000 230450  4.3998e+005 -5.1993e+006 -5.0082e+005 106823 230349,230401,230375
 8.0000e+000 230427 -2.9697e+005 -1.5524e+006  2.8521e+005 106823 230323,230401,230349
 8.0000e+000 230602 -1.0850e+006 -5.2943e+006 -7.9763e+005 106533 230501,230553,230527
 8.0000e+000 230579 -1.0791e+006 -6.1426e+006 -1.8455e+006 106533 230475,230553,230501
 8.0000e+000 230803 -5.8317e+005 -2.1345e+006  2.1712e+005 106029 230679,230731,230705
 8.0000e+000 230780 -1.3164e+006 -5.2301e+006  4.1656e+005 106029 230653,230731,230679
 8.0000e+000 230757 -3.4909e+005 -5.6918e+006  7.1187e+005 106029 230627,230731,230653
 8.0000e+000 231004  2.0444e+005 -4.4036e+006 -4.1294e+005 105689 230854,230906,230880
 8.0000e+000 230981  6.1845e+003 -4.2945e+006 -2.7152e+005 105689 230828,230906,230854
 8.0000e+000 230958 -6.9251e+005 -3.6725e+006 -7.7020e+005 105689 230828,230932,230906
 8.0000e+000 231156 -8.0958e+005 -3.6610e+006  8.7378e+005 105377 231055,231107,231081
 8.0000e+000 231133  9.8608e+005 -1.1180e+007 -1.2043e+006 105377 231029,231107,231055
 8.0000e+000 231406  1.8336e+005 -5.9100e+006  1.3754e+005 104858 231207,231259,231233
 8.0000e+000 231383 -1.1473e+006 -5.9357e+006 -1.7955e+005 104858 231207,231311,231259
 8.0000e+000 231360 -7.2092e+005 -8.7784e+006 -6.4404e+005 104858 231259,231311,231285
 8.0000e+000 231337 -2.8381e+005 -8.0398e+006 -6.2462e+005 104858 231181,231311,231207
 8.0000e+000 231558 -6.6999e+005 -2.8678e+006  1.6663e+006 104418 231457,231509,231483
 8.0000e+000 231535 -1.4450e+005 -2.7559e+006  3.6108e+005 104418 231431,231509,231457
 8.0000e+000 231710 -5.6058e+005 -3.7432e+006 -3.5272e+005 103978 231583,231635,231609
 8.0000e+000 231687 -6.7711e+005 -2.9562e+006 -3.5928e+005 103978 231583,231661,231635
 8.0000e+000 231862  1.5961e+004 -2.5872e+005 -6.4463e+004 103588 231761,231813,231787
 8.0000e+000 231839 -3.6953e+004 -4.7764e+005 -7.7292e+004 103588 231735,231813,231761
 8.0000e+000 232014 -9.4168e+005 -6.5164e+006 -1.8023e+006 103248 231887,231939,231913
 8.0000e+000 231991  1.1466e+004 -9.5873e+006 -2.1549e+006 103248 231887,231965,231939
 8.0000e+000 232215 -4.4597e+005 -3.8870e+006  1.5355e+005 102844 232039,232117,232065
 8.0000e+000 232192 -3.8873e+005 -4.7351e+006 -2.9987e+005 102844 232039,232143,232117
 8.0000e+000 232169 -2.5821e+005 -4.1297e+006  3.1689e+005 102844 232065,232117,232091
 8.0000e+000 232416 -1.9326e+006 -7.8313e+006 -5.7382e+005 102554 232240,232318,232292
 8.0000e+000 232393  4.4765e+005 -9.6671e+006  5.3030e+005 102554 232240,232344,232318
 8.0000e+000 232370 -1.9437e+006 -7.6655e+006 -5.2034e+005 102554 232240,232292,232266
 8.0000e+000 232568 -7.4587e+005 -4.5401e+006  1.0399e+006 102100 232441,232493,232467
 8.0000e+000 232545 -6.1299e+005 -4.1538e+006  3.3277e+005 102100 232441,232519,232493
 8.0000e+000 232769 -1.8350e+005 -1.0896e+006 -9.2486e+004 101596 232645,232697,232671
 8.0000e+000 232746 -4.0088e+005 -1.9401e+006 -1.6366e+005 101596 232593,232697,232645
 8.0000e+000 232723  6.5051e+004 -4.4236e+006 -3.4264e+005 101596 232593,232645,232619
 8.0000e+000 232921 -3.1270e+004 -1.1424e+006 -1.0499e+004 101420 232794,232846,232820
 8.0000e+000 232898 -1.3534e+004 -8.8320e+005  1.4383e+004 101420 232794,232872,232846
 8.0000e+000 233073 -1.0391e+006 -4.4887e+006 -4.1029e+005 101023 232946,232998,232972
 8.0000e+000 233050 -3.1723e+005 -5.7402e+006  5.1331e+005 101023 232946,233024,232998
 8.0000e+000 233225 -2.0619e+005 -5.7787e+006 -1.1827e+005 100661 233098,233150,233124
 8.0000e+000 233202 -3.7721e+004 -6.8501e+006 -2.7727e+004 100661 233098,233176,233150
 8.0000e+000 233426 -1.0325e+006 -5.5050e+006 -8.1074e+005 100265 233276,233328,233302
 8.0000e+000 233403 -5.6685e+005 -5.2296e+006 -3.7703e+005 100265 233276,233354,233328
 8.0000e+000 233380 -6.4886e+005 -6.4537e+006 -6.5517e+005 100265 233250,233354,233276
 8.0000e+000 233578 -5.2756e+005 -1.5183e+006 -1.0864e+006 100032 233451,233503,233477
 8.0000e+000 233555 -2.3559e+005 -1.5171e+006 -3.9384e+005 100032 233451,233529,233503
 8.0000e+000 233681 -1.5677e+005 -1.4876e+006  1.5471e+005 99742 233603,233655,233629
 8.0000e+000 233784 -4.7445e+005 -4.4610e+006 -8.3053e+004 99402 233706,233758,233732
 8.0000e+000 233936 -6.8985e+005 -3.3860e+006  2.2047e+005 99062 233835,233887,233861
 8.0000e+000 233913 -4.6398e+005 -2.3360e+006 -3.4804e+005 99062 233809,233887,233835
 8.0000e+000 234088 -2.8668e+005 -3.4107e+006  2.9777e+005 98772 233987,234039,234013
 8.0000e+000 234065 -6.5644e+005 -3.5048e+006  1.2484e+006 98772 233961,234039,233987
 8.0000e+000 234240 -1.2838e+005 -1.8287e+006  3.2187e+005 98160 234139,234191,234165
 8.0000e+000 234217 -2.0551e+004 -1.1097e+006  1.0940e+005 98160 234113,234191,234139
 8.0000e+000 234441 -3.1143e+005 -3.3876e+006  3.4383e+005 97820 234317,234369,234343
 8.0000e+000 234418 -3.6477e+005 -3.5380e+006  6.1665e+004 97820 234291,234369,234317
 8.0000e+000 234395 -4.5566e+005 -3.8170e+006 -3.0714e+004 97820 234265,234369,234291
 8.0000e+000 234593 -6.9395e+005 -2.9197e+006 -1.3893e+005 97366 234466,234518,234492
 8.0000e+000 234570 -2.6711e+005 -5.2250e+006 -1.6027e+005 97366 234466,234544,234518
 8.0000e+000 234794 -8.3752e+005 -2.5027e+006 -4.3426e+005 96976 234618,234670,234644
 8.0000e+000 234771 -5.1712e+005 -5.0484e+006  1.4343e+005 96976 234618,234722,234670
 8.0000e+000 234748 -7.8584e+005 -3.5720e+006 -7.1763e+005 96976 234670,234722,234696
 8.0000e+000 234946 -1.1302e+006 -3.0265e+006  7.5287e+005 96568 234845,234897,234871
 8.0000e+000 234923 -1.1432e+006 -2.9035e+006  6.0096e+005 96568 234819,234897,234845
 8.0000e+000 235196 -8.6702e+004 -2.4696e+006 -2.2674e+005 96216 234997,235075,235049
 8.0000e+000 235173  2.5832e+004 -4.4347e+006  5.0896e+005 96216 234997,235101,235075
 8.0000e+000 235150 -4.8359e+005 -3.8188e+006 -4.4305e+003 96216 234997,235049,235023
 8.0000e+000 235127 -8.5579e+004 -4.7952e+006 -3.4384e+005 96216 234971,235101,234997
 8.0000e+000 235348 -5.6829e+005 -2.1949e+006 -9.0646e+005 95863 235247,235299,235273
 8.0000e+000 235325 -5.2930e+005 -1.9873e+006 -9.0819e+005 95863 235221,235299,235247
 8.0000e+000 235500 -1.1228e+006 -4.6306e+006 -1.0958e+006 95339 235373,235425,235399
 8.0000e+000 235477 -1.1385e+006 -5.9826e+006  7.6985e+005 95339 235373,235451,235425
 8.0000e+000 235701  7.0028e+004 -4.0850e+006  8.5974e+005 95023 235525,235577,235551
 8.0000e+000 235678 -1.1825e+005 -2.6362e+006 -2.5759e+005 95023 235525,235629,235577
 8.0000e+000 235655 -8.4018e+005 -2.8518e+006  8.6517e+004 95023 235577,235629,235603
 8.0000e+000 235853  2.8979e+005 -5.6597e+006  9.6655e+005 94671 235726,235778,235752
 8.0000e+000 235830 -4.7547e+005 -3.7077e+006 -4.9862e+005 94671 235726,235804,235778
 8.0000e+000 236005 -1.0176e+006 -4.3277e+006 -2.2577e+005 94261 235904,235956,235930
 8.0000e+000 235982 -1.0938e+006 -5.0593e+006 -9.0495e+005 94261 235878,235956,235904
 8.0000e+000 236206 -8.4664e+005 -2.0732e+006  1.0773e+006 93853 236056,236134,236082
 8.0000e+000 236183 -2.5463e+005 -1.9869e+006 -2.3534e+005 93853 236030,236134,236056
 8.0000e+000 236160 -6.1883e+005 -3.7052e+006  7.5133e+005 93853 236082,236134,236108
 8.0000e+000 236407 -1.1273e+006 -4.1373e+006 -1.7868e+005 93557 236257,236309,236283
 8.0000e+000 236384 -1.1425e+006 -4.1671e+006 -2.9623e+005 93557 236231,236309,236257
 8.0000e+000 236361 -2.7768e+005 -5.3326e+006 -2.8217e+004 93557 236231,236335,236309
 8.0000e+000 236559 -1.4654e+005 -1.9041e+006 -1.7593e+005 93149 236432,236484,236458
 8.0000e+000 236536 -2.6006e+005 -2.0865e+006 -2.8196e+005 93149 236432,236510,236484
 8.0000e+000 236711 -2.0515e+005 -2.7730e+006  4.6485e+005 92853 236584,236636,236610
 8.0000e+000 236688 -6.3818e+004 -2.7038e+006  3.9444e+005 92853 236584,236662,236636
 8.0000e+000 236912 -1.6092e+005 -4.5939e+006  6.9900e+005 92501 236736,236788,236762
 8.0000e+000 236889 -3.0158e+005 -4.2512e+006  5.1325e+005 92501 236736,236840,236788
 8.0000e+000 236866 -2.2446e+005 -3.4363e+006  8.0236e+005 92501 236788,236840,236814
 8.0000e+000 237113  1.3920e+003 -3.0596e+006  6.2586e+005 92291 236963,237041,237015
 8.0000e+000 237090 -6.4817e+004 -2.3829e+006  3.7648e+005 92291 236937,237041,236963
 8.0000e+000 237067 -1.6367e+005 -3.0456e+006  7.0556e+005 92291 236963,237015,236989
 8.0000e+000 237265 -1.1061e+006 -2.9141e+006 -2.1283e+005 91871 237138,237190,237164
 8.0000e+000 237242 -1.1966e+006 -3.1883e+006 -2.7345e+005 91871 237138,237216,237190
 8.0000e+000 237368  9.7643e+001 -2.9867e+006 -8.1783e+001 91581 237290,237342,237316
 8.0000e+000 237520 -3.8620e+005 -2.0808e+006  7.4161e+005 91184 237419,237471,237445
 8.0000e+000 237497 -1.6538e+005 -2.9299e+006 -2.4313e+004 91184 237393,237471,237419
 8.0000e+000 237672 -1.0568e+006 -2.8497e+006 -4.9407e+004 90894 237545,237597,237571
 8.0000e+000 237649 -7.7648e+005 -3.3753e+006  1.3894e+005 90894 237545,237623,237597
 8.0000e+000 237873 -4.9371e+005 -4.0138e+006  1.8468e+004 90490 237749,237801,237775
 8.0000e+000 237850 -1.2843e+005 -4.0935e+006  3.5712e+005 90490 237723,237801,237749
 8.0000e+000 237827 -3.3994e+005 -4.1562e+006 -1.1173e+006 90490 237697,237801,237723
 8.0000e+000 238074 -8.4615e+005 -5.6337e+006 -3.0030e+005 90100 237898,237976,237950
 8.0000e+000 238051 -1.2868e+006 -5.9646e+006  8.5436e+004 90100 237898,238002,237976
 8.0000e+000 238028 -5.5832e+005 -5.5871e+006 -5.2228e+005 90100 237898,237950,237924
 8.0000e+000 238275 -8.1875e+005 -5.1287e+006  4.1545e+005 89696 238125,238177,238151
 8.0000e+000 238252 -9.9715e+005 -4.3159e+006 -1.1872e+006 89696 238099,238177,238125
 8.0000e+000 238229 -1.8257e+006 -5.6607e+006 -5.8607e+005 89696 238099,238203,238177
 8.0000e+000 238427 -1.6252e+005 -3.1380e+006 -3.8868e+004 89206 238326,238378,238352
 8.0000e+000 238404  9.5889e+004 -3.4918e+006  1.1039e+005 89206 238300,238378,238326
 8.0000e+000 238579 -1.1631e+006 -5.5752e+006  9.4527e+005 88908 238452,238504,238478
 8.0000e+000 238556 -7.7026e+005 -5.7458e+006  1.5041e+006 88908 238452,238530,238504
 8.0000e+000 238682  8.9966e+000 -2.4022e+005  2.2339e+001 88568 238604,238656,238630
 8.0000e+000 238883 -3.2639e+005 -3.2040e+006  3.6563e+005 88278 238733,238811,238785
 8.0000e+000 238860 -6.4039e+003 -3.9789e+006  4.5150e+005 88278 238707,238811,238733
 8.0000e+000 238837 -1.1575e+005 -3.0875e+006  5.1587e+005 88278 238733,238785,238759
 8.0000e+000 239035 -4.0465e+005 -5.1128e+006 -1.1870e+005 87988 238908,238960,238934
 8.0000e+000 239012 -8.8996e+005 -4.5105e+006  6.6367e+005 87988 238908,238986,238960
 8.0000e+000 239138 -4.0128e+005 -3.5859e+006 -3.3614e+005 87648 239060,239112,239086
 8.0000e+000 239339 -9.2070e+005 -4.1493e+006 -1.1100e+006 87358 239163,239215,239189
 8.0000e+000 239316 -1.2737e+006 -4.4466e+006  3.0307e+005 87358 239163,239241,239215
 8.0000e+000 239293 -4.4387e+005 -2.6778e+006 -5.6614e+005 87358 239163,239267,239241
 8.0000e+000 239589 -2.1071e+004 -3.3860e+006  1.4879e+005 86961 239390,239468,239416
 8.0000e+000 239566  1.2641e+005 -3.4186e+006  4.6687e+004 86961 239390,239494,239468
 8.0000e+000 239543 -1.0833e+005 -1.3281e+006  2.0373e+004 86961 239416,239468,239442
 8.0000e+000 239520 -8.9623e+005 -1.8506e+006  1.9909e+005 86961 239364,239494,239390
 8.0000e+000 239741 -9.9894e+005 -4.4258e+006 -1.1263e+006 86621 239640,239692,239666
 8.0000e+000 239718 -4.8684e+005 -4.8299e+006 -1.3958e+006 86621 239614,239692,239640
 8.0000e+000 239893 -2.0216e+005 -3.7366e+006  1.9359e+005 86217 239792,239844,239818
 8.0000e+000 239870 -2.8070e+005 -4.5926e+006  3.3607e+005 86217 239766,239844,239792
 8.0000e+000 240045 -5.4409e+005 -3.4716e+006 -1.5512e+005 85827 239918,239970,239944
 8.0000e+000 240022 -8.0396e+004 -3.3638e+006  8.8700e+004 85827 239918,239996,239970
 8.0000e+000 240197 -1.2486e+005 -4.6637e+006  6.4656e+005 85437 240096,240148,240122
 8.0000e+000 240174 -8.7503e+005 -4.2084e+006 -1.3189e+005 85437 240070,240148,240096
 8.0000e+000 240349 -3.2684e+005 -2.7343e+006  8.2890e+005 85147 240222,240274,240248
 8.0000e+000 240326 -5.0078e+005 -1.9306e+006  8.0128e+004 85147 240222,240300,240274
 8.0000e+000 240501 -9.1512e+005 -3.2707e+006 -7.5322e+004 84807 240374,240426,240400
 8.0000e+000 240478 -8.5429e+005 -3.3625e+006  2.3293e+004 84807 240374,240452,240426
 8.0000e+000 240653 -1.0067e+004 -3.5955e+005 -5.9775e+004 84303 240552,240604,240578
 8.0000e+000 240630 -9.8243e+003 -3.5841e+005 -5.9758e+004 84303 240526,240604,240552
 8.0000e+000 240854 -3.6517e+005 -6.9156e+006 -1.8685e+006 83929 240704,240756,240730
 8.0000e+000 240831  4.2847e+005 -6.1058e+006  8.5714e+005 83929 240704,240782,240756
 8.0000e+000 240808 -1.1518e+006 -2.6535e+006  9.5542e+005 83929 240678,240782,240704
 8.0000e+000 241055  6.1193e+003 -2.2897e+006 -1.3089e+005 83539 240879,240957,240931
 8.0000e+000 241032 -5.5858e+005 -2.4824e+006  3.2483e+003 83539 240879,240983,240957
 8.0000e+000 241009 -1.9890e+005 -1.5005e+006 -1.8348e+005 83539 240879,240931,240905
 8.0000e+000 241207  7.9982e+004 -3.2638e+006  5.0107e+005 83079 241106,241158,241132
 8.0000e+000 241184 -5.0086e+005 -1.8143e+006  4.7607e+005 83079 241080,241158,241106
 8.0000e+000 241408  5.1539e+005 -4.1446e+006 -2.6565e+005 82665 241232,241284,241258
 8.0000e+000 241385 -6.8887e+005 -8.1191e+006 -1.8726e+006 82665 241232,241336,241284
 8.0000e+000 241362 -1.9769e+006  5.4376e+005  3.3006e+006 82665 241284,241336,241310
 8.0000e+000 241658 -5.2393e+004 -3.0292e+006  1.2955e+005 82375 241485,241563,241511
 8.0000e+000 241635  1.4169e+005 -2.2145e+006  1.6370e+005 82375 241433,241563,241485
 8.0000e+000 241612  2.0008e+004 -2.6191e+006  2.5351e+005 82375 241433,241485,241459
 8.0000e+000 241589 -4.3955e+005 -3.5697e+006  4.0206e+005 82375 241511,241563,241537
 8.0000e+000 241810 -6.0176e+005 -3.3226e+006  1.0452e+005 82035 241683,241735,241709
 8.0000e+000 241787 -8.2644e+005 -3.3568e+006  1.0009e+005 82035 241683,241761,241735
 8.0000e+000 241962 -7.8779e+005 -4.4863e+006 -3.2445e+005 81695 241861,241913,241887
 8.0000e+000 241939 -8.0476e+005 -4.0903e+006  3.3954e+005 81695 241835,241913,241861
 8.0000e+000 242114 -1.6091e+006 -4.4639e+006  6.4130e+004 81355 242013,242065,242039
 8.0000e+000 242091 -1.4896e+006 -3.8156e+006  3.3280e+005 81355 241987,242065,242013
 8.0000e+000 242266 -4.0118e+005 -2.5284e+006 -7.5410e+005 80951 242139,242191,242165
 8.0000e+000 242243 -5.1070e+005 -3.0378e+006 -5.9096e+005 80951 242139,242217,242191
 8.0000e+000 242467  1.0478e+004 -2.8458e+006  2.4380e+005 80311 242291,242369,242343
 8.0000e+000 242444  9.6897e+004 -2.8841e+006  7.0186e+004 80311 242291,242395,242369
 8.0000e+000 242421 -2.3737e+002 -3.2532e+006  3.0406e+005 80311 242291,242343,242317
 8.0000e+000 242619 -1.6473e+006 -3.6071e+006 -6.6210e+005 80021 242492,242544,242518
 8.0000e+000 242596 -1.5373e+006 -3.2718e+006 -4.0182e+004 80021 242492,242570,242544
 8.0000e+000 242869 -5.4632e+005 -3.3908e+006 -7.7466e+004 79631 242644,242722,242696
 8.0000e+000 242846 -3.6769e+005 -3.5386e+006 -9.8040e+004 79631 242644,242774,242722
 8.0000e+000 242823 -4.5280e+005 -3.3627e+006  5.0690e+005 79631 242722,242774,242748
 8.0000e+000 242800 -4.9575e+005 -3.1216e+006 -1.2589e+005 79631 242644,242696,242670
 8.0000e+000 243070 -6.4911e+005 -9.2788e+006  1.0424e+006 79341 242920,242972,242946
 8.0000e+000 243047 -9.6266e+005 -6.0379e+006 -5.5453e+005 79341 242920,242998,242972
 8.0000e+000 243024 -7.1736e+005 -4.1726e+006  1.1284e+006 79341 242894,242998,242920
 8.0000e+000 243222 -4.9734e+004 -2.2629e+006  6.0128e+005 78801 243121,243173,243147
 8.0000e+000 243199 -5.0223e+005 -3.7886e+006  1.0663e+006 78801 243095,243173,243121
 8.0000e+000 243423 -1.6988e+005 -5.1143e+006 -6.1769e+004 78511 243273,243325,243299
 8.0000e+000 243400 -3.5385e+005 -5.6799e+006  2.7042e+005 78511 243273,243351,243325
 8.0000e+000 243377 -2.4795e+003 -5.6003e+006  1.3244e+005 78511 243247,243351,243273
 8.0000e+000 243624 -4.2708e+005 -3.3179e+006 -5.5659e+005 78107 243474,243552,243526
 8.0000e+000 243601 -3.5525e+005 -2.5698e+006 -6.3010e+005 78107 243448,243552,243474
 8.0000e+000 243578 -5.9377e+005 -3.6205e+006 -8.3984e+005 78107 243474,243526,243500
 8.0000e+000 243776 -4.7769e+005 -3.5237e+006 -8.4802e+005 77653 243649,243701,243675
 8.0000e+000 243753 -1.0506e+006 -4.5217e+006 -2.7062e+005 77653 243649,243727,243701
 8.0000e+000 243977 -3.2839e+005 -4.2930e+006 -7.6480e+005 77093 243801,243853,243827
 8.0000e+000 243954 -9.5404e+004 -3.7047e+006 -1.7384e+005 77093 243801,243879,243853
 8.0000e+000 243931 -4.0402e+005 -3.9694e+006 -2.5588e+003 77093 243801,243905,243879
 8.0000e+000 244080 -1.0585e+006 -4.0221e+006  1.8623e+005 76791 244002,244054,244028
 8.0000e+000 244232 -3.5037e+005 -4.1952e+006  2.0298e+005 76311 244131,244183,244157
 8.0000e+000 244209 -1.0222e+005 -5.1174e+006  5.1451e+005 76311 244105,244183,244131
 8.0000e+000 244433 -8.4458e+005 -8.8033e+006  1.0497e+006 75903 244283,244335,244309
 8.0000e+000 244410 -4.4158e+005 -7.9278e+006  4.1809e+005 75903 244283,244361,244335
 8.0000e+000 244387 -1.7146e+006 -6.8597e+006  1.2317e+006 75903 244257,244361,244283
 8.0000e+000 244585 -2.5117e+005 -9.1878e+006  3.5760e+005 75419 244458,244510,244484
 8.0000e+000 244562 -3.1371e+005 -7.2797e+006 -1.1438e+005 75419 244458,244536,244510
 8.0000e+000 244737 -3.4925e+005 -2.4175e+006 -1.3436e+005 75215 244636,244688,244662
 8.0000e+000 244714 -2.9847e+005 -4.3794e+006 -1.5824e+005 75215 244610,244688,244636
 8.0000e+000 244889 -1.0980e+006 -3.4170e+006  7.4780e+004 74857 244788,244840,244814
 8.0000e+000 244866 -1.0304e+006 -3.0002e+006 -1.3015e+005 74857 244762,244840,244788
 8.0000e+000 245041  2.7686e+004 -7.0104e+005 -2.6462e+005 74653 244940,244992,244966
 8.0000e+000 245018 -5.5489e+004 -3.8060e+005  1.6450e+005 74653 244914,244992,244940
 8.0000e+000 245144  1.6066e+005 -4.8797e+006 -1.0443e+005 74359 245066,245118,245092
 8.0000e+000 245296 -4.2683e+005 -2.4926e+006 -6.7674e+005 74007 245169,245221,245195
 8.0000e+000 245273 -3.8848e+005 -2.9315e+006 -5.7381e+005 74007 245169,245247,245221
 8.0000e+000 245448 -1.1691e+006 -4.7845e+006  1.2591e+006 73711 245321,245373,245347
 8.0000e+000 245425 -5.9613e+005 -4.6374e+006 -1.3522e+006 73711 245321,245399,245373
 8.0000e+000 245600  4.8329e+005 -8.2323e+006 -1.0707e+006 73301 245499,245551,245525
 8.0000e+000 245577 -1.2117e+006 -5.5204e+006  1.1293e+006 73301 245473,245551,245499
 8.0000e+000 245752 -2.5949e+004 -4.7002e+006 -6.8212e+005 72995 245625,245677,245651
 8.0000e+000 245729 -4.9937e+004 -4.8935e+006 -6.4217e+005 72995 245625,245703,245677
 8.0000e+000 245953 -1.6284e+006 -7.9165e+006  7.8602e+005 72585 245777,245829,245803
 8.0000e+000 245930 -1.0025e+006 -8.4305e+006  1.5946e+006 72585 245777,245855,245829
 8.0000e+000 245907 -8.8721e+005 -7.5364e+006  1.2992e+006 72585 245777,245881,245855
 8.0000e+000 246154 -2.3768e+005 -3.5803e+006  9.1296e+005 72127 246030,246082,246056
 8.0000e+000 246131 -8.2357e+005 -5.4456e+006  5.3640e+005 72127 245978,246082,246030
 8.0000e+000 246108 -1.4724e+005 -5.6154e+006  1.7886e+005 72127 245978,246030,246004
 8.0000e+000 246257 -7.5723e+005 -3.2930e+006 -2.3624e+005 71737 246179,246231,246205
 8.0000e+000 246360 -2.3942e+005 -1.9251e+006  1.1444e+005 71447 246282,246334,246308
 8.0000e+000 246512 -2.8142e+005 -3.0907e+006  5.7014e+005 71157 246385,246437,246411
 8.0000e+000 246489 -9.7430e+004 -3.0648e+006  5.9389e+005 71157 246385,246463,246437
 8.0000e+000 246664 -4.9941e+005 -3.3681e+006 -4.7372e+005 70753 246537,246589,246563
 8.0000e+000 246641 -7.7839e+005 -3.5100e+006 -2.9201e+005 70753 246537,246615,246589
 8.0000e+000 246865 -8.9270e+005 -6.9754e+006  1.8231e+006 70249 246715,246767,246741
 8.0000e+000 246842 -9.5384e+005 -6.6574e+006  3.7143e+005 70249 246715,246793,246767
 8.0000e+000 246819 -5.0129e+005 -7.4082e+006 -1.2389e+005 70249 246689,246793,246715
 8.0000e+000 247066 -2.5956e+005 -2.9574e+006  4.0891e+005 70023 246916,246994,246942
 8.0000e+000 247043  2.6862e+005 -4.2865e+006 -1.4243e+005 70023 246890,246994,246916
 8.0000e+000 247020 -3.6018e+005 -2.8398e+006 -7.8338e+004 70023 246942,246994,246968
 8.0000e+000 247267 -3.2533e+005 -4.2918e+006 -2.7233e+005 69633 247091,247143,247117
 8.0000e+000 247244 -1.4259e+005 -4.1062e+006 -1.2009e+005 69633 247091,247169,247143
 8.0000e+000 247221 -1.7495e+004 -2.8594e+006 -3.8288e+004 69633 247091,247195,247169
 8.0000e+000 247419 -4.3632e+005 -5.2031e+006  3.7759e+005 69457 247318,247370,247344
 8.0000e+000 247396 -8.5239e+005 -4.3966e+006  2.6671e+005 69457 247292,247370,247318
 8.0000e+000 247522 -9.2294e-001 -3.5595e+004  1.3625e+002 69209 247444,247496,247470
 8.0000e+000 247625 -1.7840e+006 -3.8749e+006 -3.2087e+005 68919 247547,247599,247573
 8.0000e+000 247777  1.8489e+004 -5.1114e+006 -9.3280e+005 68579 247650,247702,247676
 8.0000e+000 247754 -4.5051e+005 -3.9322e+006 -6.2900e+005 68579 247650,247728,247702
 8.0000e+000 247929 -5.8886e+005 -3.0516e+006  1.2543e+006 68289 247802,247854,247828
 8.0000e+000 247906 -3.5080e+005 -2.3922e+006  6.8221e+005 68289 247802,247880,247854
 8.0000e+000 248081 -3.5775e+005 -3.7507e+006  1.0030e+006 67949 247980,248032,248006
 8.0000e+000 248058 -6.8241e+005 -2.6943e+006  3.0032e+005 67949 247954,248032,247980
 8.0000e+000 248233 -1.2376e+006 -5.6332e+006 -5.9544e+005 67616 248132,248184,248158
 8.0000e+000 248210 -7.9038e+005 -5.5408e+006 -4.1278e+005 67616 248106,248184,248132
 8.0000e+000 248434 -3.0271e+005 -3.7311e+006 -6.9070e+005 67212 248284,248336,248310
 8.0000e+000 248411 -4.0484e+005 -3.8934e+006 -1.1704e+006 67212 248258,248336,248284
 8.0000e+000 248388 -1.4837e+006 -4.0302e+006 -8.3744e+005 67212 248258,248362,248336
 8.0000e+000 248586 -1.5548e+004 -4.1227e+006  5.4467e+005 66872 248485,248537,248511
 8.0000e+000 248563 -6.1027e+005 -2.7262e+006  3.8281e+004 66872 248459,248537,248485
 8.0000e+000 248738 -2.4392e+005 -4.9797e+006  1.0608e+005 66510 248637,248689,248663
 8.0000e+000 248715 -3.5179e+005 -7.6052e+006  1.5816e+005 66510 248611,248689,248637
 8.0000e+000 248890 -9.1583e+004 -1.8130e+006  3.9027e+005 66220 248789,248841,248815
 8.0000e+000 248867 -2.2019e+005 -2.2917e+006 -4.7910e+005 66220 248763,248841,248789
 8.0000e+000 249091 -6.5019e+005 -4.1448e+006  1.7814e+006 65759 248915,248967,248941
 8.0000e+000 249068 -5.0170e+005 -3.6268e+006  1.4556e+006 65759 248915,248993,248967
 8.0000e+000 249045 -5.0451e+005 -3.5169e+006  1.3870e+006 65759 248915,249019,248993
 8.0000e+000 249243 -1.9771e+005 -6.8320e+006  1.3453e+006 65419 249142,249194,249168
 8.0000e+000 249220 -5.0284e+005 -5.0710e+006  3.6328e+005 65419 249116,249194,249142
 8.0000e+000 249395 -3.2579e+005 -3.1719e+006 -2.4366e+005 65079 249268,249320,249294
 8.0000e+000 249372 -3.5383e+005 -3.9249e+006 -4.3012e+005 65079 249268,249346,249320
 8.0000e+000 249547 -7.7280e+004 -1.8261e+006 -1.5405e+005 64739 249420,249472,249446
 8.0000e+000 249524 -6.9715e+005 -2.0283e+006 -9.0299e+001 64739 249420,249498,249472
 8.0000e+000 249650 -7.9243e+005 -4.0329e+006 -7.9455e+005 64342 249572,249624,249598
 8.0000e+000 249851 -1.0048e+006 -6.8182e+006 -9.2848e+005 63938 249701,249779,249753
 8.0000e+000 249828 -7.5775e+005 -7.2088e+006  1.7626e+006 63938 249675,249779,249701
 8.0000e+000 249805 -9.3085e+005 -1.3367e+007 -5.4710e+005 63938 249701,249753,249727
 8.0000e+000 250052 -1.2193e+006 -4.9144e+006 -8.8078e+004 63341 249876,249954,249902
 8.0000e+000 250029 -7.7429e+005 -4.6768e+006 -5.5043e+005 63341 249876,249980,249954
 8.0000e+000 250006  2.6333e+005 -4.9648e+006 -1.4987e+004 63341 249902,249954,249928
 8.0000e+000 250253 -4.0582e+005 -8.2997e+006 -1.1980e+006 63058 250077,250129,250103
 8.0000e+000 250230 -1.1076e+006 -5.8666e+006 -3.9724e+005 63058 250077,250155,250129
 8.0000e+000 250207 -4.6145e+005 -5.8205e+006 -2.5833e+005 63058 250077,250181,250155
 8.0000e+000 250454 -9.2963e+005 -6.4724e+006  1.2184e+006 62832 250304,250382,250330
 8.0000e+000 250431  1.7726e+005 -8.1343e+006 -2.1879e+006 62832 250278,250382,250304
 8.0000e+000 250408 -2.2959e+006 -3.9536e+006  2.0052e+005 62832 250330,250382,250356
 8.0000e+000 250606  1.6155e+005 -8.5230e+006 -1.4070e+005 62428 250479,250531,250505
 8.0000e+000 250583 -5.7914e+004 -7.0593e+006 -4.3674e+005 62428 250479,250557,250531
 8.0000e+000 250758 -3.0757e+005 -6.0669e+006  5.0736e+005 62202 250631,250683,250657
 8.0000e+000 250735 -3.3692e+005 -7.0111e+006  1.8818e+006 62202 250631,250709,250683
 8.0000e+000 250861 -1.1287e+006 -2.2510e+006  1.0585e+005 61954 250783,250835,250809
 8.0000e+000 251062 -1.6354e+006 -6.7357e+006 -6.2577e+005 61557 250912,250990,250938
 8.0000e+000 251039 -3.5941e+005 -6.8020e+006 -2.5388e+005 61557 250886,250990,250912
 8.0000e+000 251016 -1.5457e+006 -7.2254e+006 -8.7056e+005 61557 250938,250990,250964
 8.0000e+000 251263 -8.5007e+005 -6.4700e+006  5.2577e+004 61167 251113,251165,251139
 8.0000e+000 251240 -5.7145e+005 -6.1384e+006 -1.3140e+005 61167 251113,251191,251165
 8.0000e+000 251217 -1.1533e+006 -6.0029e+006  1.5108e+006 61167 251087,251191,251113
 8.0000e+000 251415 -9.4011e+005 -4.4027e+006  1.1162e+006 60827 251288,251340,251314
 8.0000e+000 251392 -1.3371e+006 -1.5622e+006 -2.4155e+005 60827 251288,251366,251340
 8.0000e+000 251567  9.7544e+003 -4.0556e+006  5.0683e+005 60487 251466,251518,251492
 8.0000e+000 251544 -1.8183e+005 -2.7641e+006 -2.6470e+005 60487 251440,251518,251466
 8.0000e+000 251719 -3.0577e+005 -8.0247e+006 -8.8374e+004 59983 251592,251644,251618
 8.0000e+000 251696 -7.4081e+005 -6.5522e+006 -4.9785e+004 59983 251592,251670,251644
 8.0000e+000 251920  9.9623e+004 -1.9863e+006 -7.4787e+004 59807 251770,251848,251796
 8.0000e+000 251897  8.9981e+004 -2.0462e+006 -7.3174e+004 59807 251744,251848,251770
 8.0000e+000 251874  7.2833e+004 -2.3515e+006 -2.3029e+005 59807 251796,251848,251822
 8.0000e+000 252023 -5.6823e+004 -4.5233e+006  5.5625e+004 59517 251945,251997,251971
 8.0000e+000 252175  6.1721e+005 -7.3556e+006 -5.1649e+005 59269 252074,252126,252100
 8.0000e+000 252152 -9.2335e+005  1.3205e+006  7.7877e+005 59269 252048,252126,252074
 8.0000e+000 252278 -3.3530e+005 -2.7742e+006  1.1978e+006 58979 252200,252252,252226
 8.0000e+000 252381 -1.9061e+006 -2.5685e+006  6.6423e+005 58689 252303,252355,252329
 8.0000e+000 252533 -5.8941e+005 -3.6025e+006  1.8594e+005 58249 252432,252484,252458
 8.0000e+000 252510 -4.4847e+005 -3.5943e+006 -2.7855e+005 58249 252406,252484,252432
 8.0000e+000 252734 -5.2948e+005 -3.2036e+006  3.3395e+005 57902 252584,252662,252610
 8.0000e+000 252711  6.9301e+005 -4.3132e+006 -8.8507e+004 57902 252558,252662,252584
 8.0000e+000 252688 -4.6457e+005 -2.1037e+006 -1.8301e+005 57902 252610,252662,252636
 8.0000e+000 252886 -2.1064e+005 -3.7925e+006 -1.6847e+005 57540 252785,252837,252811
 8.0000e+000 252863  2.1263e+004 -3.9793e+006 -1.5411e+005 57540 252759,252837,252785
 8.0000e+000 253038 -4.2756e+005 -4.7912e+006  9.0521e+005 57086 252937,252989,252963
 8.0000e+000 253015 -2.1880e+005 -2.5551e+006  1.4102e+005 57086 252911,252989,252937
 8.0000e+000 253239 -3.4786e+005 -4.7777e+006 -2.6887e+005 56796 253063,253141,253115
 8.0000e+000 253216  3.1303e+005 -5.0853e+006  1.6307e+005 56796 253063,253167,253141
 8.0000e+000 253193 -8.2902e+005 -4.3104e+006  4.1174e+004 56796 253063,253115,253089
 8.0000e+000 253342 -4.8624e+005 -4.9863e+006  4.0561e+005 56349 253264,253316,253290
 8.0000e+000 253543 -8.9148e+005 -5.5846e+006 -6.0778e+005 56009 253367,253419,253393
 8.0000e+000 253520 -9.1336e+005 -4.1828e+006 -3.0319e+005 56009 253367,253445,253419
 8.0000e+000 253497 -4.9253e+005 -4.5998e+006 -1.5787e+005 56009 253367,253471,253445
 8.0000e+000 253695 -2.8036e+004 -3.7471e+006  8.8182e+004 55733 253594,253646,253620
 8.0000e+000 253672 -1.2713e+005 -3.2187e+006  9.5613e+004 55733 253568,253646,253594
 8.0000e+000 253798 -5.2185e+005 -2.2479e+006 -1.5472e+005 55557 253720,253772,253746
 8.0000e+000 253950 -4.6986e+005 -3.4725e+006  2.7301e+005 55153 253849,253901,253875
 8.0000e+000 253927  2.3867e+005 -4.1429e+006 -5.4607e+005 55153 253823,253901,253849
 8.0000e+000 254151 -1.1642e+006 -4.0112e+006  6.1720e+005 54863 253975,254053,254001
 8.0000e+000 254128 -6.6530e+005 -4.2162e+006 -2.6769e+004 54863 253975,254079,254053
 8.0000e+000 254105 -3.7214e+005 -3.0628e+006  5.2454e+004 54863 254001,254053,254027
 8.0000e+000 254303 -7.4023e+003 -4.9838e+006  8.9892e+004 54373 254176,254228,254202
 8.0000e+000 254280 -8.6810e+005 -4.7140e+006  3.4078e+005 54373 254176,254254,254228
 8.0000e+000 254455 -4.8931e+005 -4.7099e+006 -3.5541e+005 53975 254354,254406,254380
 8.0000e+000 254432 -9.3970e+005 -2.0858e+006 -3.3253e+004 53975 254328,254406,254354
 8.0000e+000 254607 -5.5042e+005 -3.8537e+006 -4.6353e+005 53585 254480,254532,254506
 8.0000e+000 254584 -2.8641e+005 -4.0403e+006 -5.3879e+005 53585 254480,254558,254532
 8.0000e+000 254808 -8.1456e+005 -3.1391e+006 -7.0056e+004 53245 254658,254736,254684
 8.0000e+000 254785 -9.9601e+005 -2.2982e+006 -3.6605e+005 53245 254632,254736,254658
 8.0000e+000 254762 -4.8060e+005 -2.3737e+006 -3.7953e+005 53245 254684,254736,254710
 8.0000e+000 254911 -2.5515e+005 -4.4873e+006 -2.8356e+005 52955 254833,254885,254859
 8.0000e+000 255063 -6.9510e+005 -4.5728e+006 -1.6730e+005 52551 254962,255014,254988
 8.0000e+000 255040 -6.3611e+005 -5.0887e+006 -3.8028e+005 52551 254936,255014,254962
 8.0000e+000 255264 -1.2540e+006 -1.9323e+006 -1.4699e+005 52261 255114,255166,255140
 8.0000e+000 255241 -1.2080e+006 -3.8815e+006  3.9874e+005 52261 255114,255192,255166
 8.0000e+000 255218 -9.8738e+005 -5.9500e+006 -1.4532e+006 52261 255088,255192,255114
 8.0000e+000 255416 -2.5390e+005 -4.0255e+006  1.0331e+006 51971 255289,255341,255315
 8.0000e+000 255393 -3.6814e+005 -3.7913e+006 -1.6412e+005 51971 255289,255367,255341
 8.0000e+000 255568 -4.7384e+005 -2.5524e+006 -3.0606e+005 51681 255441,255493,255467
 8.0000e+000 255545  7.3425e+004 -5.9791e+006  2.9047e+005 51681 255441,255519,255493
 8.0000e+000 255769 -3.3720e+005 -3.2766e+006  1.2665e+005 51291 255619,255697,255671
 8.0000e+000 255746 -3.0317e+005 -2.7658e+006 -2.7262e+005 51291 255593,255697,255619
 8.0000e+000 255723 -2.1921e+005 -4.4462e+006 -1.2180e+005 51291 255619,255671,255645
 8.0000e+000 255921 -4.9359e+005 -2.5595e+006  6.5457e+005 50951 255820,255872,255846
 8.0000e+000 255898 -4.6557e+005 -2.5170e+006  4.3815e+005 50951 255794,255872,255820
 8.0000e+000 256171 -1.0536e+006 -3.5185e+006 -4.1510e+004 50547 256024,256076,256050
 8.0000e+000 256148 -8.1953e+005 -3.8076e+006  3.6874e+005 50547 255972,256076,256024
 8.0000e+000 256125 -3.0047e+005 -4.4196e+006 -8.7249e+004 50547 255946,256076,255972
 8.0000e+000 256102 -8.4847e+005 -3.1903e+006  1.8073e+005 50547 255972,256024,255998
 8.0000e+000 256323  1.5041e+005 -4.6556e+006  8.5085e+005 50093 256196,256248,256222
 8.0000e+000 256300 -6.9849e+005 -2.6653e+006 -7.0991e+005 50093 256196,256274,256248
 8.0000e+000 256426 -2.0681e+000 -1.4339e+005  3.3301e+001 49845 256348,256400,256374
 8.0000e+000 256627 -3.7771e+005 -4.2114e+006  2.5033e+005 49555 256477,256555,256503
 8.0000e+000 256604 -4.0431e+005 -3.9492e+006  2.5607e+005 49555 256451,256555,256477
 8.0000e+000 256581 -4.6576e+005 -3.5627e+006  2.8753e+005 49555 256503,256555,256529
 8.0000e+000 256828 -2.3166e+005 -3.3320e+006 -3.0217e+005 49056 256652,256730,256678
 8.0000e+000 256805 -5.2505e+005 -3.1036e+006 -8.9578e+004 49056 256652,256756,256730
 8.0000e+000 256782 -5.3092e+005 -3.4536e+006 -2.0889e+005 49056 256678,256730,256704
 8.0000e+000 256931 -9.4546e+005 -2.1088e+006 -5.8512e+005 48766 256853,256905,256879
 8.0000e+000 257083 -4.5355e+005 -4.2547e+006 -1.7222e+005 48568 256982,257034,257008
 8.0000e+000 257060 -2.7690e+005 -3.5079e+006 -4.1148e+005 48568 256956,257034,256982
 8.0000e+000 257186 -6.1119e+003 -1.6439e+006  3.6992e+003 48228 257108,257160,257134
 8.0000e+000 257338 -4.1826e+005 -1.9219e+006  5.6876e+005 47888 257237,257289,257263
 8.0000e+000 257315 -4.5411e+005 -2.0583e+006  5.5412e+005 47888 257211,257289,257237
 8.0000e+000 257539 -3.3869e+005 -3.8707e+006  1.2668e+005 47548 257363,257441,257415
 8.0000e+000 257516 -5.8878e+005 -3.7560e+006 -1.2000e+005 47548 257363,257467,257441
 8.0000e+000 257493 -5.0488e+005 -2.9954e+006 -1.0272e+005 47548 257363,257415,257389
 8.0000e+000 257740 -2.4640e+005 -3.6810e+006  3.3467e+005 46994 257564,257642,257616
 8.0000e+000 257717 -4.1548e+005 -3.1508e+006  1.4778e+005 46994 257564,257668,257642
 8.0000e+000 257694 -6.7879e+005 -3.8109e+006 -9.2385e+003 46994 257564,257616,257590
 8.0000e+000 257843 -8.2586e+005 -3.2671e+006  1.3927e+005 46654 257765,257817,257791
 8.0000e+000 257995 -7.2411e+005 -3.2797e+006  2.5772e+005 46364 257894,257946,257920
 8.0000e+000 257972 -6.3800e+005 -4.0705e+006 -1.8462e+005 46364 257868,257946,257894
 8.0000e+000 258147 -2.4019e+005 -3.1981e+006  1.8383e+005 46024 258046,258098,258072
 8.0000e+000 258124 -4.3175e+005 -3.3322e+006  8.9888e+004 46024 258020,258098,258046
 8.0000e+000 258250 -6.9293e+005 -2.9190e+006  7.3730e+005 45741 258172,258224,258198
 8.0000e+000 258402 -1.9390e+005 -3.0119e+006  2.5744e+005 45401 258301,258353,258327
 8.0000e+000 258379 -4.7792e+005 -2.4306e+006  1.9472e+005 45401 258275,258353,258301
 8.0000e+000 258603 -5.4715e+005 -2.0159e+006  9.6779e+004 45071 258427,258505,258479
 8.0000e+000 258580 -3.8079e+005 -4.2787e+006  4.1626e+005 45071 258427,258531,258505
 8.0000e+000 258557 -2.0733e+005 -2.4908e+006  2.6396e+005 45071 258427,258479,258453
 8.0000e+000 258755 -2.4509e+005 -3.2570e+006 -1.2512e+005 44681 258654,258706,258680
 8.0000e+000 258732 -2.0438e+005 -3.6355e+006 -1.3685e+005 44681 258628,258706,258654
 8.0000e+000 258907 -3.7367e+005 -2.7271e+006 -2.9081e+005 44157 258806,258858,258832
 8.0000e+000 258884 -6.6397e+005 -2.3817e+006 -2.5477e+005 44157 258780,258858,258806
 8.0000e+000 259010 -5.3336e+005 -1.9055e+006 -1.7532e+004 43705 258932,258984,258958
 8.0000e+000 259113 -2.7298e+005 -4.4234e+006  3.7245e+005 43284 259035,259087,259061
 8.0000e+000 259216 -5.0402e+005 -3.8883e+006 -2.3762e+005 42954 259138,259190,259164
 8.0000e+000 259319 -9.5399e+005 -2.1014e+006 -1.7171e+004 42116 259241,259293,259267
 8.0000e+000 259422 -3.9584e+005 -3.4078e+006 -2.0440e+005 41804 259344,259396,259370
 8.0000e+000 259525 -5.7779e+005 -4.6201e+006  4.9409e+005 41219 259447,259499,259473
 8.0000e+000 259628 -7.6860e+005 -2.7312e+006 -2.1682e+005 385 259550,259602,259576
 8.0000e+001 190120 -1.9305e+005 -2.3392e+006 -4.2592e+005 189630 189993,190045,190019
 8.0000e+001 190097 -6.9746e+005 -1.7194e+006 -2.6544e+005 189630 189993,190071,190045
 8.0000e+001 190319 -1.4683e+006 -4.5147e+006 -5.2411e+005 189312 190169,190221,190195
 8.0000e+001 190296 -5.9531e+005 -3.8824e+006 -1.0580e+006 189312 190169,190247,190221
 8.0000e+001 190273 -9.0793e+005 -3.2022e+006  2.5117e+005 189312 190143,190247,190169
 8.0000e+001 190518 -4.7719e+005  4.9231e+004  1.6759e+004 189124 190368,190446,190420
 8.0000e+001 190495 -5.6279e+005  2.1727e+004 -3.7347e+003 189124 190342,190446,190368
 8.0000e+001 190472 -9.9101e+005 -5.2774e+004 -4.9231e+004 189124 190368,190420,190394
 8.0000e+001 190619 -4.5057e+005 -4.7408e+004 -5.9121e+003 188926 190541,190593,190567
 8.0000e+001 190771 -4.8818e+005 -7.4813e+004  1.3124e+004 188614 190670,190722,190696
 8.0000e+001 190748 -5.5831e+005  1.6510e+005  5.4200e+004 188614 190644,190722,190670
 8.0000e+001 190972 -5.0537e+005 -5.0325e+005 -3.4826e+005 188324 190848,190900,190874
 8.0000e+001 190949 -5.1634e+005 -8.1217e+005 -5.2393e+005 188324 190796,190900,190848
 8.0000e+001 190926 -8.0280e+004 -3.7142e+005 -2.3541e+005 188324 190796,190848,190822
 8.0000e+001 191124 -6.8634e+005 -1.0039e+006 -1.6204e+005 188034 191023,191075,191049
 8.0000e+001 191101 -1.5936e+005 -1.1322e+006 -1.1977e+005 188034 190997,191075,191023
 8.0000e+001 191276 -2.0455e+005 -1.0083e+006 -8.1662e+004 187836 191149,191201,191175
 8.0000e+001 191253 -2.6378e+005 -5.2831e+005  1.7824e+005 187836 191149,191227,191201
 8.0000e+001 191379 -4.5926e+005 -3.3454e+005 -1.0025e+005 187546 191301,191353,191327
 8.0000e+001 191531 -2.5639e+005 -3.5822e+006  3.0679e+005 187256 191430,191482,191456
 8.0000e+001 191508 -1.1405e+006 -5.1673e+006 -1.6084e+006 187256 191404,191482,191430
 8.0000e+001 191634 -7.4197e+005  2.4790e+004 -1.8381e+004 187058 191556,191608,191582
 8.0000e+001 191835 -5.1079e+005  1.9477e+004 -2.0839e+004 186860 191659,191711,191685
 8.0000e+001 191812 -3.3240e+005 -1.0395e+005  8.3934e+003 186860 191659,191737,191711
 8.0000e+001 191789 -2.9101e+005 -6.4672e+003 -4.3023e+004 186860 191659,191763,191737
 8.0000e+001 191987 -1.3841e+005 -4.3703e+005 -1.4811e+005 186662 191886,191938,191912
 8.0000e+001 191964  1.2743e+004 -1.0781e+006  2.7114e+005 186662 191860,191938,191886
 8.0000e+001 192090 -7.5383e+005 -1.2785e+006 -1.8785e+005 186486 192012,192064,192038
 8.0000e+001 192242 -1.3624e+005 -7.4648e+006 -3.2349e+005 186288 192115,192167,192141
 8.0000e+001 192219 -8.2296e+005 -4.4902e+006  1.5215e+005 186288 192115,192193,192167
 8.0000e+001 192394  7.0406e+004 -6.0224e+006 -2.7076e+005 185935 192293,192345,192319
 8.0000e+001 192371 -5.3459e+005 -4.1427e+006 -7.0433e+005 185935 192267,192345,192293
 8.0000e+001 192546 -4.1050e+005 -3.1932e+006 -6.4370e+005 185675 192419,192471,192445
 8.0000e+001 192523 -9.2727e+005 -1.5581e+006 -7.0508e+005 185675 192419,192497,192471
 8.0000e+001 192649 -8.4002e+005 -1.9337e+006 -2.0575e+005 185499 192571,192623,192597
 8.0000e+001 192801 -2.7082e+005 -1.2882e+006  1.7151e+005 185301 192674,192726,192700
 8.0000e+001 192778 -1.6394e+005 -1.3728e+006  4.6759e+005 185301 192674,192752,192726
 8.0000e+001 193002 -8.7621e+004 -5.8789e+005 -3.9117e+005 185046 192852,192930,192878
 8.0000e+001 192979 -3.6056e+005 -1.5323e+006 -2.2269e+005 185046 192826,192930,192852
 8.0000e+001 192956  4.3303e+005 -1.9426e+006 -1.6344e+004 185046 192878,192930,192904
 8.0000e+001 193203  1.6934e+005 -5.0958e+006 -7.5056e+005 184798 193079,193131,193105
 8.0000e+001 193180 -9.8835e+005 -3.2828e+006 -2.0551e+005 184798 193027,193131,193079
 8.0000e+001 193157 -1.6891e+006 -3.4886e+006  2.4775e+005 184798 193027,193079,193053
 8.0000e+001 193404 -2.2837e+005 -4.8932e+006 -1.2445e+006 184600 193254,193306,193280
 8.0000e+001 193381 -5.1017e+005 -1.4087e+006 -1.9314e+005 184600 193254,193332,193306
 8.0000e+001 193358 -8.6101e+005 -3.9647e+005 -3.9486e+005 184600 193228,193332,193254
 8.0000e+001 193556 -6.1878e+005 -5.3025e+005 -5.9740e+005 184402 193429,193481,193455
 8.0000e+001 193533 -6.4051e+005 -5.6338e+005 -5.7254e+005 184402 193429,193507,193481
 8.0000e+001 193708  4.8370e+004 -1.6443e+006  1.5539e+005 184204 193607,193659,193633
 8.0000e+001 193685 -5.2752e+005 -6.0238e+006 -1.0927e+006 184204 193581,193659,193607
 8.0000e+001 193860 -5.7575e+005 -7.7735e+005  4.6965e+005 183908 193759,193811,193785
 8.0000e+001 193837 -9.0208e+004 -1.4715e+006  5.2551e+005 183908 193733,193811,193759
 8.0000e+001 194061 -5.3585e+005 -2.0158e+005  2.0879e+005 183710 193911,193989,193937
 8.0000e+001 194038 -6.2429e+005 -6.2978e+005  2.2133e+005 183710 193885,193989,193911
 8.0000e+001 194015 -5.6209e+005 -7.1639e+005  3.0887e+005 183710 193937,193989,193963
 8.0000e+001 194262 -7.2424e+005 -2.6710e+006 -7.0709e+005 183420 194086,194164,194112
 8.0000e+001 194239 -7.2173e+005 -2.4427e+006 -3.6293e+005 183420 194086,194190,194164
 8.0000e+001 194216  4.8254e+005 -7.1741e+006  1.4436e+006 183420 194112,194164,194138
 8.0000e+001 194414 -6.0215e+005 -5.5389e+006 -1.8885e+005 183222 194287,194339,194313
 8.0000e+001 194391 -3.5991e+005 -1.3800e+006 -3.9979e+005 183222 194287,194365,194339
 8.0000e+001 194517 -1.0032e+006 -8.1533e+005 -1.6127e+004 183024 194439,194491,194465
 8.0000e+001 194718  1.7308e+006 -1.5298e+007  1.4981e+006 182734 194568,194620,194594
 8.0000e+001 194695 -1.1411e+006 -4.3698e+006 -3.1982e+006 182734 194542,194620,194568
 8.0000e+001 194672 -3.2935e+006 -2.0569e+006 -1.5540e+006 182734 194542,194646,194620
 8.0000e+001 194870 -5.0376e+005 -4.2348e+005  3.7004e+005 182444 194769,194821,194795
 8.0000e+001 194847 -5.4465e+005 -1.0989e+006  7.9408e+005 182444 194743,194821,194769
 8.0000e+001 195071 -3.1232e+005 -1.4323e+006  8.4765e+005 182154 194895,194947,194921
 8.0000e+001 195048 -3.6075e+005 -5.1518e+005  1.8508e+005 182154 194895,194999,194947
 8.0000e+001 195025 -3.5579e+005 -1.5885e+005  2.1886e+005 182154 194947,194999,194973
 8.0000e+001 195223 -3.0587e+005 -2.6690e+005 -1.5485e+005 181814 195096,195148,195122
 8.0000e+001 195200 -5.3033e+005 -1.6563e+006 -1.1567e+006 181814 195096,195174,195148
 8.0000e+001 195375 -2.1841e+004 -3.4483e+004 -1.9742e+004 181524 195248,195300,195274
 8.0000e+001 195352  1.1706e+004 -1.6923e+005 -2.7039e+003 181524 195248,195326,195300
 8.0000e+001 195527 -2.2671e+005 -1.3397e+006 -1.0231e+005 181326 195426,195478,195452
 8.0000e+001 195504 -1.0900e+006 -1.5348e+006  4.6013e+005 181326 195400,195478,195426
 8.0000e+001 195679 -7.3308e+003 -9.6386e+006 -4.8709e+005 180936 195578,195630,195604
 8.0000e+001 195656 -5.9466e+005 -4.0227e+006 -3.1602e+005 180936 195552,195630,195578
 8.0000e+001 195831 -4.6111e+005 -3.7819e+005 -1.7944e+005 180646 195704,195756,195730
 8.0000e+001 195808 -7.3446e+005 -2.4728e+004  1.4753e+004 180646 195704,195782,195756
 8.0000e+001 196032 -3.0988e+005 -2.0987e+006  4.2270e+005 180306 195882,195960,195934
 8.0000e+001 196009 -4.1027e+005 -8.3335e+005 -2.9012e+005 180306 195856,195960,195882
 8.0000e+001 195986  2.8838e+004 -2.2934e+006  1.7733e+005 180306 195882,195934,195908
 8.0000e+001 196233 -2.4461e+005 -2.0119e+005 -9.3228e+005 179944 196057,196109,196083
 8.0000e+001 196210 -9.5015e+005 -3.5891e+006  4.5811e+005 179944 196057,196135,196109
 8.0000e+001 196187 -2.0540e+006  4.6656e+006 -1.5271e+006 179944 196057,196161,196135
 8.0000e+001 196385 -5.6838e+005 -6.6199e+005 -4.0840e+005 179604 196258,196310,196284
 8.0000e+001 196362 -8.6343e+005 -1.1124e+006 -1.0507e+006 179604 196258,196336,196310
 8.0000e+001 196586 -8.3495e+005 -5.3861e+005 -6.6778e+005 179114 196410,196488,196436
 8.0000e+001 196563 -6.2495e+005 -1.8249e+006 -6.5158e+005 179114 196410,196514,196488
 8.0000e+001 196540 -4.0925e+003 -4.9397e+005 -4.9361e+004 179114 196436,196488,196462
 8.0000e+001 196738 -7.2009e+005 -1.5883e+006 -6.8416e+005 178674 196611,196663,196637
 8.0000e+001 196715  4.3693e+004 -3.6129e+006 -1.5551e+005 178674 196611,196689,196663
 8.0000e+001 196939  1.1120e+006 -8.8894e+006 -2.3332e+006 178334 196789,196867,196841
 8.0000e+001 196916 -1.3313e+006 -9.3443e+006  4.3603e+005 178334 196763,196867,196789
 8.0000e+001 196893 -2.6248e+006 -6.2365e+006 -4.4134e+006 178334 196789,196841,196815
 8.0000e+001 197091 -7.7551e+005 -3.5494e+006 -8.9918e+005 177930 196990,197042,197016
 8.0000e+001 197068 -9.9379e+005 -4.3339e+006 -6.9723e+005 177930 196964,197042,196990
 8.0000e+001 197194 -3.4102e+002  5.3261e+002 -1.6789e+002 177732 197116,197168,197142
 8.0000e+001 197346 -4.4258e+005 -5.4738e+006  2.3995e+005 177534 197219,197271,197245
 8.0000e+001 197323 -1.9372e+005 -5.9389e+006  4.7815e+005 177534 197219,197297,197271
 8.0000e+001 197547 -1.3208e+006 -7.3888e+006 -3.0831e+006 177130 197397,197449,197423
 8.0000e+001 197524 -2.1746e+006 -8.0165e+006 -2.3664e+006 177130 197397,197475,197449
 8.0000e+001 197501 -1.1804e+006 -9.8323e+006 -2.5296e+006 177130 197371,197475,197397
 8.0000e+001 197748 -6.6358e+005 -5.3426e+006  4.7701e+005 176790 197598,197676,197624
 8.0000e+001 197725 -4.5242e+005 -4.0591e+006  6.9224e+005 176790 197572,197676,197598
 8.0000e+001 197702 -5.6519e+005 -4.5514e+006  4.9284e+005 176790 197624,197676,197650
 8.0000e+001 197900 -2.8504e+005 -2.8434e+006 -4.8300e+005 176300 197773,197825,197799
 8.0000e+001 197877 -4.1656e+004 -4.2317e+006 -3.6932e+005 176300 197773,197851,197825
 8.0000e+001 198052 -1.1055e+006 -5.0495e+006 -1.1362e+006 176010 197925,197977,197951
 8.0000e+001 198029 -4.6075e+005 -6.0388e+006 -1.7362e+006 176010 197925,198003,197977
 8.0000e+001 198204 -1.1678e+006 -5.0380e+006 -2.2434e+006 175670 198103,198155,198129
 8.0000e+001 198181 -1.5312e+006 -3.2659e+006 -5.5703e+005 175670 198077,198155,198103
 8.0000e+001 198405 -2.6166e+005 -3.8741e+006 -7.0590e+005 175266 198255,198307,198281
 8.0000e+001 198382 -7.7755e+004 -5.1990e+006 -1.8246e+006 175266 198229,198307,198255
 8.0000e+001 198359 -1.1377e+006 -4.5727e+006 -2.2822e+006 175266 198229,198333,198307
 8.0000e+001 198606  2.0998e+003 -3.2660e+004  2.9030e+003 174876 198430,198508,198482
 8.0000e+001 198583  2.5495e+004 -2.7007e+004  4.3137e+003 174876 198430,198534,198508
 8.0000e+001 198560  3.5090e+003 -1.6528e+004 -3.4406e+003 174876 198430,198482,198456
 8.0000e+001 198758 -8.6267e+002 -6.8198e+002  1.0281e+003 174536 198657,198709,198683
 8.0000e+001 198735 -2.7139e+002 -1.3266e+001 -1.1544e+003 174536 198631,198709,198657
 8.0000e+001 199008 -9.3064e+005 -5.0817e+006 -5.3857e+004 174132 198835,198913,198887
 8.0000e+001 198985 -5.9693e+005 -2.0334e+006  2.7987e+005 174132 198809,198913,198835
 8.0000e+001 198962 -5.8334e+005 -2.2670e+006 -1.2863e+006 174132 198783,198913,198809
 8.0000e+001 198939 -3.7473e+005 -5.4074e+006 -1.1301e+004 174132 198835,198887,198861
 8.0000e+001 199160 -1.0455e+006 -2.7036e+006 -6.1827e+005 173842 199059,199111,199085
 8.0000e+001 199137 -4.0200e+005 -1.2439e+006 -1.1364e+005 173842 199033,199111,199059
 8.0000e+001 199361 -6.9743e+005 -4.0938e+006  1.2047e+006 173438 199237,199289,199263
 8.0000e+001 199338 -4.0674e+005 -4.3995e+006  1.2491e+006 173438 199211,199289,199237
 8.0000e+001 199315 -5.6564e+004 -6.5007e+006 -5.3403e+005 173438 199185,199289,199211
 8.0000e+001 199513 -8.3605e+005 -5.4162e+006  2.5546e+004 173190 199386,199438,199412
 8.0000e+001 199490 -1.5061e+006 -5.9782e+006  4.3496e+005 173190 199386,199464,199438
 8.0000e+001 199665 -4.6074e+005 -1.5211e+006  2.4792e+005 172750 199564,199616,199590
 8.0000e+001 199642 -8.8496e+005 -8.5296e+005 -2.4885e+004 172750 199538,199616,199564
 8.0000e+001 199817 -2.3090e+005 -3.0243e+006 -9.9766e+005 172524 199690,199742,199716
 8.0000e+001 199794 -1.4620e+006 -9.4677e+005 -5.4769e+005 172524 199690,199768,199742
 8.0000e+001 199969 -6.1826e+003 -6.1438e+006 -2.0311e+005 172348 199842,199894,199868
 8.0000e+001 199946  2.7621e+005 -6.0862e+006 -5.4011e+004 172348 199842,199920,199894
 8.0000e+001 200121  7.1870e+004 -1.5073e+006 -2.8402e+005 172008 199994,200046,200020
 8.0000e+001 200098 -1.6287e+005 -4.8919e+005 -1.1227e+005 172008 199994,200072,200046
 8.0000e+001 200273 -1.8465e+006 -6.2172e+006 -2.5007e+006 171668 200172,200224,200198
 8.0000e+001 200250 -1.2618e+006 -6.2434e+006 -1.5134e+006 171668 200146,200224,200172
 8.0000e+001 200474  2.2529e+005 -4.2381e+006 -6.4423e+005 171264 200350,200402,200376
 8.0000e+001 200451 -1.7759e+005 -4.7232e+006 -9.1317e+005 171264 200324,200402,200350
 8.0000e+001 200428 -3.2366e+005 -3.1655e+006  1.0125e+006 171264 200298,200402,200324
 8.0000e+001 200626 -1.0497e+006 -4.6344e+006 -7.9488e+005 170832 200525,200577,200551
 8.0000e+001 200603 -2.7620e+005 -2.8403e+006 -1.9391e+005 170832 200499,200577,200525
 8.0000e+001 200827 -6.5136e+004 -1.5131e+006  3.8295e+005 170492 200677,200729,200703
 8.0000e+001 200804 -9.4210e+005 -7.0428e+005 -2.6898e+005 170492 200651,200729,200677
 8.0000e+001 200781 -6.6640e+005 -8.8339e+005 -4.7144e+005 170492 200651,200755,200729
 8.0000e+001 201077 -7.1614e+005 -2.5037e+006 -2.2265e+005 170088 200878,200956,200904
 8.0000e+001 201054 -4.9553e+005 -1.2574e+006 -1.7517e+005 170088 200852,200956,200878
 8.0000e+001 201031 -9.1005e+005 -1.3597e+006  2.1177e+006 170088 200904,200956,200930
 8.0000e+001 201008  1.9462e+004 -1.6935e+006  1.2587e+005 170088 200852,200982,200956
 8.0000e+001 201278  5.6512e+004 -4.2170e+005 -1.6959e+005 169798 201102,201154,201128
 8.0000e+001 201255 -3.4011e+005 -1.6580e+006 -4.2944e+005 169798 201102,201206,201154
 8.0000e+001 201232 -1.5282e+006  3.0877e+005  1.7222e+005 169798 201154,201206,201180
 8.0000e+001 201430 -1.3550e+005 -2.4790e+006 -5.2182e+005 169337 201303,201355,201329
 8.0000e+001 201407 -1.1318e+005 -8.1213e+005 -1.4216e+005 169337 201303,201381,201355
 8.0000e+001 201631 -2.1684e+005 -3.0670e+006  6.5513e+005 168883 201481,201559,201507
 8.0000e+001 201608 -3.0300e+005 -2.6335e+006  9.1748e+005 168883 201455,201559,201481
 8.0000e+001 201585 -1.8209e+005 -2.1527e+006  7.1320e+005 168883 201507,201559,201533
 8.0000e+001 201832  2.9617e+005 -6.7541e+006  3.7520e+005 168479 201682,201734,201708
 8.0000e+001 201809 -2.0896e+006 -4.9400e+006 -1.2244e+006 168479 201656,201734,201682
 8.0000e+001 201786 -1.7609e+006 -3.6436e+006  9.9025e+003 168479 201656,201760,201734
 8.0000e+001 202033 -3.0054e+005 -2.6278e+006  1.0475e+005 167825 201883,201935,201909
 8.0000e+001 202010 -1.5511e+006 -3.7720e+006 -1.9676e+006 167825 201857,201935,201883
 8.0000e+001 201987 -2.5956e+005 -9.6320e+006 -1.0949e+006 167825 201857,201961,201935
 8.0000e+001 202234 -9.7643e+004 -6.2751e+005 -1.3934e+005 167435 202058,202136,202084
 8.0000e+001 202211 -2.7200e+005 -1.7005e+006  9.3317e+005 167435 202058,202162,202136
 8.0000e+001 202188 -4.9550e+004 -3.4165e+005  9.2245e+004 167435 202084,202136,202110
 8.0000e+001 202386  3.5635e+004 -1.6276e+006  2.9871e+005 167002 202285,202337,202311
 8.0000e+001 202363 -3.2142e+005 -4.4872e+005  2.9594e+005 167002 202259,202337,202285
 8.0000e+001 202538 -2.2493e+006 -1.7301e+006 -1.7986e+006 166662 202411,202463,202437
 8.0000e+001 202515 -7.5613e+005 -3.5834e+006 -2.7954e+006 166662 202411,202489,202463
 8.0000e+001 202690 -1.2123e+004 -1.6672e+006 -6.4495e+005 166322 202589,202641,202615
 8.0000e+001 202667  1.0594e+003 -9.5226e+005 -7.7251e+004 166322 202563,202641,202589
 8.0000e+001 202891 -1.3473e+005 -4.3928e+004 -1.0250e+004 165918 202715,202767,202741
 8.0000e+001 202868 -1.7304e+005 -3.2638e+005 -2.7610e+005 165918 202715,202793,202767
 8.0000e+001 202845 -2.6365e+005 -5.9139e+005 -1.3283e+005 165918 202715,202819,202793
 8.0000e+001 203092  1.3793e+005 -2.1430e+006 -3.1807e+005 165628 202916,202968,202942
 8.0000e+001 203069 -2.1752e+004 -1.4035e+006 -3.7194e+005 165628 202916,202994,202968
 8.0000e+001 203046 -2.3290e+005 -1.2336e+006 -5.3434e+005 165628 202916,203020,202994
 8.0000e+001 203293 -3.5802e+006 -1.9360e+006 -2.5841e+006 165266 203143,203195,203169
 8.0000e+001 203270 -1.4207e+006 -5.1276e+006 -5.8208e+005 165266 203143,203221,203195
 8.0000e+001 203247 -9.2900e+005 -5.4736e+006 -9.8954e+005 165266 203117,203221,203143
 8.0000e+001 203445 -2.5251e+005 -1.1632e+006  4.4566e+005 164826 203318,203370,203344
 8.0000e+001 203422 -8.8091e+004 -7.4075e+005 -4.5079e+004 164826 203318,203396,203370
 8.0000e+001 203597 -6.4420e+005 -1.0553e+006 -2.3706e+005 164386 203470,203522,203496
 8.0000e+001 203574 -1.0463e+006 -2.0711e+006 -7.0590e+005 164386 203470,203548,203522
 8.0000e+001 203798 -1.9807e+005 -3.0334e+004 -1.8489e+004 163996 203622,203674,203648
 8.0000e+001 203775 -7.4159e+005 -8.8162e+003  1.4458e+005 163996 203622,203726,203674
 8.0000e+001 203752 -7.0920e+005 -3.2982e+003 -4.6011e+004 163996 203674,203726,203700
 8.0000e+001 203901 -5.0543e+005 -9.7491e+005 -4.4878e+004 163770 203823,203875,203849
 8.0000e+001 204053 -1.6513e+006 -2.4080e+006 -8.3653e+005 163474 203952,204004,203978
 8.0000e+001 204030 -1.8364e+006 -2.7121e+006 -1.2971e+006 163474 203926,204004,203952
 8.0000e+001 204205 -2.7634e+005 -1.3606e+006 -1.7860e+005 163034 204104,204156,204130
 8.0000e+001 204182 -4.6909e+005 -1.8212e+006 -6.8810e+005 163034 204078,204156,204104
 8.0000e+001 204357 -1.0482e+005 -1.3221e+004  3.6949e+004 162624 204256,204308,204282
 8.0000e+001 204334 -1.0486e+005 -1.2822e+004  3.6765e+004 162624 204230,204308,204256
 8.0000e+001 204509  4.5775e+002  7.2799e+001  4.2150e+002 162200 204382,204434,204408
 8.0000e+001 204486 -1.5816e+001  4.0929e+002 -5.0709e+002 162200 204382,204460,204434
 8.0000e+001 204710 -2.0366e+006 -2.9356e+005  1.8071e+005 161810 204560,204638,204586
 8.0000e+001 204687 -1.4445e+006 -9.8676e+005 -7.9977e+005 161810 204534,204638,204560
 8.0000e+001 204664 -1.7242e+006 -2.5498e+005  5.6520e+005 161810 204586,204638,204612
 8.0000e+001 204862 -7.1788e+005 -7.8478e+005 -6.0809e+005 161406 204735,204787,204761
 8.0000e+001 204839 -5.0404e+005 -8.0896e+005 -6.3820e+005 161406 204735,204813,204787
 8.0000e+001 205014 -1.4138e+003 -7.6369e+002 -1.1998e+003 161180 204887,204939,204913
 8.0000e+001 204991  3.1261e+002 -2.4592e+003 -4.4586e+002 161180 204887,204965,204939
 8.0000e+001 205215 -6.0609e+005 -1.1594e+006 -1.6451e+006 160726 205039,205091,205065
 8.0000e+001 205192 -9.1524e+005 -2.4882e+006 -1.3885e+006 160726 205039,205143,205091
 8.0000e+001 205169 -1.3605e+006 -2.1520e+006 -1.6981e+006 160726 205091,205143,205117
 8.0000e+001 205416 -1.0468e+004 -3.7723e+003  5.8717e+003 160272 205292,205344,205318
 8.0000e+001 205393 -3.1392e+004  2.2624e+003 -9.5244e+003 160272 205240,205344,205292
 8.0000e+001 205370 -4.0790e+004 -5.2248e+004 -2.8257e+004 160272 205240,205292,205266
 8.0000e+001 205568  5.8540e+002 -1.2150e+002 -5.5744e+002 159932 205441,205493,205467
 8.0000e+001 205545  5.3404e+001  6.2082e+001  9.6868e+000 159932 205441,205519,205493
 8.0000e+001 205720  2.6981e+002 -2.3529e+002 -3.8930e+001 159542 205593,205645,205619
 8.0000e+001 205697  2.2127e+002 -1.3393e+002 -9.0164e+001 159542 205593,205671,205645
 8.0000e+001 205872 -1.1874e+002 -2.5868e+001  2.5486e+001 159252 205745,205797,205771
 8.0000e+001 205849 -6.3368e+001  1.4267e+002 -4.2268e+001 159252 205745,205823,205797
 8.0000e+001 206024 -1.1773e+005 -8.4928e+005  3.4713e+005 159004 205923,205975,205949
 8.0000e+001 206001 -6.5469e+004 -1.5362e+006  4.9357e+005 159004 205897,205975,205923
 8.0000e+001 206127 -4.6806e+006 -3.9499e+006  3.7552e+003 158364 206049,206101,206075
 8.0000e+001 206328  5.0653e+002  7.9346e+002  7.6545e+002 157960 206178,206256,206204
 8.0000e+001 206305 -2.8981e+002 -3.3236e+002 -2.8283e+002 157960 206152,206256,206178
 8.0000e+001 206282 -9.4462e+002  5.2035e+002 -1.2237e+002 157960 206204,206256,206230
 8.0000e+001 206529 -1.6236e+006 -4.3389e+006  1.1019e+006 157648 206405,206457,206431
 8.0000e+001 206506 -2.6577e+006 -1.1731e+006  9.5480e+005 157648 206379,206457,206405
 8.0000e+001 206483 -2.7213e+006 -8.5138e+005  1.3572e+006 157648 206353,206457,206379
 8.0000e+001 206730 -5.8123e+004 -1.3793e+004  2.7116e+004 157208 206554,206606,206580
 8.0000e+001 206707 -2.7248e+004 -6.8567e+003  1.2310e+004 157208 206554,206632,206606
 8.0000e+001 206684 -8.4324e+004 -1.7402e+004  4.0101e+004 157208 206554,206658,206632
 8.0000e+001 206882  8.0464e+000 -5.5230e+002 -1.2730e+002 157010 206755,206807,206781
 8.0000e+001 206859 -6.3310e+002 -3.6555e+002 -1.2892e+002 157010 206755,206833,206807
 8.0000e+001 207034 -3.7292e+001 -8.5366e+000  1.8355e+002 156620 206907,206959,206933
 8.0000e+001 207011 -1.3026e+002 -4.7859e+002  2.8119e+002 156620 206907,206985,206959
 8.0000e+001 207186 -1.6696e+005 -1.0893e+006 -1.0061e+005 156330 207085,207137,207111
 8.0000e+001 207163 -5.3035e+005 -1.2683e+006 -1.1273e+006 156330 207059,207137,207085
 8.0000e+001 207387 -7.7506e+005 -1.1975e+006 -2.2742e+005 155890 207211,207289,207237
 8.0000e+001 207364 -1.4721e+006 -1.3983e+006 -7.3000e+005 155890 207211,207315,207289
 8.0000e+001 207341 -3.1293e+005 -8.0948e+005  4.3815e+004 155890 207237,207289,207263
 8.0000e+001 207588 -5.8662e+005 -1.9775e+007  7.4522e+006 155436 207438,207490,207464
 8.0000e+001 207565 -1.2396e+006 -1.3847e+007 -9.2809e+005 155436 207412,207490,207438
 8.0000e+001 207542 -2.5635e+006 -6.6100e+006 -1.1163e+006 155436 207412,207516,207490
 8.0000e+001 207789  1.6659e+006 -2.8922e+007 -1.9358e+006 155260 207639,207691,207665
 8.0000e+001 207766 -3.6753e+006 -8.8387e+006  4.4264e+006 155260 207613,207691,207639
 8.0000e+001 207743 -1.4641e+006 -6.5085e+006 -9.5736e+004 155260 207613,207717,207691
 8.0000e+001 207990  1.3768e+002  1.1690e+002  3.0311e+001 154920 207840,207918,207892
 8.0000e+001 207967  6.9503e+000  9.3619e+001  9.3848e+001 154920 207814,207918,207840
 8.0000e+001 207944 -4.3946e+002  1.8692e+002  6.0306e+001 154920 207840,207892,207866
 8.0000e+001 208191  2.1497e+003  4.6985e+002 -8.6358e+001 154630 208015,208093,208041
 8.0000e+001 208168  1.3752e+003  2.2487e+003  1.4163e+003 154630 208015,208119,208093
 8.0000e+001 208145  1.5072e+003  1.1034e+002  1.7783e+002 154630 208041,208093,208067
 8.0000e+001 208343 -1.0514e+002 -1.4906e+003  5.2932e+002 154240 208216,208268,208242
 8.0000e+001 208320 -1.8640e+002 -4.3622e+002 -5.4150e+002 154240 208216,208294,208268
 8.0000e+001 208495  6.3816e+005 -4.7307e+006 -1.1976e+006 153950 208394,208446,208420
 8.0000e+001 208472 -3.8443e+005 -1.9114e+006  7.1968e+005 153950 208368,208446,208394
 8.0000e+001 208647 -1.0760e+006 -5.8997e+005  1.7371e+006 153603 208520,208572,208546
 8.0000e+001 208624 -1.1463e+006 -1.4491e+006 -1.0588e+006 153603 208520,208598,208572
 8.0000e+001 208848 -1.0758e+006 -4.3362e+005  6.9102e+004 153149 208698,208776,208724
 8.0000e+001 208825 -2.5121e+006  1.0615e+005  1.7990e+005 153149 208672,208776,208698
 8.0000e+001 208802 -5.6067e+005 -2.4715e+005  3.7468e+005 153149 208724,208776,208750
 8.0000e+001 209000 -1.2782e+005 -1.5047e+006  7.9753e+004 152859 208873,208925,208899
 8.0000e+001 208977  5.7109e+005 -3.1176e+006  1.9653e+005 152859 208873,208951,208925
 8.0000e+001 209152  1.4614e+005 -2.3134e+006  4.5176e+004 152569 209051,209103,209077
 8.0000e+001 209129  1.6979e+005 -2.6041e+006 -1.1446e+005 152569 209025,209103,209051
 8.0000e+001 209304 -4.8705e+002  4.6545e+002 -1.1986e+002 152065 209177,209229,209203
 8.0000e+001 209281 -6.5865e+002 -3.8670e+002  1.6489e+002 152065 209177,209255,209229
 8.0000e+001 209456 -2.1080e+006 -2.0284e+006 -4.3484e+005 151775 209355,209407,209381
 8.0000e+001 209433 -1.7665e+006 -4.2476e+006 -4.0589e+005 151775 209329,209407,209355
 8.0000e+001 209608 -9.0387e+005 -3.8771e+006 -1.1638e+006 151371 209481,209533,209507
 8.0000e+001 209585  6.7853e+005 -6.9033e+006 -3.8814e+005 151371 209481,209559,209533
 8.0000e+001 209760 -1.3767e+003  7.9692e+002  8.0581e+002 150981 209659,209711,209685
 8.0000e+001 209737 -8.3423e+002  6.2940e+002  4.0292e+002 150981 209633,209711,209659
 8.0000e+001 209912  2.1889e+006 -2.9829e+007 -2.6545e+006 150619 209811,209863,209837
 8.0000e+001 209889 -2.7735e+006 -1.2316e+007  3.3625e+006 150619 209785,209863,209811
 8.0000e+001 210064 -2.3340e+004 -3.8936e+004  2.8978e+004 150279 209937,209989,209963
 8.0000e+001 210041 -2.0047e+004 -3.2435e+004  2.6511e+004 150279 209937,210015,209989
 8.0000e+001 210265 -3.1462e+006 -5.1206e+006 -1.9885e+005 149989 210115,210167,210141
 8.0000e+001 210242 -1.4527e+006 -6.0325e+006 -1.4008e+006 149989 210115,210193,210167
 8.0000e+001 210219 -7.8659e+005 -5.6333e+006 -9.3204e+005 149989 210089,210193,210115
 8.0000e+001 210417 -1.5257e+004 -1.2732e+004  2.9442e+004 149599 210316,210368,210342
 8.0000e+001 210394  2.5191e+004 -7.4391e+004  1.7277e+004 149599 210290,210368,210316
 8.0000e+001 210618 -3.2006e+006 -1.3174e+007  3.4969e+006 149095 210468,210520,210494
 8.0000e+001 210595 -2.9336e+006 -1.3049e+007  2.8920e+006 149095 210442,210520,210468
 8.0000e+001 210572 -1.3161e+006 -1.5249e+007  2.5817e+006 149095 210442,210546,210520
 8.0000e+001 210819 -6.8428e+002  1.0408e+003  6.5480e+001 148748 210695,210747,210721
 8.0000e+001 210796 -4.0546e+002  1.3090e+003  5.5197e+002 148748 210669,210747,210695
 8.0000e+001 210773 -1.2894e+003  8.4365e+002  2.1407e+002 148748 210643,210747,210669
 8.0000e+001 210971 -1.1510e+002  3.3235e+002 -5.8132e+002 148408 210870,210922,210896
 8.0000e+001 210948  7.0390e+002  3.1784e+002  2.9532e+001 148408 210844,210922,210870
 8.0000e+001 211123 -2.1072e+005 -1.7004e+006  4.5512e+005 148118 210996,211048,211022
 8.0000e+001 211100 -8.5565e+005 -1.6708e+006  1.0688e+006 148118 210996,211074,211048
 8.0000e+001 211275 -6.0966e+005 -1.2580e+006  7.0220e+005 147778 211148,211200,211174
 8.0000e+001 211252 -9.2684e+005 -2.4253e+006  1.5699e+006 147778 211148,211226,211200
 8.0000e+001 211427 -2.2371e+005 -6.5681e+004  1.0157e+005 147324 211326,211378,211352
 8.0000e+001 211404  2.9329e+004 -3.0407e+005  7.7927e+004 147324 211300,211378,211326
 8.0000e+001 211628 -2.1617e+006 -1.2576e+006  9.0788e+005 147012 211452,211504,211478
 8.0000e+001 211605 -2.1179e+006  8.8818e+005  1.2831e+006 147012 211452,211556,211504
 8.0000e+001 211582 -2.0514e+006 -3.5675e+005  1.7671e+006 147012 211504,211556,211530
 8.0000e+001 211829 -3.1860e+005 -1.2052e+006  5.3326e+005 146636 211679,211757,211731
 8.0000e+001 211806 -1.5611e+005 -1.1819e+006  5.8317e+005 146636 211653,211757,211679
 8.0000e+001 211783 -5.9700e+005 -1.5971e+006  1.0148e+006 146636 211679,211731,211705
 8.0000e+001 211981 -4.3235e+002 -8.3257e+001  1.5251e+002 146246 211880,211932,211906
 8.0000e+001 211958 -3.4384e+002 -3.4777e+002  2.1899e+002 146246 211854,211932,211880
 8.0000e+001 212133  1.8419e+003 -7.9519e+002 -8.1802e+002 145956 212006,212058,212032
 8.0000e+001 212110  5.1454e+002 -2.5571e+001 -8.6769e+002 145956 212006,212084,212058
 8.0000e+001 212285  1.0956e+003 -1.8814e+003 -1.6969e+002 145544 212184,212236,212210
 8.0000e+001 212262  8.5251e+002  3.5613e+002 -5.6674e+002 145544 212158,212236,212184
 8.0000e+001 212486 -6.8882e+005 -1.6057e+007  4.0919e+006 144990 212362,212414,212388
 8.0000e+001 212463  2.8151e+005 -1.3228e+007  5.7360e+006 144990 212310,212414,212362
 8.0000e+001 212440 -4.9745e+006 -2.9126e+006  2.1236e+006 144990 212310,212362,212336
 8.0000e+001 212638 -1.3509e+004 -5.6388e+004  1.9800e+004 144600 212537,212589,212563
 8.0000e+001 212615 -5.6728e+003 -3.7522e+004  1.1692e+004 144600 212511,212589,212537
 8.0000e+001 212839 -2.6444e+005 -1.6620e+006  4.3569e+005 144210 212689,212741,212715
 8.0000e+001 212816 -3.7337e+005 -1.8598e+006  7.2476e+005 144210 212663,212741,212689
 8.0000e+001 212793 -3.8636e+005 -1.9122e+006  7.4935e+005 144210 212663,212767,212741
 8.0000e+001 212991  4.6196e+002 -2.4506e+002  8.1023e+002 143920 212890,212942,212916
 8.0000e+001 212968 -2.0319e+003 -8.9200e+002 -8.0649e+002 143920 212864,212942,212890
 8.0000e+001 213143 -1.1797e+003  3.9690e+002 -3.0984e+002 143480 213016,213068,213042
 8.0000e+001 213120 -6.4862e+001 -2.8055e+002  4.3787e+002 143480 213016,213094,213068
 8.0000e+001 213295 -5.7434e+004 -2.9962e+005  1.3050e+005 142990 213194,213246,213220
 8.0000e+001 213272 -4.4048e+004 -1.9773e+005  6.3689e+004 142990 213168,213246,213194
 8.0000e+001 213447  2.1518e+005 -1.4632e+006  7.5547e+005 142600 213320,213372,213346
 8.0000e+001 213424 -3.0653e+005 -1.5203e+006  7.8020e+005 142600 213320,213398,213372
 8.0000e+001 213599 -3.3313e+003 -7.5737e+004  3.2840e+003 142260 213472,213524,213498
 8.0000e+001 213576 -1.3641e+004 -7.6917e+004  3.9865e+004 142260 213472,213550,213524
 8.0000e+001 213751 -4.7695e+004 -1.4793e+005 -7.9212e+004 141870 213624,213676,213650
 8.0000e+001 213728 -6.5666e+004 -1.5593e+005 -7.1552e+004 141870 213624,213702,213676
 8.0000e+001 213903 -1.7088e+006 -2.0073e+006 -1.8425e+006 141530 213776,213828,213802
 8.0000e+001 213880 -4.6937e+005 -2.3381e+006 -9.2371e+005 141530 213776,213854,213828
 8.0000e+001 214055 -4.9001e+006 -8.8770e+004  5.8888e+005 141218 213928,213980,213954
 8.0000e+001 214032 -2.9722e+006 -5.9915e+005  1.6811e+005 141218 213928,214006,213980
 8.0000e+001 214207  8.1691e+002  1.4241e+003 -1.8821e+003 140928 214080,214132,214106
 8.0000e+001 214184 -4.1153e+002  4.2886e+001  8.9526e+002 140928 214080,214158,214132
 8.0000e+001 214359 -6.2594e+003 -2.8154e+004 -1.1439e+003 140538 214232,214284,214258
 8.0000e+001 214336 -8.4125e+003 -1.2588e+005  5.0668e+004 140538 214232,214310,214284
 8.0000e+001 214560 -4.3215e+005 -4.9890e+006  1.1675e+006 140248 214384,214462,214410
 8.0000e+001 214537  3.1433e+004 -2.5608e+006  5.2363e+005 140248 214384,214488,214462
 8.0000e+001 214514 -3.8106e+005 -3.2189e+006 -4.6810e+004 140248 214410,214462,214436
 8.0000e+001 214712 -3.4245e+004 -1.3718e+005  7.6759e+004 140000 214611,214663,214637
 8.0000e+001 214689 -3.5035e+004 -1.5499e+005  8.0496e+004 140000 214585,214663,214611
 8.0000e+001 214913 -3.3179e+005 -2.2088e+006 -5.7217e+005 139596 214737,214815,214763
 8.0000e+001 214890 -2.8771e+005 -1.2179e+006  5.0339e+003 139596 214737,214841,214815
 8.0000e+001 214867  9.2471e+005 -7.5709e+006  8.1452e+005 139596 214763,214815,214789
 8.0000e+001 215016  2.3489e+003 -2.0453e+003  2.0075e+003 139420 214938,214990,214964
 8.0000e+001 215168 -3.9757e+006 -9.8701e+006  6.4251e+006 139130 215067,215119,215093
 8.0000e+001 215145 -2.1338e+006 -1.1255e+007  3.9229e+006 139130 215041,215119,215067
 8.0000e+001 215320 -2.4685e+006 -4.8019e+006  3.0175e+006 138790 215219,215271,215245
 8.0000e+001 215297 -2.1694e+006 -1.1289e+007  6.0662e+006 138790 215193,215271,215219
 8.0000e+001 215472 -5.6184e+004 -5.6375e+005  2.4070e+005 138514 215345,215397,215371
 8.0000e+001 215449 -6.6428e+004 -3.9427e+005  1.0032e+005 138514 215345,215423,215397
 8.0000e+001 215624 -3.1681e+005 -7.3179e+006  2.0137e+006 138174 215497,215549,215523
 8.0000e+001 215601 -4.1296e+005 -5.8577e+006  1.7544e+006 138174 215497,215575,215549
 8.0000e+001 215776 -5.5677e+004 -5.0504e+005 -1.8586e+005 137734 215649,215701,215675
 8.0000e+001 215753 -1.1260e+004 -5.3418e+005 -7.8192e+004 137734 215649,215727,215701
 8.0000e+001 215977  2.2868e+006 -9.2302e+006  1.0901e+006 137344 215801,215879,215827
 8.0000e+001 215954 -1.1272e+006 -1.8910e+006 -1.3693e+006 137344 215801,215905,215879
 8.0000e+001 215931  5.7985e+005 -1.3672e+007 -5.4888e+006 137344 215827,215879,215853
 8.0000e+001 216129 -5.5081e+005 -1.3644e+006  2.1935e+005 136940 216028,216080,216054
 8.0000e+001 216106 -5.1326e+005 -2.4655e+006  7.8717e+005 136940 216002,216080,216028
 8.0000e+001 216330 -8.5924e+005 -7.6403e+006  1.1084e+006 136600 216180,216232,216206
 8.0000e+001 216307 -1.3274e+006 -7.8286e+006  3.3945e+006 136600 216154,216232,216180
 8.0000e+001 216284 -1.0122e+006 -4.4850e+006  1.2870e+006 136600 216154,216258,216232
 8.0000e+001 216482  4.8756e+005 -4.9062e+006  1.2132e+006 136260 216381,216433,216407
 8.0000e+001 216459  6.5700e+003 -3.0685e+006  1.1697e+006 136260 216355,216433,216381
 8.0000e+001 216634 -7.5964e+004 -1.3688e+005  8.0773e+004 135970 216533,216585,216559
 8.0000e+001 216611 -4.5261e+004 -2.6541e+005  1.3724e+005 135970 216507,216585,216533
 8.0000e+001 216835 -1.6389e+005 -3.5868e+006  1.9355e+005 135608 216685,216763,216711
 8.0000e+001 216812  1.4076e+005 -3.9067e+006 -3.4503e+005 135608 216659,216763,216685
 8.0000e+001 216789 -3.7190e+004 -1.6899e+006  1.3110e+004 135608 216711,216763,216737
 8.0000e+001 217036 -4.8796e+005 -6.1557e+005  5.2055e+005 135312 216912,216964,216938
 8.0000e+001 217013 -4.7449e+005 -2.0590e+006  1.2105e+006 135312 216886,216964,216912
 8.0000e+001 216990  2.9984e+005 -3.9107e+006  8.5363e+005 135312 216860,216964,216886
 8.0000e+001 217237 -1.8985e+005 -1.2961e+006  4.3981e+005 134908 217061,217139,217113
 8.0000e+001 217214 -3.4369e+005 -1.3933e+006  7.4331e+005 134908 217061,217165,217139
 8.0000e+001 217191 -3.6016e+005 -1.6977e+006  6.4580e+005 134908 217061,217113,217087
 8.0000e+001 217438 -4.7782e+005 -1.2401e+007 -2.2253e+006 134568 217288,217366,217314
 8.0000e+001 217415 -1.2148e+006 -1.2584e+007 -2.4414e+006 134568 217262,217366,217288
 8.0000e+001 217392 -1.0232e+006 -1.5714e+007 -3.0996e+006 134568 217314,217366,217340
 8.0000e+001 217590 -8.5905e+004 -6.4484e+005  3.1601e+005 134106 217463,217515,217489
 8.0000e+001 217567 -7.7633e+004 -5.5044e+005  1.6154e+005 134106 217463,217541,217515
 8.0000e+001 217791  1.3923e+006  8.4863e+006  3.4342e+006 133816 217641,217693,217667
 8.0000e+001 217768 -1.9728e+006 -2.2246e+007 -6.6247e+006 133816 217641,217719,217693
 8.0000e+001 217745 -8.0888e+006 -2.0371e+006  4.0593e+006 133816 217615,217719,217641
 8.0000e+001 217992 -4.0926e+006 -5.3359e+006  5.3375e+006 133355 217842,217920,217894
 8.0000e+001 217969 -1.7325e+006 -9.5497e+006  3.9395e+006 133355 217816,217920,217842
 8.0000e+001 217946 -8.4603e+005 -3.0079e+006  5.4285e+005 133355 217842,217894,217868
 8.0000e+001 218193  1.3079e+005 -7.2075e+006  2.4882e+005 132851 218017,218095,218069
 8.0000e+001 218170 -5.6822e+006 -7.3018e+006  7.0511e+006 132851 218017,218121,218095
 8.0000e+001 218147 -1.7990e+006 -3.4020e+006 -9.4791e+005 132851 218017,218069,218043
 8.0000e+001 218345 -1.6583e+004 -9.1372e+004  2.9871e+004 132511 218244,218296,218270
 8.0000e+001 218322 -1.5371e+004 -2.5265e+005  7.2892e+004 132511 218218,218296,218244
 8.0000e+001 218497  2.1483e+006 -2.4022e+007  7.5950e+005 132235 218396,218448,218422
 8.0000e+001 218474  3.3493e+005 -9.4188e+006  1.3660e+006 132235 218370,218448,218396
 8.0000e+001 218698 -3.9751e+005 -7.9542e+006 -2.1190e+006 131945 218574,218626,218600
 8.0000e+001 218675 -1.6292e+006 -1.4758e+007 -1.5651e+006 131945 218522,218626,218574
 8.0000e+001 218652 -2.7509e+006 -6.4389e+006 -3.1429e+006 131945 218522,218574,218548
 8.0000e+001 218850 -4.4064e+005 -1.4626e+007  1.2173e+006 131655 218723,218775,218749
 8.0000e+001 218827  3.0665e+005 -1.1369e+007  7.1196e+005 131655 218723,218801,218775
 8.0000e+001 218953  3.8577e+002  1.0121e+002 -1.8160e+002 131215 218875,218927,218901
 8.0000e+001 219105 -1.1044e+005 -2.5077e+006 -1.1476e+005 130875 218978,219030,219004
 8.0000e+001 219082 -4.6030e+004 -1.1290e+006  3.4658e+004 130875 218978,219056,219030
 8.0000e+001 219306 -6.1849e+005 -1.5820e+006  2.8695e+005 130429 219156,219234,219208
 8.0000e+001 219283 -5.9529e+005 -1.2144e+006  3.8183e+005 130429 219130,219234,219156
 8.0000e+001 219260 -1.7476e+006 -1.8947e+006  1.1726e+006 130429 219156,219208,219182
 8.0000e+001 219507 -5.3251e+005 -1.7678e+006  8.1693e+005 130025 219383,219435,219409
 8.0000e+001 219484 -4.9625e+005 -2.1903e+006  1.0160e+006 130025 219331,219435,219383
 8.0000e+001 219461 -4.8410e+005 -1.4421e+006  6.6139e+005 130025 219331,219383,219357
 8.0000e+001 219659 -1.1204e-002 -8.0417e-001  9.4919e-002 129685 219558,219610,219584
 8.0000e+001 219636  2.5788e-002  1.8510e+000 -2.1848e-001 129685 219532,219610,219558
 8.0000e+001 219860 -3.4154e+005 -1.1440e+006  7.2800e+005 129395 219710,219788,219762
 8.0000e+001 219837 -2.4568e+005 -1.5699e+006  7.6261e+005 129395 219684,219788,219710
 8.0000e+001 219814 -1.9206e+005 -1.4502e+006  5.1582e+005 129395 219710,219762,219736
 8.0000e+001 220061  6.8869e+003 -1.1248e+005  5.8298e+004 128991 219937,219989,219963
 8.0000e+001 220038  4.0464e+003 -1.9808e+005  4.5221e+004 128991 219885,219989,219937
 8.0000e+001 220015 -9.3952e+003 -2.6017e+005  8.6381e+004 128991 219885,219937,219911
 8.0000e+001 220262 -4.5785e+004 -6.2640e+004  1.0536e+004 128701 220086,220164,220112
 8.0000e+001 220239 -1.9709e+004 -1.8665e+005  7.4897e+004 128701 220086,220190,220164
 8.0000e+001 220216 -5.3852e+003 -5.1811e+004  1.6383e+004 128701 220112,220164,220138
 8.0000e+001 220463 -3.4059e+006 -9.7235e+006  4.5929e+006 128297 220339,220391,220365
 8.0000e+001 220440 -2.1869e+006 -1.1201e+007  4.1730e+006 128297 220313,220391,220339
 8.0000e+001 220417 -1.3981e+006 -1.5339e+007 -6.6306e+006 128297 220287,220391,220313
 8.0000e+001 220615 -5.8776e-002 -2.1001e-002 -3.5133e-002 128007 220488,220540,220514
 8.0000e+001 220592  6.3940e-002  2.2846e-002  3.8220e-002 128007 220488,220566,220540
 8.0000e+001 220767 -1.7364e+005 -4.1138e+006  6.7233e+005 127567 220640,220692,220666
 8.0000e+001 220744 -3.3120e+005 -2.7297e+006  5.4243e+005 127567 220640,220718,220692
 8.0000e+001 220919 -8.4430e+005 -1.3375e+007 -1.4503e+006 127163 220792,220844,220818
 8.0000e+001 220896 -5.5054e+005 -1.6586e+007  2.8395e+006 127163 220792,220870,220844
 8.0000e+001 221071 -3.2999e+006 -3.5845e+006  3.3452e+006 126915 220970,221022,220996
 8.0000e+001 221048 -1.7042e+006 -7.0336e+006  2.7774e+006 126915 220944,221022,220970
 8.0000e+001 221272 -2.1465e+006 -5.6217e+006  3.9312e+006 126461 221122,221174,221148
 8.0000e+001 221249  1.6843e+005 -6.1469e+006  9.9523e+005 126461 221122,221200,221174
 8.0000e+001 221226 -1.5710e+006 -3.1729e+006  2.2338e+006 126461 221096,221200,221122
 8.0000e+001 221375  9.2630e+000 -6.3484e+000  3.0822e-001 126213 221297,221349,221323
 8.0000e+001 221478  4.1492e-313  2.4775e-312 -2.9258e-312 125766 221400,221452,221426
 8.0000e+001 221679 -1.5594e+004 -1.1958e+005  3.5838e+004 125212 221503,221555,221529
 8.0000e+001 221656 -8.4523e+003 -1.0590e+005  2.7624e+004 125212 221503,221581,221555
 8.0000e+001 221633 -2.3975e+004 -3.1746e+005  1.4054e+005 125212 221503,221607,221581
 8.0000e+001 221929 -3.7900e+002  1.4600e+003  8.0402e+002 124872 221782,221834,221808
 8.0000e+001 221906  8.0131e+002  7.8537e+002 -4.3995e+002 124872 221756,221834,221782
 8.0000e+001 221883  1.2209e+003  9.9670e+002  1.4190e+002 124872 221704,221834,221756
 8.0000e+001 221860  4.9823e+001 -5.4177e+002  1.4068e+003 124872 221704,221756,221730
 8.0000e+001 222130 -1.1522e+006 -6.5875e+006 -1.2787e+005 124582 221980,222058,222006
 8.0000e+001 222107 -2.5909e+006 -5.5118e+006  6.9636e+005 124582 221954,222058,221980
 8.0000e+001 222084 -2.3681e+006 -6.6406e+006 -6.8786e+005 124582 222006,222058,222032
 8.0000e+001 222282 -2.2896e+006 -5.0093e+006 -4.8452e+005 124192 222181,222233,222207
 8.0000e+001 222259 -3.6206e+005 -3.9882e+006  3.1205e+005 124192 222155,222233,222181
 8.0000e+001 222483 -1.6810e+005 -3.2999e+004 -8.7371e+003 123702 222333,222385,222359
 8.0000e+001 222460 -1.2465e+004 -5.3260e+003  8.4608e+002 123702 222333,222411,222385
 8.0000e+001 222437 -1.4184e+004 -1.8638e+003 -3.2223e+003 123702 222307,222411,222333
 8.0000e+001 222635  6.9983e+002 -4.5892e+002  1.0290e+001 123312 222508,222560,222534
 8.0000e+001 222612  6.5444e+002 -4.5187e+002  2.9784e+001 123312 222508,222586,222560
 8.0000e+001 222787 -2.0874e+001  6.5702e-001 -2.0206e+001 122858 222686,222738,222712
 8.0000e+001 222764 -6.9271e+000  5.5417e-001  8.6138e-002 122858 222660,222738,222686
 8.0000e+001 222939 -1.4040e+004 -3.4712e+005 -1.1563e+003 122568 222812,222864,222838
 8.0000e+001 222916  2.2347e+004 -2.0180e+005 -8.3650e+003 122568 222812,222890,222864
 8.0000e+001 223091 -3.4178e+005 -1.0189e+005  1.3555e+005 122392 222964,223016,222990
 8.0000e+001 223068 -1.9868e+005 -2.9679e+004  7.4497e+004 122392 222964,223042,223016
 8.0000e+001 223292 -3.7848e+005 -1.1191e+006  2.7709e+005 121852 223142,223220,223194
 8.0000e+001 223269 -2.0431e+006 -4.4733e+005  3.9661e+005 121852 223116,223220,223142
 8.0000e+001 223246 -1.2515e+006 -1.0705e+006 -1.0632e+006 121852 223142,223194,223168
 8.0000e+001 223493 -1.2652e+006 -4.6861e+005  7.8893e+005 121406 223343,223395,223369
 8.0000e+001 223470 -1.3357e+006 -4.8251e+005  7.9073e+005 121406 223343,223421,223395
 8.0000e+001 223447 -5.2610e+005 -6.9695e+005  4.9788e+005 121406 223317,223421,223343
 8.0000e+001 223645  2.7385e+005 -1.4832e+007  3.1763e+006 121002 223544,223596,223570
 8.0000e+001 223622 -1.3321e+006 -1.1759e+007  3.0302e+006 121002 223518,223596,223544
 8.0000e+001 223846  6.1533e+002 -4.8516e+002  8.0987e+002 120662 223670,223748,223696
 8.0000e+001 223823  1.0193e+003 -1.1893e+002  1.5685e+002 120662 223670,223774,223748
 8.0000e+001 223800 -5.9712e+002  3.0638e+002  6.5056e+002 120662 223696,223748,223722
 8.0000e+001 224047  2.4951e+002  1.9192e+002  4.1304e+002 120222 223897,223949,223923
 8.0000e+001 224024  5.3105e+002 -3.7499e+002 -6.5766e+001 120222 223871,223949,223897
 8.0000e+001 224001  8.0241e+002 -1.0143e+003  1.8709e+002 120222 223871,223975,223949
 8.0000e+001 224248 -1.2152e+003 -1.8073e+003 -4.0475e+002 119875 224124,224176,224150
 8.0000e+001 224225 -5.0318e+003  1.7258e+003 -1.4101e+003 119875 224098,224176,224124
 8.0000e+001 224202 -2.7764e+003  4.7925e+003  1.8280e+003 119875 224072,224176,224098
 8.0000e+001 224449 -4.5818e+001  1.4664e+002 -8.7438e+001 119677 224325,224377,224351
 8.0000e+001 224426 -2.2484e+002 -5.5356e+002 -5.8783e+002 119677 224299,224377,224325
 8.0000e+001 224403  6.0588e+002 -8.0759e+002  9.3827e+001 119677 224273,224377,224299
 8.0000e+001 224552 -1.7030e+002  1.4880e+002 -4.1035e+002 119273 224474,224526,224500
 8.0000e+001 224704 -3.8902e+004 -2.4064e+005  1.0122e+005 118983 224603,224655,224629
 8.0000e+001 224681 -4.4232e+004 -2.3584e+005  1.0389e+005 118983 224577,224655,224603
 8.0000e+001 224856 -3.8538e+005  7.6652e+003  3.7012e+001 118529 224755,224807,224781
 8.0000e+001 224833  4.2104e+004 -4.7198e+005  1.3160e+005 118529 224729,224807,224755
 8.0000e+001 225008  3.2019e+002 -2.2044e+002 -2.9825e+002 118353 224881,224933,224907
 8.0000e+001 224985 -1.5981e+002  4.1084e+002  1.0535e+002 118353 224881,224959,224933
 8.0000e+001 225209 -1.4095e+006 -5.6498e+006 -1.4933e+006 117949 225059,225137,225111
 8.0000e+001 225186 -2.8062e+005 -3.8846e+006  9.6163e+005 117949 225033,225137,225059
 8.0000e+001 225163  8.4394e+005 -1.1624e+007  1.5784e+006 117949 225059,225111,225085
 8.0000e+001 225410  1.2384e+005 -8.3607e+006  5.5998e+005 117559 225260,225338,225312
 8.0000e+001 225387 -2.7502e+006 -9.0444e+006  5.0128e+005 117559 225234,225338,225260
 8.0000e+001 225364 -6.7881e+005 -6.2553e+006 -2.0635e+006 117559 225260,225312,225286
 8.0000e+001 225611 -1.7483e+006 -1.2544e+007 -4.0716e+006 117361 225461,225513,225487
 8.0000e+001 225588 -3.0382e+006 -1.3904e+007  2.0453e+006 117361 225461,225539,225513
 8.0000e+001 225565 -8.0122e+005 -1.4974e+007  1.4358e+006 117361 225435,225539,225461
 8.0000e+001 225812  5.3155e+005 -1.0379e+007 -5.1552e+005 116900 225636,225714,225662
 8.0000e+001 225789 -2.9551e+006 -3.2809e+006 -1.3274e+006 116900 225636,225740,225714
 8.0000e+001 225766 -2.1447e+002 -1.0515e+007 -2.1337e+004 116900 225662,225714,225688
 8.0000e+001 225964 -7.1220e+004 -7.5515e+006 -2.0238e+004 116560 225837,225889,225863
 8.0000e+001 225941  3.1556e+005 -8.5870e+006  1.7036e+005 116560 225837,225915,225889
 8.0000e+001 226165 -2.8972e+003  5.8000e+002 -1.2482e+003 116106 226015,226093,226041
 8.0000e+001 226142  1.0997e+003  1.1217e+002 -5.7048e+001 116106 225989,226093,226015
 8.0000e+001 226119 -3.9561e+002  1.1722e+003 -1.1338e+003 116106 226041,226093,226067
 8.0000e+001 226268 -1.9809e+006 -5.1652e+006  1.4200e+006 115716 226190,226242,226216
 8.0000e+001 226420 -1.4804e+005 -1.3223e+007  2.3433e+006 115376 226293,226345,226319
 8.0000e+001 226397 -7.1572e+005 -1.4529e+007  4.5499e+006 115376 226293,226371,226345
 8.0000e+001 226621 -1.0407e+006 -2.8791e+006  7.0974e+005 114972 226497,226549,226523
 8.0000e+001 226598 -5.2706e+005 -1.4715e+007 -2.8324e+005 114972 226445,226549,226497
 8.0000e+001 226575  4.8700e+005 -7.6484e+006  9.9720e+005 114972 226445,226497,226471
 8.0000e+001 226773 -1.3544e+006 -4.6036e+006 -1.7030e+006 114670 226646,226698,226672
 8.0000e+001 226750  7.0570e+005 -1.0205e+007  1.1338e+006 114670 226646,226724,226698
 8.0000e+001 226974  7.7352e+004 -3.6614e+006 -5.9760e+005 114082 226798,226850,226824
 8.0000e+001 226951  2.0904e+005 -4.9084e+006 -1.5216e+005 114082 226798,226902,226850
 8.0000e+001 226928  4.7568e+004 -6.7773e+006 -6.1050e+005 114082 226850,226902,226876
 8.0000e+001 227175 -9.5408e+005 -6.7141e+006 -3.4902e+006 113678 226999,227051,227025
 8.0000e+001 227152 -1.8065e+006 -9.5706e+006 -4.1720e+006 113678 226999,227077,227051
 8.0000e+001 227129 -3.2603e+006 -5.0529e+006 -3.3536e+006 113678 226999,227103,227077
 8.0000e+001 227425 -3.1304e+006 -7.0167e+006 -7.1152e+006 113274 227226,227278,227252
 8.0000e+001 227402  1.4202e+005 -6.7772e+006 -1.2741e+006 113274 227226,227330,227278
 8.0000e+001 227379 -1.9353e+006 -2.8246e+006 -7.2612e+005 113274 227200,227330,227226
 8.0000e+001 227356 -1.0492e+006 -6.9601e+005 -9.2371e+005 113274 227278,227330,227304
 8.0000e+001 227626 -1.6750e+006 -4.4178e+006 -3.9770e+006 112934 227502,227554,227528
 8.0000e+001 227603  9.6337e+005 -3.8030e+006 -4.7170e+005 112934 227450,227554,227502
 8.0000e+001 227580 -2.4829e+006 -5.6568e+005  1.3002e+006 112934 227450,227502,227476
 8.0000e+001 227876 -1.7010e+005 -2.0050e+006 -1.7878e+005 112437 227677,227755,227703
 8.0000e+001 227853 -1.2862e+006 -2.4469e+006  1.6606e+006 112437 227677,227781,227755
 8.0000e+001 227830 -2.5502e+005 -9.6722e+005  4.0685e+005 112437 227703,227755,227729
 8.0000e+001 227807 -2.4602e+005 -9.3496e+006 -6.5824e+005 112437 227651,227781,227677
 8.0000e+001 228126 -3.3217e+005 -5.3376e+006 -4.8930e+005 112041 227927,228005,227953
 8.0000e+001 228103 -5.2449e+005 -5.7102e+006 -7.2356e+005 112041 227927,228031,228005
 8.0000e+001 228080 -1.8462e+005 -6.2313e+006 -4.0515e+005 112041 227953,228005,227979
 8.0000e+001 228057 -1.0810e+006 -4.4479e+006 -1.0898e+006 112041 227901,228031,227927
 8.0000e+001 228327 -3.0697e+006 -4.0492e+006  1.1709e+005 111693 228151,228203,228177
 8.0000e+001 228304 -6.4512e+004 -2.7496e+006 -1.7931e+006 111693 228151,228229,228203
 8.0000e+001 228281  9.6353e+005 -7.2721e+006  1.5490e+006 111693 228151,228255,228229
 8.0000e+001 228479 -1.4578e+006 -7.0463e+005 -1.3976e+006 111253 228352,228404,228378
 8.0000e+001 228456 -9.2424e+005 -9.8946e+004  5.8096e+004 111253 228352,228430,228404
 8.0000e+001 228582 -1.9007e+002  1.5127e+002  8.1485e+000 110906 228504,228556,228530
 8.0000e+001 228783 -1.7401e+004 -1.9349e+006 -5.6776e+004 110416 228633,228711,228659
 8.0000e+001 228760  1.9434e+004 -1.7678e+006 -6.3457e+004 110416 228607,228711,228633
 8.0000e+001 228737  4.7892e+004 -2.2169e+006 -1.0292e+005 110416 228659,228711,228685
 8.0000e+001 228935 -3.9702e+005 -4.7027e+006 -1.8922e+006 110012 228808,228860,228834
 8.0000e+001 228912 -1.9446e+006 -8.6714e+006 -3.0632e+006 110012 228808,228886,228860
 8.0000e+001 229087 -2.7053e+006 -3.4946e+006 -2.4114e+006 109672 228960,229012,228986
 8.0000e+001 229064  6.0211e+005 -8.0004e+006 -1.3877e+006 109672 228960,229038,229012
 8.0000e+001 229190 -1.5079e+002  4.6214e+002  1.1453e+002 109332 229112,229164,229138
 8.0000e+001 229391 -4.7075e+004 -7.9399e+004  2.7292e+004 109156 229267,229319,229293
 8.0000e+001 229368 -1.0933e+005 -7.1391e+005  8.8780e+004 109156 229215,229319,229267
 8.0000e+001 229345  5.9883e+003 -1.1297e+005  1.2972e+005 109156 229215,229267,229241
 8.0000e+001 229543  9.0340e+005 -1.0182e+007  1.1689e+006 108752 229416,229468,229442
 8.0000e+001 229520 -4.9812e+005 -5.1549e+006 -4.9766e+005 108752 229416,229494,229468
 8.0000e+001 229744 -1.9541e+005 -5.9394e+006  1.1537e+004 108198 229594,229646,229620
 8.0000e+001 229721 -9.8663e+004 -5.9180e+006  4.9149e+004 108198 229594,229672,229646
 8.0000e+001 229698 -3.8718e+005 -6.5676e+006 -3.5071e+005 108198 229568,229672,229594
 8.0000e+001 229847 -1.4107e+004 -9.3250e+005 -1.6879e+005 107758 229769,229821,229795
 8.0000e+001 230048 -9.6411e+005 -3.1960e+006 -5.4939e+005 107468 229898,229950,229924
 8.0000e+001 230025 -7.6095e+005 -2.5689e+006  6.3283e+005 107468 229872,229950,229898
 8.0000e+001 230002 -1.5330e+006 -2.0528e+006  1.2220e+005 107468 229872,229976,229950
 8.0000e+001 230298  1.6633e+005 -1.5919e+006  8.1090e+005 107121 230099,230203,230177
 8.0000e+001 230275 -6.4910e+005 -1.5972e+006  1.9383e+005 107121 230073,230203,230099
 8.0000e+001 230252  8.4235e+005 -2.2006e+006 -5.7861e+005 107121 230099,230177,230151
 8.0000e+001 230229 -2.7481e+005 -2.1659e+006 -7.7104e+005 107121 230099,230151,230125
 8.0000e+001 230450 -2.7247e+005 -6.5612e+005  1.3529e+005 106823 230349,230401,230375
 8.0000e+001 230427 -4.0699e+003 -1.4331e+006  3.5209e+003 106823 230323,230401,230349
 8.0000e+001 230602 -4.8183e+006 -8.3140e+006 -8.8573e+006 106533 230501,230553,230527
 8.0000e+001 230579  2.5603e+006 -1.4621e+007  5.0424e+006 106533 230475,230553,230501
 8.0000e+001 230803 -9.4903e+004 -2.2975e+006 -5.1890e+004 106029 230679,230731,230705
 8.0000e+001 230780  5.8910e+004 -1.6746e+006 -3.8069e+004 106029 230653,230731,230679
 8.0000e+001 230757 -6.3880e+003 -2.1126e+006 -1.2544e+005 106029 230627,230731,230653
 8.0000e+001 231004 -2.0599e+005 -3.1372e+006  2.3099e+005 105689 230854,230906,230880
 8.0000e+001 230981  2.3226e+005 -3.7566e+006 -4.7583e+005 105689 230828,230906,230854
 8.0000e+001 230958 -7.3857e+005 -2.7399e+006 -1.2968e+006 105689 230828,230932,230906
 8.0000e+001 231156  2.1239e+005 -7.6853e+006 -2.2946e+005 105377 231055,231107,231081
 8.0000e+001 231133 -1.5505e+005 -5.8930e+006  2.8164e+005 105377 231029,231107,231055
 8.0000e+001 231406 -1.0023e+006 -7.3196e+006 -1.1840e+006 104858 231207,231259,231233
 8.0000e+001 231383 -1.7707e+006 -7.0967e+006 -1.6941e+006 104858 231207,231311,231259
 8.0000e+001 231360 -1.0410e+006 -8.6691e+006 -2.3912e+006 104858 231259,231311,231285
 8.0000e+001 231337 -8.5125e+005 -8.5354e+006 -1.9265e+006 104858 231181,231311,231207
 8.0000e+001 231558 -7.7103e+005 -1.8515e+007  7.9558e+005 104418 231457,231509,231483
 8.0000e+001 231535 -3.9529e+006 -1.8496e+007 -8.4557e+006 104418 231431,231509,231457
 8.0000e+001 231710 -3.1953e+006 -6.3366e+005 -1.7825e+005 103978 231583,231635,231609
 8.0000e+001 231687 -1.6120e+006 -9.6730e+005 -1.0480e+006 103978 231583,231661,231635
 8.0000e+001 231862 -1.3423e+006 -9.3447e+006 -1.1890e+006 103588 231761,231813,231787
 8.0000e+001 231839  1.4991e+005 -4.0836e+006 -2.8294e+005 103588 231735,231813,231761
 8.0000e+001 232014 -1.0188e+006 -8.0378e+006 -3.1741e+006 103248 231887,231939,231913
 8.0000e+001 231991 -2.2567e+006 -1.3278e+007 -5.0921e+006 103248 231887,231965,231939
 8.0000e+001 232215 -9.1908e+003 -1.2412e+004 -2.8438e+003 102844 232039,232117,232065
 8.0000e+001 232192 -7.4686e+003 -1.6343e+003 -1.8863e+003 102844 232039,232143,232117
 8.0000e+001 232169 -2.1630e+004 -1.4833e+004 -8.7310e+002 102844 232065,232117,232091
 8.0000e+001 232416 -2.8465e+006 -8.0185e+006 -3.7913e+006 102554 232240,232318,232292
 8.0000e+001 232393  5.9915e+005 -1.3169e+007 -6.4677e+005 102554 232240,232344,232318
 8.0000e+001 232370 -4.0467e+006 -2.5150e+006 -7.6145e+005 102554 232240,232292,232266
 8.0000e+001 232568 -4.6205e+004 -3.5119e+006  2.5629e+005 102100 232441,232493,232467
 8.0000e+001 232545  3.9611e+004 -3.5691e+006  5.4717e+005 102100 232441,232519,232493
 8.0000e+001 232769 -2.0901e+005 -2.2223e+006  4.5109e+005 101596 232645,232697,232671
 8.0000e+001 232746  5.9805e+004 -1.2227e+006  2.5434e+005 101596 232593,232697,232645
 8.0000e+001 232723 -8.7653e+004 -2.1373e+006  4.3962e+005 101596 232593,232645,232619
 8.0000e+001 232921 -1.7820e+005 -7.0769e+004  1.6830e+004 101420 232794,232846,232820
 8.0000e+001 232898 -1.9641e+005 -2.5312e+005  6.2021e+003 101420 232794,232872,232846
 8.0000e+001 233073 -1.3367e+006 -2.4309e+006 -4.5118e+005 101023 232946,232998,232972
 8.0000e+001 233050  4.0101e+005 -5.4901e+006  1.9452e+006 101023 232946,233024,232998
 8.0000e+001 233225  1.9744e+003 -2.2645e+004 -1.5554e+002 100661 233098,233150,233124
 8.0000e+001 233202 -3.2445e+003  9.8553e+003 -2.8532e+003 100661 233098,233176,233150
 8.0000e+001 233426 -1.5811e+006 -6.8862e+006 -2.2989e+006 100265 233276,233328,233302
 8.0000e+001 233403 -1.2016e+006 -6.3921e+006 -1.1671e+006 100265 233276,233354,233328
 8.0000e+001 233380 -1.2629e+006 -6.7184e+006 -1.2604e+006 100265 233250,233354,233276
 8.0000e+001 233578 -7.6636e+003 -2.1642e+006  1.3049e+005 100032 233451,233503,233477
 8.0000e+001 233555 -2.6433e+005 -2.1725e+006  4.9461e+005 100032 233451,233529,233503
 8.0000e+001 233681 -2.0288e+006  4.7278e+004 -1.2177e+005 99742 233603,233655,233629
 8.0000e+001 233784 -6.2589e+005 -1.6575e+006  3.9011e+005 99402 233706,233758,233732
 8.0000e+001 233936 -6.8859e+005 -1.6143e+006  6.8120e+005 99062 233835,233887,233861
 8.0000e+001 233913 -7.7153e+005 -1.9567e+006  7.2272e+005 99062 233809,233887,233835
 8.0000e+001 234088 -6.2899e+005 -1.1905e+006  4.5050e+005 98772 233987,234039,234013
 8.0000e+001 234065 -1.8016e+005 -1.1183e+006  4.0124e+005 98772 233961,234039,233987
 8.0000e+001 234240 -8.0858e+003 -9.9958e+004  2.7052e+004 98160 234139,234191,234165
 8.0000e+001 234217 -9.8409e+003 -1.0782e+005  2.6415e+004 98160 234113,234191,234139
 8.0000e+001 234441  5.3274e+002  2.4737e+002  1.7769e+002 97820 234317,234369,234343
 8.0000e+001 234418  5.7430e+002  2.5826e+002 -5.0728e+001 97820 234291,234369,234317
 8.0000e+001 234395  2.3018e+002 -4.7162e+002 -3.1626e+002 97820 234265,234369,234291
 8.0000e+001 234593 -2.1319e+005 -1.0892e+006  1.1240e+005 97366 234466,234518,234492
 8.0000e+001 234570 -2.2382e+005 -1.6675e+006  1.7427e+005 97366 234466,234544,234518
 8.0000e+001 234794 -5.1801e+005 -6.8022e+005 -4.5576e+005 96976 234618,234670,234644
 8.0000e+001 234771 -1.1612e+005 -1.3826e+006 -3.8675e+005 96976 234618,234722,234670
 8.0000e+001 234748 -1.7932e+005 -1.3047e+006 -5.1693e+005 96976 234670,234722,234696
 8.0000e+001 234946 -4.5409e+005 -7.5613e+005  2.8487e+005 96568 234845,234897,234871
 8.0000e+001 234923 -3.4776e+005 -7.1993e+005  6.1256e+005 96568 234819,234897,234845
 8.0000e+001 235196 -7.1427e+003 -1.0371e+006 -3.1379e+004 96216 234997,235075,235049
 8.0000e+001 235173 -7.3103e+003 -1.5466e+006  1.7957e+005 96216 234997,235101,235075
 8.0000e+001 235150 -2.3917e+005 -2.0368e+006  1.0715e+004 96216 234997,235049,235023
 8.0000e+001 235127 -4.9462e+004 -1.5138e+006  2.7213e+005 96216 234971,235101,234997
 8.0000e+001 235348 -1.2985e+006 -1.9049e+006 -8.3569e+005 95863 235247,235299,235273
 8.0000e+001 235325 -1.0159e+006 -1.2827e+006 -5.7879e+005 95863 235221,235299,235247
 8.0000e+001 235500 -8.1710e+004 -6.5827e+005  1.1776e+005 95339 235373,235425,235399
 8.0000e+001 235477 -1.7602e+005 -8.8862e+005  1.1039e+006 95339 235373,235451,235425
 8.0000e+001 235701  1.5986e+005 -2.2114e+006  4.3822e+005 95023 235525,235577,235551
 8.0000e+001 235678 -1.8160e+004 -1.5174e+006 -1.3297e+005 95023 235525,235629,235577
 8.0000e+001 235655 -3.5814e+005 -1.3965e+006 -2.4725e+004 95023 235577,235629,235603
 8.0000e+001 235853  9.4503e+004 -1.3211e+007 -4.1845e+005 94671 235726,235778,235752
 8.0000e+001 235830  2.2500e+005 -1.4369e+007  4.5081e+005 94671 235726,235804,235778
 8.0000e+001 236005 -2.0927e+006 -6.9414e+006  1.0409e+006 94261 235904,235956,235930
 8.0000e+001 235982 -9.2153e+005 -1.2030e+007 -4.0221e+006 94261 235878,235956,235904
 8.0000e+001 236206 -1.6399e+006 -6.8662e+005  9.5972e+005 93853 236056,236134,236082
 8.0000e+001 236183 -2.1720e+006 -8.2603e+005  8.2270e+005 93853 236030,236134,236056
 8.0000e+001 236160 -1.3650e+006 -9.1688e+005  9.9991e+005 93853 236082,236134,236108
 8.0000e+001 236407 -1.5728e+006 -3.6014e+006  6.5067e+005 93557 236257,236309,236283
 8.0000e+001 236384 -2.8326e+006 -4.5618e+006 -2.5077e+006 93557 236231,236309,236257
 8.0000e+001 236361  1.4320e+006 -1.9010e+007  2.0985e+006 93557 236231,236335,236309
 8.0000e+001 236559 -2.9160e+003 -2.5619e+004  9.7821e+003 93149 236432,236484,236458
 8.0000e+001 236536 -2.2771e+003 -2.2717e+004  9.3709e+003 93149 236432,236510,236484
 8.0000e+001 236711 -1.9657e+005 -2.4581e+005  2.1616e+005 92853 236584,236636,236610
 8.0000e+001 236688 -1.1900e+005 -2.1573e+005  1.7928e+005 92853 236584,236662,236636
 8.0000e+001 236912 -1.4933e+005 -1.1115e+006  3.4679e+005 92501 236736,236788,236762
 8.0000e+001 236889 -3.0647e+005 -9.5060e+005  2.7085e+005 92501 236736,236840,236788
 8.0000e+001 236866 -2.0123e+005 -8.5746e+005  3.6507e+004 92501 236788,236840,236814
 8.0000e+001 237113 -8.3249e+004 -4.2471e+006  1.5794e+005 92291 236963,237041,237015
 8.0000e+001 237090  1.8019e+005 -2.4087e+006  9.9747e+004 92291 236937,237041,236963
 8.0000e+001 237067 -1.9572e+005 -3.8675e+006  8.6700e+005 92291 236963,237015,236989
 8.0000e+001 237265  6.8657e+004 -4.5369e+005 -3.5359e+005 91871 237138,237190,237164
 8.0000e+001 237242 -3.1130e+005 -1.4385e+006 -6.3147e+005 91871 237138,237216,237190
 8.0000e+001 237368 -2.2148e+004 -2.1489e+006 -6.7876e+004 91581 237290,237342,237316
 8.0000e+001 237520 -8.8016e+004 -1.7317e+005  1.1396e+005 91184 237419,237471,237445
 8.0000e+001 237497 -2.0596e+005 -6.2795e+004  2.1868e+005 91184 237393,237471,237419
 8.0000e+001 237672 -4.0128e+004 -8.6800e+005 -1.8879e+005 90894 237545,237597,237571
 8.0000e+001 237649  9.4845e+004 -2.3772e+006  5.0814e+005 90894 237545,237623,237597
 8.0000e+001 237873 -3.4418e+005 -2.2069e+006  7.8559e+005 90490 237749,237801,237775
 8.0000e+001 237850 -8.4372e+004 -2.9553e+006  1.0646e+006 90490 237723,237801,237749
 8.0000e+001 237827 -5.1950e+005 -3.0537e+006  8.7089e+004 90490 237697,237801,237723
 8.0000e+001 238074 -5.4335e+005 -5.1338e+006  3.4546e+005 90100 237898,237976,237950
 8.0000e+001 238051 -2.1058e+006 -5.0630e+006 -2.0184e+005 90100 237898,238002,237976
 8.0000e+001 238028 -6.8677e+005 -2.2102e+006  5.0910e+005 90100 237898,237950,237924
 8.0000e+001 238275 -1.0889e+005 -7.7002e+005  1.6406e+005 89696 238125,238177,238151
 8.0000e+001 238252 -5.9591e+005 -5.1120e+005 -4.7662e+005 89696 238099,238177,238125
 8.0000e+001 238229 -7.5948e+005 -2.3992e+006 -2.5289e+005 89696 238099,238203,238177
 8.0000e+001 238427  2.2786e+001  6.6272e+001 -4.7759e+002 89206 238326,238378,238352
 8.0000e+001 238404  1.8011e+002  1.6444e+002 -3.7295e+002 89206 238300,238378,238326
 8.0000e+001 238579 -6.5877e+004 -1.7730e+006  2.8009e+004 88908 238452,238504,238478
 8.0000e+001 238556 -1.2632e+005 -1.9235e+006  3.1504e+005 88908 238452,238530,238504
 8.0000e+001 238682 -4.2905e+002  1.5186e+002  1.7873e+001 88568 238604,238656,238630
 8.0000e+001 238883 -2.0851e+005 -3.6955e+006  1.3488e+006 88278 238733,238811,238785
 8.0000e+001 238860 -5.4607e+005 -2.7788e+006  1.2783e+006 88278 238707,238811,238733
 8.0000e+001 238837 -1.2797e+005 -3.9659e+006  7.1245e+005 88278 238733,238785,238759
 8.0000e+001 239035 -2.4723e+006 -4.3885e+006 -7.3581e+005 87988 238908,238960,238934
 8.0000e+001 239012 -2.6524e+006 -2.3282e+006 -3.3032e+004 87988 238908,238986,238960
 8.0000e+001 239138 -8.3837e+005 -1.6961e+006 -5.5010e+005 87648 239060,239112,239086
 8.0000e+001 239339 -3.3746e+006 -3.5598e+006 -3.2644e+006 87358 239163,239215,239189
 8.0000e+001 239316 -3.3881e+006 -1.3893e+006 -3.7236e+005 87358 239163,239241,239215
 8.0000e+001 239293 -1.3289e+006 -1.3925e+006 -8.3250e+005 87358 239163,239267,239241
 8.0000e+001 239589 -1.5916e+003 -1.4948e+005  3.3000e+004 86961 239390,239468,239416
 8.0000e+001 239566 -1.6205e+005 -8.4981e+004  1.9301e+005 86961 239390,239494,239468
 8.0000e+001 239543 -2.4071e+004 -4.6052e+003  1.0915e+004 86961 239416,239468,239442
 8.0000e+001 239520 -1.8800e+005 -8.3684e+004  1.8553e+005 86961 239364,239494,239390
 8.0000e+001 239741 -1.2931e+006 -9.8261e+005 -5.8059e+004 86621 239640,239692,239666
 8.0000e+001 239718 -3.2417e+005 -3.0094e+006 -1.4652e+006 86621 239614,239692,239640
 8.0000e+001 239893 -6.7733e+005 -3.0852e+006  9.2338e+005 86217 239792,239844,239818
 8.0000e+001 239870 -5.7841e+005 -4.1462e+006  1.3976e+006 86217 239766,239844,239792
 8.0000e+001 240045 -7.4330e+005 -2.9342e+006  7.8912e+005 85827 239918,239970,239944
 8.0000e+001 240022 -2.4097e+005 -2.7844e+006  1.8921e+005 85827 239918,239996,239970
 8.0000e+001 240197 -8.7333e+005 -4.7798e+006  6.0591e+005 85437 240096,240148,240122
 8.0000e+001 240174 -7.2789e+005 -7.6740e+005  3.8354e+005 85437 240070,240148,240096
 8.0000e+001 240349  1.4554e+004 -3.7894e+005  1.0770e+005 85147 240222,240274,240248
 8.0000e+001 240326 -2.2018e+004 -2.4234e+005 -3.7057e+004 85147 240222,240300,240274
 8.0000e+001 240501 -8.4384e+004 -4.1996e+005 -5.1368e+004 84807 240374,240426,240400
 8.0000e+001 240478 -6.6660e+005 -1.2214e+006  7.2838e+005 84807 240374,240452,240426
 8.0000e+001 240653  2.7488e+002 -1.5271e+000 -6.6992e+002 84303 240552,240604,240578
 8.0000e+001 240630  4.8752e+002 -1.3830e+003  3.4838e+002 84303 240526,240604,240552
 8.0000e+001 240854 -9.3427e+005 -9.1473e+006 -5.1071e+006 83929 240704,240756,240730
 8.0000e+001 240831  1.4305e+006 -6.8485e+006  2.5237e+006 83929 240704,240782,240756
 8.0000e+001 240808 -3.1797e+006  2.4008e+006  2.6377e+006 83929 240678,240782,240704
 8.0000e+001 241055 -1.0561e+003 -1.2696e+001 -8.4590e+002 83539 240879,240957,240931
 8.0000e+001 241032  3.4824e+001 -4.6679e+002  1.9092e+002 83539 240879,240983,240957
 8.0000e+001 241009 -9.1451e+002 -4.9050e+002 -8.2554e+002 83539 240879,240931,240905
 8.0000e+001 241207 -2.1057e+004 -3.2955e+005  4.5744e+004 83079 241106,241158,241132
 8.0000e+001 241184 -6.4204e+003 -3.0510e+005  5.6427e+004 83079 241080,241158,241106
 8.0000e+001 241408 -4.4511e+005 -9.2465e+005 -1.0074e+006 82665 241232,241284,241258
 8.0000e+001 241385 -3.5241e+005  7.0136e+005 -3.0343e+006 82665 241232,241336,241284
 8.0000e+001 241362 -3.0905e+006 -1.1345e+007  5.2269e+006 82665 241284,241336,241310
 8.0000e+001 241658 -2.2005e+005 -3.9349e+006  5.6032e+005 82375 241485,241563,241511
 8.0000e+001 241635 -7.4438e+003 -2.2419e+006  2.2239e+005 82375 241433,241563,241485
 8.0000e+001 241612 -1.0494e+005 -2.6583e+006  2.1543e+005 82375 241433,241485,241459
 8.0000e+001 241589 -6.8201e+005 -4.3324e+006  8.2244e+005 82375 241511,241563,241537
 8.0000e+001 241810 -6.8466e+005 -1.0663e+006 -4.8117e+005 82035 241683,241735,241709
 8.0000e+001 241787 -5.7921e+005 -1.8575e+006  6.1748e+005 82035 241683,241761,241735
 8.0000e+001 241962 -8.1649e+005 -1.9502e+006  6.4596e+005 81695 241861,241913,241887
 8.0000e+001 241939 -3.9372e+005 -2.7037e+006 -7.6467e+005 81695 241835,241913,241861
 8.0000e+001 242114 -1.0063e+006 -4.5029e+006  9.2957e+005 81355 242013,242065,242039
 8.0000e+001 242091 -4.1628e+005 -2.2369e+006  7.4253e+005 81355 241987,242065,242013
 8.0000e+001 242266 -2.7875e+002 -3.0672e+005  1.8550e+004 80951 242139,242191,242165
 8.0000e+001 242243 -1.2729e+003 -3.1079e+005  1.9017e+004 80951 242139,242217,242191
 8.0000e+001 242467 -4.3136e+005 -4.9531e+006  5.6743e+005 80311 242291,242369,242343
 8.0000e+001 242444  1.5186e+005 -2.4723e+006  4.3867e+005 80311 242291,242395,242369
 8.0000e+001 242421 -1.7408e+005 -1.2165e+006  2.1620e+005 80311 242291,242343,242317
 8.0000e+001 242619 -1.5196e+006 -2.5922e+006  3.9996e+005 80021 242492,242544,242518
 8.0000e+001 242596 -1.4631e+006 -2.3823e+006  1.5322e+006 80021 242492,242570,242544
 8.0000e+001 242869 -4.7052e+004 -1.1241e+005  7.0669e+002 79631 242644,242722,242696
 8.0000e+001 242846 -1.9474e+004 -3.9001e+005  7.5617e+004 79631 242644,242774,242722
 8.0000e+001 242823  2.8485e+004 -2.4090e+005  3.3196e+004 79631 242722,242774,242748
 8.0000e+001 242800 -4.0044e+004 -1.2976e+005  5.8854e+004 79631 242644,242696,242670
 8.0000e+001 243070  2.3737e+005 -1.4174e+007  3.4007e+006 79341 242920,242972,242946
 8.0000e+001 243047 -7.1885e+005 -6.4486e+006 -6.0391e+005 79341 242920,242998,242972
 8.0000e+001 243024 -7.4281e+005 -3.7962e+006  1.6788e+006 79341 242894,242998,242920
 8.0000e+001 243222 -3.2504e+005 -2.4486e+006  9.6232e+005 78801 243121,243173,243147
 8.0000e+001 243199 -4.1271e+005 -2.7136e+006  1.0720e+006 78801 243095,243173,243121
 8.0000e+001 243423 -7.9276e+005 -2.0537e+006 -7.6781e+005 78511 243273,243325,243299
 8.0000e+001 243400  7.0703e+005 -5.2664e+006  8.3221e+005 78511 243273,243351,243325
 8.0000e+001 243377 -2.6412e+003 -5.4796e+006  1.0882e+005 78511 243247,243351,243273
 8.0000e+001 243624 -3.5442e+005 -2.8939e+006 -1.0152e+006 78107 243474,243552,243526
 8.0000e+001 243601 -5.2918e+005 -3.6015e+006 -1.0830e+006 78107 243448,243552,243474
 8.0000e+001 243578 -5.8256e+005 -2.0072e+006 -1.7573e+005 78107 243474,243526,243500
 8.0000e+001 243776 -9.9275e+005 -4.5563e+006 -1.1997e+006 77653 243649,243701,243675
 8.0000e+001 243753 -1.3673e+006 -4.8367e+006 -7.1182e+005 77653 243649,243727,243701
 8.0000e+001 243977 -4.1316e+005 -5.8798e+006  4.0847e+004 77093 243801,243853,243827
 8.0000e+001 243954 -8.1844e+004 -4.8526e+006  7.1753e+005 77093 243801,243879,243853
 8.0000e+001 243931 -4.0327e+005 -1.8220e+006 -2.0975e+005 77093 243801,243905,243879
 8.0000e+001 244080 -5.7499e+005 -6.1851e+006  3.0656e+005 76791 244002,244054,244028
 8.0000e+001 244232 -5.4548e+004 -2.6110e+006 -1.4241e+005 76311 244131,244183,244157
 8.0000e+001 244209 -1.7659e+005 -4.9022e+006 -5.3514e+004 76311 244105,244183,244131
 8.0000e+001 244433  4.5888e+005 -1.5709e+007  4.3143e+006 75903 244283,244335,244309
 8.0000e+001 244410 -9.1871e+005 -9.3971e+006 -5.2557e+005 75903 244283,244361,244335
 8.0000e+001 244387 -1.3177e+006 -7.9312e+006  5.0132e+005 75903 244257,244361,244283
 8.0000e+001 244585  3.0679e+005 -1.5427e+007  1.5900e+006 75419 244458,244510,244484
 8.0000e+001 244562 -8.1894e+005 -7.7516e+006 -2.0450e+005 75419 244458,244536,244510
 8.0000e+001 244737 -4.0055e+005 -7.1654e+005 -1.7871e+005 75215 244636,244688,244662
 8.0000e+001 244714 -2.8441e+005 -3.1694e+006 -1.7232e+005 75215 244610,244688,244636
 8.0000e+001 244889 -9.1276e+005 -4.4032e+006 -6.6515e+005 74857 244788,244840,244814
 8.0000e+001 244866 -2.2976e+005 -1.9067e+006 -2.6532e+005 74857 244762,244840,244788
 8.0000e+001 245041 -2.4786e+005 -1.8658e+006 -1.0139e+006 74653 244940,244992,244966
 8.0000e+001 245018 -3.0861e+005 -4.3775e+005  8.3439e+005 74653 244914,244992,244940
 8.0000e+001 245144 -1.5289e+006 -5.9049e+006 -1.4389e+006 74359 245066,245118,245092
 8.0000e+001 245296 -1.1753e+004 -2.9676e+005 -9.3663e+004 74007 245169,245221,245195
 8.0000e+001 245273 -8.6062e+004 -5.0691e+005 -1.4534e+005 74007 245169,245247,245221
 8.0000e+001 245448 -2.2956e+006 -5.2857e+006 -6.2509e+005 73711 245321,245373,245347
 8.0000e+001 245425 -2.0544e+006 -5.2188e+006 -9.7463e+005 73711 245321,245399,245373
 8.0000e+001 245600  1.0360e+006 -1.2545e+007 -1.4025e+006 73301 245499,245551,245525
 8.0000e+001 245577 -1.5355e+006 -8.1365e+006  1.9457e+006 73301 245473,245551,245499
 8.0000e+001 245752 -2.8009e+006 -4.2086e+006 -2.5617e+006 72995 245625,245677,245651
 8.0000e+001 245729  8.7578e+005 -1.5763e+007 -2.2162e+006 72995 245625,245703,245677
 8.0000e+001 245953 -1.1908e+006 -1.3685e+007  7.7269e+005 72585 245777,245829,245803
 8.0000e+001 245930 -5.3613e+005 -1.4011e+007  1.7231e+006 72585 245777,245855,245829
 8.0000e+001 245907 -1.6261e+006 -9.1357e+006  4.0597e+005 72585 245777,245881,245855
 8.0000e+001 246154 -4.2572e+005 -7.1082e+006  1.3550e+006 72127 246030,246082,246056
 8.0000e+001 246131 -9.5131e+005 -8.1025e+006  6.8098e+005 72127 245978,246082,246030
 8.0000e+001 246108 -1.0862e+005 -8.9713e+006  3.4051e+005 72127 245978,246030,246004
 8.0000e+001 246257 -1.6819e+006 -2.7074e+005 -2.3192e+005 71737 246179,246231,246205
 8.0000e+001 246360  1.4432e+005 -3.0920e+006  5.1002e+005 71447 246282,246334,246308
 8.0000e+001 246512 -1.2170e+005 -1.9784e+006  8.3163e+005 71157 246385,246437,246411
 8.0000e+001 246489 -6.0934e+004 -1.4924e+006 -7.3052e+004 71157 246385,246463,246437
 8.0000e+001 246664 -1.7055e+005 -1.8936e+006 -5.0967e+005 70753 246537,246589,246563
 8.0000e+001 246641 -7.1260e+005 -7.3403e+005 -2.6227e+005 70753 246537,246615,246589
 8.0000e+001 246865 -1.4887e+006 -7.8532e+006  4.0732e+006 70249 246715,246767,246741
 8.0000e+001 246842 -3.3921e+006 -7.7408e+006 -3.0025e+004 70249 246715,246793,246767
 8.0000e+001 246819 -1.4374e+005 -1.5059e+007 -4.3431e+006 70249 246689,246793,246715
 8.0000e+001 247066  7.9309e+003 -1.5411e+006  2.1763e+005 70023 246916,246994,246942
 8.0000e+001 247043 -9.2005e+004 -1.2413e+006  3.4358e+005 70023 246890,246994,246916
 8.0000e+001 247020  6.2085e+004 -1.4297e+006  3.2433e+005 70023 246942,246994,246968
 8.0000e+001 247267 -2.5579e+005 -3.0940e+006 -4.1432e+005 69633 247091,247143,247117
 8.0000e+001 247244 -7.9955e+004 -2.0999e+006 -3.2406e+005 69633 247091,247169,247143
 8.0000e+001 247221 -5.3665e+004 -2.2062e+006 -3.7543e+005 69633 247091,247195,247169
 8.0000e+001 247419 -1.0833e+006 -4.7504e+006  4.7607e+005 69457 247318,247370,247344
 8.0000e+001 247396 -1.2101e+006 -2.0572e+006  7.5386e+005 69457 247292,247370,247318
 8.0000e+001 247522 -6.0053e+001 -7.0508e+001 -7.7762e+000 69209 247444,247496,247470
 8.0000e+001 247625 -1.2537e+006 -1.2750e+006 -9.6083e+005 68919 247547,247599,247573
 8.0000e+001 247777  1.2621e+005 -4.5005e+006 -2.1426e+005 68579 247650,247702,247676
 8.0000e+001 247754  6.9213e+004 -1.0633e+006 -2.4863e+005 68579 247650,247728,247702
 8.0000e+001 247929 -9.5775e+004 -3.7385e+006  7.5706e+005 68289 247802,247854,247828
 8.0000e+001 247906 -3.8545e+005 -2.1020e+006 -7.1304e+005 68289 247802,247880,247854
 8.0000e+001 248081 -2.7661e+005 -3.0963e+006  9.9145e+005 67949 247980,248032,248006
 8.0000e+001 248058 -3.9338e+005 -4.6192e+005  5.9772e+004 67949 247954,248032,247980
 8.0000e+001 248233 -1.7754e+006 -5.1998e+006 -6.8051e+005 67616 248132,248184,248158
 8.0000e+001 248210 -6.7586e+005 -4.6500e+006 -1.5159e+005 67616 248106,248184,248132
 8.0000e+001 248434 -9.3158e+004 -2.9571e+006 -1.8490e+005 67212 248284,248336,248310
 8.0000e+001 248411 -3.1580e+005 -2.9918e+006 -1.2054e+005 67212 248258,248336,248284
 8.0000e+001 248388 -1.2378e+006 -1.0818e+006 -5.1140e+005 67212 248258,248362,248336
 8.0000e+001 248586 -2.5058e+005 -4.2366e+006 -3.8880e+005 66872 248485,248537,248511
 8.0000e+001 248563  2.6837e+004 -1.7349e+006 -3.1637e+005 66872 248459,248537,248485
 8.0000e+001 248738 -4.2497e+005 -5.0255e+006  1.8442e+005 66510 248637,248689,248663
 8.0000e+001 248715 -5.5949e+005 -5.8221e+006  1.1107e+005 66510 248611,248689,248637
 8.0000e+001 248890 -2.7787e+004 -7.2796e+005  1.4223e+005 66220 248789,248841,248815
 8.0000e+001 248867 -4.5459e+004 -9.5235e+005 -3.0564e+005 66220 248763,248841,248789
 8.0000e+001 249091 -1.1070e+006 -7.9150e+006  1.3450e+006 65759 248915,248967,248941
 8.0000e+001 249068 -9.3069e+005 -4.8070e+006  1.8626e+006 65759 248915,248993,248967
 8.0000e+001 249045 -4.1315e+005 -3.5557e+006  2.7824e+005 65759 248915,249019,248993
 8.0000e+001 249243 -8.5898e+004 -7.3341e+006  1.5554e+006 65419 249142,249194,249168
 8.0000e+001 249220  1.9446e+005 -1.7315e+006  3.4517e+005 65419 249116,249194,249142
 8.0000e+001 249395 -1.7700e+005 -1.7852e+006 -3.0815e+005 65079 249268,249320,249294
 8.0000e+001 249372 -2.9549e+005 -3.3714e+006 -5.9445e+005 65079 249268,249346,249320
 8.0000e+001 249547 -1.6392e+006 -5.9564e+006  1.6165e+006 64739 249420,249472,249446
 8.0000e+001 249524 -1.2380e+005 -4.3495e+006 -1.3394e+006 64739 249420,249498,249472
 8.0000e+001 249650 -1.6627e+006 -3.9216e+006 -1.8654e+006 64342 249572,249624,249598
 8.0000e+001 249851  1.5073e+002 -3.2016e+006 -3.1905e+005 63938 249701,249779,249753
 8.0000e+001 249828 -6.2942e+004 -3.3540e+006  4.9757e+005 63938 249675,249779,249701
 8.0000e+001 249805 -3.7812e+005 -1.0774e+006 -2.2273e+005 63938 249701,249753,249727
 8.0000e+001 250052 -3.4082e+005 -4.1781e+006 -4.0456e+005 63341 249876,249954,249902
 8.0000e+001 250029 -3.2037e+005 -4.8857e+006 -5.2719e+005 63341 249876,249980,249954
 8.0000e+001 250006 -1.4387e+005 -4.1058e+006 -4.5773e+005 63341 249902,249954,249928
 8.0000e+001 250253 -6.6024e+005 -6.3638e+005 -3.6537e+004 63058 250077,250129,250103
 8.0000e+001 250230 -2.3491e+006 -2.4133e+006  1.3684e+006 63058 250077,250155,250129
 8.0000e+001 250207 -4.2716e+005 -1.4452e+006  3.7122e+005 63058 250077,250181,250155
 8.0000e+001 250454 -6.3529e+005 -5.7873e+006  6.4426e+005 62832 250304,250382,250330
 8.0000e+001 250431  3.4991e+004 -7.0998e+006 -1.9140e+006 62832 250278,250382,250304
 8.0000e+001 250408 -1.3216e+006 -4.2111e+006  1.2023e+005 62832 250330,250382,250356
 8.0000e+001 250606 -9.7072e+005 -5.3267e+006 -1.4828e+006 62428 250479,250531,250505
 8.0000e+001 250583 -5.3442e+004 -1.0366e+007 -1.4623e+006 62428 250479,250557,250531
 8.0000e+001 250758 -1.9584e+005 -6.7956e+006  8.8301e+005 62202 250631,250683,250657
 8.0000e+001 250735 -3.9384e+005 -6.3351e+006  1.4591e+005 62202 250631,250709,250683
 8.0000e+001 250861  1.8251e+005 -2.8893e+006 -2.6695e+005 61954 250783,250835,250809
 8.0000e+001 251062 -2.5732e+006 -4.5149e+006 -1.2315e+005 61557 250912,250990,250938
 8.0000e+001 251039  3.3902e+005 -1.0736e+007 -2.6356e+006 61557 250886,250990,250912
 8.0000e+001 251016 -2.1739e+006 -6.9511e+006 -3.6179e+006 61557 250938,250990,250964
 8.0000e+001 251263 -4.0500e+005 -5.8575e+006 -6.8185e+003 61167 251113,251165,251139
 8.0000e+001 251240 -4.3329e+005 -5.0503e+006 -1.1912e+005 61167 251113,251191,251165
 8.0000e+001 251217 -1.1958e+006 -5.0747e+006  7.7847e+005 61167 251087,251191,251113
 8.0000e+001 251415 -1.0048e+006 -4.9238e+006  1.9160e+006 60827 251288,251340,251314
 8.0000e+001 251392 -3.7198e+005 -1.9572e+006 -3.8426e+005 60827 251288,251366,251340
 8.0000e+001 251567 -1.3956e+005 -2.6331e+006 -1.9337e+005 60487 251466,251518,251492
 8.0000e+001 251544 -6.1382e+005 -3.8801e+006 -5.8353e+005 60487 251440,251518,251466
 8.0000e+001 251719 -1.8475e+005 -7.6034e+006 -5.8242e+005 59983 251592,251644,251618
 8.0000e+001 251696 -9.0794e+005 -6.0787e+006 -4.1645e+005 59983 251592,251670,251644
 8.0000e+001 251920 -8.6510e+004 -1.3828e+006  5.3701e+003 59807 251770,251848,251796
 8.0000e+001 251897 -5.0425e+004 -9.9485e+005 -4.4634e+004 59807 251744,251848,251770
 8.0000e+001 251874 -8.2143e+004 -1.2680e+006  6.3744e+004 59807 251796,251848,251822
 8.0000e+001 252023  4.6687e+005 -4.1018e+006 -1.0672e+005 59517 251945,251997,251971
 8.0000e+001 252175  1.1869e+006 -1.0128e+007 -1.7394e+005 59269 252074,252126,252100
 8.0000e+001 252152 -5.5744e+004 -6.8976e+006  4.7089e+004 59269 252048,252126,252074
 8.0000e+001 252278 -1.0298e+006 -6.8872e+006  1.0589e+006 58979 252200,252252,252226
 8.0000e+001 252381 -2.4363e+006 -1.7273e+006  1.3946e+006 58689 252303,252355,252329
 8.0000e+001 252533 -4.6519e+005 -3.0746e+006 -7.5715e+005 58249 252432,252484,252458
 8.0000e+001 252510 -8.9025e+005 -4.7174e+006 -6.3478e+005 58249 252406,252484,252432
 8.0000e+001 252734 -1.9897e+005 -2.0976e+006  2.8845e+005 57902 252584,252662,252610
 8.0000e+001 252711  9.9100e+004 -4.2485e+006 -7.7291e+005 57902 252558,252662,252584
 8.0000e+001 252688 -1.2690e+005 -1.2864e+006 -4.2511e+004 57902 252610,252662,252636
 8.0000e+001 252886  1.5682e+005 -5.2380e+006 -2.4024e+005 57540 252785,252837,252811
 8.0000e+001 252863  5.6581e+004 -3.8903e+006  1.3109e+005 57540 252759,252837,252785
 8.0000e+001 253038 -9.5611e+005 -6.1377e+006  1.6209e+006 57086 252937,252989,252963
 8.0000e+001 253015 -2.9784e+005 -1.2160e+006  4.2736e+005 57086 252911,252989,252937
 8.0000e+001 253239 -8.1857e+005 -5.9636e+006 -4.8983e+005 56796 253063,253141,253115
 8.0000e+001 253216 -5.9083e+004 -6.2151e+006  4.4451e+005 56796 253063,253167,253141
 8.0000e+001 253193 -5.8357e+006 -1.3198e+006  8.3478e+005 56796 253063,253115,253089
 8.0000e+001 253342 -6.6863e+005 -1.3092e+007 -1.3164e+005 56349 253264,253316,253290
 8.0000e+001 253543 -2.9115e+005 -2.6615e+006 -1.2012e+006 56009 253367,253419,253393
 8.0000e+001 253520 -5.6378e+005 -1.2430e+006 -6.4316e+005 56009 253367,253445,253419
 8.0000e+001 253497 -4.1126e+005 -1.2482e+006 -6.5961e+005 56009 253367,253471,253445
 8.0000e+001 253695 -1.1784e+005 -7.0218e+005  3.3685e+005 55733 253594,253646,253620
 8.0000e+001 253672 -3.9035e+005 -2.3998e+005  2.9897e+005 55733 253568,253646,253594
 8.0000e+001 253798 -6.4219e+005 -1.4859e+006 -1.9178e+005 55557 253720,253772,253746
 8.0000e+001 253950 -6.4627e+005 -2.9859e+006  7.6364e+004 55153 253849,253901,253875
 8.0000e+001 253927 -2.0062e+005 -3.4705e+006 -4.9598e+005 55153 253823,253901,253849
 8.0000e+001 254151 -1.0705e+006 -3.8535e+006  4.1284e+005 54863 253975,254053,254001
 8.0000e+001 254128 -8.3824e+005 -3.5247e+006  1.9287e+005 54863 253975,254079,254053
 8.0000e+001 254105 -9.7546e+005 -4.9871e+006  9.1610e+005 54863 254001,254053,254027
 8.0000e+001 254303 -9.4958e+004 -3.3325e+005  2.0515e+005 54373 254176,254228,254202
 8.0000e+001 254280 -2.7036e+005 -4.3242e+005  2.9948e+005 54373 254176,254254,254228
 8.0000e+001 254455 -5.9731e+004 -4.2391e+006 -4.1506e+005 53975 254354,254406,254380
 8.0000e+001 254432 -2.7461e+005 -9.3912e+005  1.3776e+005 53975 254328,254406,254354
 8.0000e+001 254607 -2.1219e+005 -5.0941e+006 -6.0730e+004 53585 254480,254532,254506
 8.0000e+001 254584 -3.6125e+005 -4.3838e+006 -1.3805e+005 53585 254480,254558,254532
 8.0000e+001 254808 -9.7524e+005 -3.4644e+006  2.1662e+005 53245 254658,254736,254684
 8.0000e+001 254785 -9.2201e+005 -4.8466e+005 -1.2523e+005 53245 254632,254736,254658
 8.0000e+001 254762 -5.0309e+005 -1.7522e+006 -9.5121e+003 53245 254684,254736,254710
 8.0000e+001 254911 -1.5079e+005 -1.3692e+006 -3.2033e+005 52955 254833,254885,254859
 8.0000e+001 255063 -4.9142e+005 -6.8178e+006  4.3943e+004 52551 254962,255014,254988
 8.0000e+001 255040 -6.2887e+005 -7.0265e+006 -7.1530e+004 52551 254936,255014,254962
 8.0000e+001 255264 -1.1330e+006 -1.0574e+006 -6.0685e+005 52261 255114,255166,255140
 8.0000e+001 255241 -1.2418e+006 -2.3269e+006 -1.7737e+005 52261 255114,255192,255166
 8.0000e+001 255218 -5.3952e+006 -1.0788e+006  9.8349e+005 52261 255088,255192,255114
 8.0000e+001 255416 -9.3372e+005 -5.5709e+006  2.2082e+006 51971 255289,255341,255315
 8.0000e+001 255393 -3.5531e+005 -4.8463e+006 -5.4640e+005 51971 255289,255367,255341
 8.0000e+001 255568  1.6779e+005 -1.4907e+006 -4.9743e+005 51681 255441,255493,255467
 8.0000e+001 255545 -1.3368e+005 -1.0535e+006 -5.0649e+005 51681 255441,255519,255493
 8.0000e+001 255769 -2.4837e+005 -2.7149e+006  5.4156e+004 51291 255619,255697,255671
 8.0000e+001 255746 -2.2803e+005 -2.3787e+006 -2.5507e+005 51291 255593,255697,255619
 8.0000e+001 255723 -2.9441e+005 -5.7034e+006 -6.7643e+005 51291 255619,255671,255645
 8.0000e+001 255921 -6.6671e+005 -3.2025e+006  8.3581e+005 50951 255820,255872,255846
 8.0000e+001 255898 -1.1394e+005 -1.2967e+006  5.3691e+004 50951 255794,255872,255820
 8.0000e+001 256171 -8.3455e+005 -5.2894e+006  6.6916e+005 50547 256024,256076,256050
 8.0000e+001 256148 -8.5990e+005 -4.1290e+006  3.2071e+005 50547 255972,256076,256024
 8.0000e+001 256125 -5.8751e+004 -4.2505e+006  2.3780e+005 50547 255946,256076,255972
 8.0000e+001 256102 -7.2904e+005 -4.8075e+006  5.0444e+005 50547 255972,256024,255998
 8.0000e+001 256323  1.3396e+005 -4.1680e+006  4.1096e+005 50093 256196,256248,256222
 8.0000e+001 256300 -1.0298e+006 -2.6133e+006 -8.2861e+005 50093 256196,256274,256248
 8.0000e+001 256426  3.3065e+001  7.2043e+001 -2.4922e+000 49845 256348,256400,256374
 8.0000e+001 256627  5.1039e+004 -5.7270e+006  8.0304e+004 49555 256477,256555,256503
 8.0000e+001 256604 -5.1026e+004 -2.9535e+006  2.2244e+005 49555 256451,256555,256477
 8.0000e+001 256581 -3.8232e+005 -5.1040e+006  3.4021e+005 49555 256503,256555,256529
 8.0000e+001 256828 -4.3126e+005 -2.3630e+006 -4.6643e+005 49056 256652,256730,256678
 8.0000e+001 256805 -7.1590e+005 -2.0230e+006 -2.7908e+005 49056 256652,256756,256730
 8.0000e+001 256782 -3.1421e+005 -3.6938e+006  4.7085e+005 49056 256678,256730,256704
 8.0000e+001 256931 -3.5141e+004 -1.3617e+005  1.8107e+004 48766 256853,256905,256879
 8.0000e+001 257083 -1.7260e+006 -5.0896e+006 -7.5597e+005 48568 256982,257034,257008
 8.0000e+001 257060 -6.6302e+005 -8.7228e+005 -1.8129e+005 48568 256956,257034,256982
 8.0000e+001 257186 -1.2693e+003 -3.3234e+006  1.1578e+003 48228 257108,257160,257134
 8.0000e+001 257338 -1.2360e+006 -5.2032e+005  2.9365e+005 47888 257237,257289,257263
 8.0000e+001 257315 -5.7055e+005 -3.5659e+006  1.9739e+006 47888 257211,257289,257237
 8.0000e+001 257539 -4.0497e+005 -3.3382e+006  1.2321e+005 47548 257363,257441,257415
 8.0000e+001 257516 -7.1860e+005 -3.0986e+006 -3.3836e+005 47548 257363,257467,257441
 8.0000e+001 257493 -8.0338e+005 -2.3161e+006 -9.0242e+004 47548 257363,257415,257389
 8.0000e+001 257740 -7.4267e+004 -5.3038e+006  4.6050e+005 46994 257564,257642,257616
 8.0000e+001 257717 -4.3101e+005 -3.7229e+006 -1.4237e+005 46994 257564,257668,257642
 8.0000e+001 257694 -8.6435e+005 -5.2473e+006 -1.8930e+005 46994 257564,257616,257590
 8.0000e+001 257843 -3.1986e+005 -8.9877e+005 -1.3650e+005 46654 257765,257817,257791
 8.0000e+001 257995 -5.8894e+005 -2.7662e+006  3.6179e+005 46364 257894,257946,257920
 8.0000e+001 257972 -6.7242e+005 -2.8873e+006  2.8532e+005 46364 257868,257946,257894
 8.0000e+001 258147 -5.7923e+004 -3.3640e+006  1.1542e+005 46024 258046,258098,258072
 8.0000e+001 258124 -3.8859e+005 -2.4339e+006  4.1693e+005 46024 258020,258098,258046
 8.0000e+001 258250 -4.1433e+005 -6.3693e+005  3.7432e+005 45741 258172,258224,258198
 8.0000e+001 258402 -8.7612e+005 -3.0894e+006  6.8913e+005 45401 258301,258353,258327
 8.0000e+001 258379 -4.5072e+005 -2.7599e+006  9.3499e+005 45401 258275,258353,258301
 8.0000e+001 258603 -6.8476e+005 -1.7710e+006  1.3266e+004 45071 258427,258505,258479
 8.0000e+001 258580 -2.5017e+005 -4.1574e+006  2.4703e+005 45071 258427,258531,258505
 8.0000e+001 258557 -2.9971e+005 -2.6115e+006  1.8609e+005 45071 258427,258479,258453
 8.0000e+001 258755 -2.0802e+005 -4.0503e+006 -3.9866e+005 44681 258654,258706,258680
 8.0000e+001 258732 -3.4081e+005 -3.2253e+006 -4.0349e+005 44681 258628,258706,258654
 8.0000e+001 258907 -1.9024e+005 -3.2470e+006 -2.9291e+005 44157 258806,258858,258832
 8.0000e+001 258884 -7.2591e+005 -2.4453e+006 -2.0614e+005 44157 258780,258858,258806
 8.0000e+001 259010 -5.4576e+005 -2.2309e+006 -9.2631e+004 43705 258932,258984,258958
 8.0000e+001 259113 -5.1374e+005 -2.8053e+006  1.2464e+005 43284 259035,259087,259061
 8.0000e+001 259216 -3.5759e+005 -4.6205e+006 -2.1367e+005 42954 259138,259190,259164
 8.0000e+001 259319 -6.6515e+005 -1.3451e+006 -2.2948e+004 42116 259241,259293,259267
 8.0000e+001 259422 -6.1516e+005 -6.9772e+006  1.2525e+006 41804 259344,259396,259370
 8.0000e+001 259525 -6.3478e+005 -6.1734e+006  9.3298e+005 41219 259447,259499,259473
 8.0000e+001 259628 -5.8937e+005 -2.7120e+006 -6.0129e+005 385 259550,259602,259576
 8.2000e+001 190120 -1.8338e+005 -2.3739e+006 -4.2919e+005 189630 189993,190045,190019
 8.2000e+001 190097 -7.0127e+005 -1.7475e+006 -2.6834e+005 189630 189993,190071,190045
 8.2000e+001 190319 -1.4733e+006 -4.4793e+006 -4.9780e+005 189312 190169,190221,190195
 8.2000e+001 190296 -6.0398e+005 -3.8122e+006 -1.0659e+006 189312 190169,190247,190221
 8.2000e+001 190273 -9.0959e+005 -3.1183e+006  2.6589e+005 189312 190143,190247,190169
 8.2000e+001 190518 -4.7650e+005  4.9590e+004  1.7118e+004 189124 190368,190446,190420
 8.2000e+001 190495 -5.6286e+005  2.1319e+004 -3.9560e+003 189124 190342,190446,190368
 8.2000e+001 190472 -9.8952e+005 -5.2052e+004 -4.9459e+004 189124 190368,190420,190394
 8.2000e+001 190619 -4.4975e+005 -4.6741e+004 -6.3686e+003 188926 190541,190593,190567
 8.2000e+001 190771 -4.8856e+005 -7.4948e+004  1.2893e+004 188614 190670,190722,190696
 8.2000e+001 190748 -5.5817e+005  1.6490e+005  5.4127e+004 188614 190644,190722,190670
 8.2000e+001 190972 -4.9625e+005 -5.0001e+005 -3.3838e+005 188324 190848,190900,190874
 8.2000e+001 190949 -5.2040e+005 -8.3228e+005 -5.2864e+005 188324 190796,190900,190848
 8.2000e+001 190926 -6.9879e+004 -3.7733e+005 -2.3066e+005 188324 190796,190848,190822
 8.2000e+001 191124 -6.8804e+005 -1.0267e+006 -1.6483e+005 188034 191023,191075,191049
 8.2000e+001 191101 -1.5852e+005 -1.1561e+006 -1.2216e+005 188034 190997,191075,191023
 8.2000e+001 191276 -2.1092e+005 -9.5065e+005 -7.8683e+004 187836 191149,191201,191175
 8.2000e+001 191253 -2.5627e+005 -4.9766e+005  1.6778e+005 187836 191149,191227,191201
 8.2000e+001 191379 -4.5948e+005 -3.3523e+005 -9.9702e+004 187546 191301,191353,191327
 8.2000e+001 191531 -2.5339e+005 -3.5272e+006  3.0179e+005 187256 191430,191482,191456
 8.2000e+001 191508 -1.1363e+006 -5.0878e+006 -1.5817e+006 187256 191404,191482,191430
 8.2000e+001 191634 -7.4085e+005  2.4798e+004 -1.8667e+004 187058 191556,191608,191582
 8.2000e+001 191835 -5.1045e+005  1.9467e+004 -2.1003e+004 186860 191659,191711,191685
 8.2000e+001 191812 -3.3339e+005 -1.0362e+005  7.8006e+003 186860 191659,191737,191711
 8.2000e+001 191789 -2.9246e+005 -6.4594e+003 -4.2634e+004 186860 191659,191763,191737
 8.2000e+001 191987 -1.8104e+005 -2.6795e+005 -7.6705e+004 186662 191886,191938,191912
 8.2000e+001 191964 -1.0523e+005 -7.0049e+005  2.0776e+005 186662 191860,191938,191886
 8.2000e+001 192090 -7.2858e+005 -9.6650e+005 -8.2359e+004 186486 192012,192064,192038
 8.2000e+001 192242 -1.3267e+005 -7.3363e+006 -3.2691e+005 186288 192115,192167,192141
 8.2000e+001 192219 -8.2055e+005 -4.3925e+006  1.4083e+005 186288 192115,192193,192167
 8.2000e+001 192394  5.7519e+004 -5.9014e+006 -2.7718e+005 185935 192293,192345,192319
 8.2000e+001 192371 -5.2882e+005 -4.0702e+006 -7.0030e+005 185935 192267,192345,192293
 8.2000e+001 192546 -4.3890e+005 -3.1475e+006 -5.9606e+005 185675 192419,192471,192445
 8.2000e+001 192523 -9.0162e+005 -1.5748e+006 -6.3611e+005 185675 192419,192497,192471
 8.2000e+001 192649 -8.2362e+005 -1.7431e+006 -1.1723e+005 185499 192571,192623,192597
 8.2000e+001 192801 -2.5575e+005 -1.3041e+006  2.2827e+005 185301 192674,192726,192700
 8.2000e+001 192778 -1.8295e+005 -1.3615e+006  4.2965e+005 185301 192674,192752,192726
 8.2000e+001 193002 -8.6111e+004 -5.7841e+005 -3.8801e+005 185046 192852,192930,192878
 8.2000e+001 192979 -3.5728e+005 -1.5095e+006 -2.1475e+005 185046 192826,192930,192852
 8.2000e+001 192956  4.2954e+005 -1.9162e+006 -1.8162e+004 185046 192878,192930,192904
 8.2000e+001 193203  1.6547e+005 -4.9876e+006 -7.4045e+005 184798 193079,193131,193105
 8.2000e+001 193180 -9.8987e+005 -3.2302e+006 -1.9204e+005 184798 193027,193131,193079
 8.2000e+001 193157 -1.7182e+006 -3.4418e+006  2.4433e+005 184798 193027,193079,193053
 8.2000e+001 193404 -2.2618e+005 -4.8525e+006 -1.2265e+006 184600 193254,193306,193280
 8.2000e+001 193381 -4.9944e+005 -1.3919e+006 -1.8903e+005 184600 193254,193332,193306
 8.2000e+001 193358 -8.5303e+005 -3.8867e+005 -3.8690e+005 184600 193228,193332,193254
 8.2000e+001 193556 -6.0800e+005 -5.4509e+005 -6.1516e+005 184402 193429,193481,193455
 8.2000e+001 193533 -6.4992e+005 -5.8119e+005 -5.8808e+005 184402 193429,193507,193481
 8.2000e+001 193708  4.5143e+004 -1.6338e+006  1.5236e+005 184204 193607,193659,193633
 8.2000e+001 193685 -5.3392e+005 -5.9325e+006 -1.0784e+006 184204 193581,193659,193607
 8.2000e+001 193860 -5.2107e+005 -8.8293e+005  5.0747e+005 183908 193759,193811,193785
 8.2000e+001 193837 -1.2119e+005 -1.5162e+006  5.4032e+005 183908 193733,193811,193759
 8.2000e+001 194061 -6.5833e+005 -1.3130e+005  2.0672e+005 183710 193911,193989,193937
 8.2000e+001 194038 -6.2265e+005 -4.1960e+005  6.9498e+004 183710 193885,193989,193911
 8.2000e+001 194015 -6.1998e+005 -4.1668e+005  2.3854e+005 183710 193937,193989,193963
 8.2000e+001 194262 -7.5159e+005 -2.6549e+006 -7.0999e+005 183420 194086,194164,194112
 8.2000e+001 194239 -7.4998e+005 -2.4066e+006 -3.2755e+005 183420 194086,194190,194164
 8.2000e+001 194216  4.6974e+005 -7.2435e+006  1.4811e+006 183420 194112,194164,194138
 8.2000e+001 194414 -6.0556e+005 -5.5176e+006 -1.7008e+005 183222 194287,194339,194313
 8.2000e+001 194391 -3.6679e+005 -1.3173e+006 -3.8793e+005 183222 194287,194365,194339
 8.2000e+001 194517 -9.9874e+005 -7.9016e+005 -4.1431e+003 183024 194439,194491,194465
 8.2000e+001 194718  1.7143e+006 -1.5266e+007  1.5271e+006 182734 194568,194620,194594
 8.2000e+001 194695 -1.1330e+006 -4.3434e+006 -3.1666e+006 182734 194542,194620,194568
 8.2000e+001 194672 -3.2684e+006 -2.0453e+006 -1.5340e+006 182734 194542,194646,194620
 8.2000e+001 194870 -5.0615e+005 -4.8436e+005  3.6288e+005 182444 194769,194821,194795
 8.2000e+001 194847 -5.5164e+005 -1.2579e+006  8.5363e+005 182444 194743,194821,194769
 8.2000e+001 195071 -3.1383e+005 -1.4777e+006  8.7815e+005 182154 194895,194947,194921
 8.2000e+001 195048 -3.5345e+005 -5.2495e+005  2.1839e+005 182154 194895,194999,194947
 8.2000e+001 195025 -3.7986e+005 -1.5517e+005  2.3512e+005 182154 194947,194999,194973
 8.2000e+001 195223 -2.5532e+005 -1.4860e+005 -1.1300e+005 181814 195096,195148,195122
 8.2000e+001 195200 -4.9296e+005 -1.5757e+006 -1.0866e+006 181814 195096,195174,195148
 8.2000e+001 195375 -8.4601e+003 -1.3960e+004 -7.7953e+003 181524 195248,195300,195274
 8.2000e+001 195352  4.8428e+003 -6.8500e+004 -8.7341e+002 181524 195248,195326,195300
 8.2000e+001 195527 -2.1916e+005 -1.8782e+006 -3.0868e+005 181326 195426,195478,195452
 8.2000e+001 195504 -9.9267e+005 -1.7805e+006  1.7887e+005 181326 195400,195478,195426
 8.2000e+001 195679  3.0967e+003 -9.6618e+006 -4.6385e+005 180936 195578,195630,195604
 8.2000e+001 195656 -6.0481e+005 -3.9995e+006 -2.9893e+005 180936 195552,195630,195578
 8.2000e+001 195831 -4.6014e+005 -3.7759e+005 -1.7905e+005 180646 195704,195756,195730
 8.2000e+001 195808 -7.3388e+005 -2.4666e+004  1.4789e+004 180646 195704,195782,195756
 8.2000e+001 196032 -3.1349e+005 -2.1063e+006  4.2571e+005 180306 195882,195960,195934
 8.2000e+001 196009 -4.1737e+005 -8.3821e+005 -2.9492e+005 180306 195856,195960,195882
 8.2000e+001 195986  2.9137e+004 -2.3028e+006  1.7800e+005 180306 195882,195934,195908
 8.2000e+001 196233 -2.4167e+005 -2.0294e+005 -9.3109e+005 179944 196057,196109,196083
 8.2000e+001 196210 -9.5233e+005 -3.6128e+006  4.6275e+005 179944 196057,196135,196109
 8.2000e+001 196187 -2.0598e+006  4.6773e+006 -1.5313e+006 179944 196057,196161,196135
 8.2000e+001 196385 -5.7248e+005 -6.6569e+005 -4.0251e+005 179604 196258,196310,196284
 8.2000e+001 196362 -8.8623e+005 -1.1505e+006 -1.0798e+006 179604 196258,196336,196310
 8.2000e+001 196586 -7.8601e+005 -5.0863e+005 -6.2730e+005 179114 196410,196488,196436
 8.2000e+001 196563 -5.8990e+005 -1.7607e+006 -6.0703e+005 179114 196410,196514,196488
 8.2000e+001 196540 -3.8966e+003 -4.6642e+005 -4.6410e+004 179114 196436,196488,196462
 8.2000e+001 196738 -7.1858e+005 -1.5901e+006 -6.8275e+005 178674 196611,196663,196637
 8.2000e+001 196715  4.1927e+004 -3.6143e+006 -1.5392e+005 178674 196611,196689,196663
 8.2000e+001 196939  1.4432e+006 -8.9452e+006 -2.0585e+006 178334 196789,196867,196841
 8.2000e+001 196916 -1.0083e+006 -9.4030e+006  5.3309e+005 178334 196763,196867,196789
 8.2000e+001 196893 -2.6105e+006 -5.9912e+006 -4.3883e+006 178334 196789,196841,196815
 8.2000e+001 197091 -9.5947e+005 -3.9314e+006 -1.0903e+006 177930 196990,197042,197016
 8.2000e+001 197068 -1.2492e+006 -5.0245e+006 -9.3168e+005 177930 196964,197042,196990
 8.2000e+001 197194 -3.1381e+002 -6.6047e+001  1.0098e+002 177732 197116,197168,197142
 8.2000e+001 197346 -4.4267e+005 -5.5032e+006  2.4200e+005 177534 197219,197271,197245
 8.2000e+001 197323 -1.9492e+005 -5.9647e+006  4.7824e+005 177534 197219,197297,197271
 8.2000e+001 197547 -1.2150e+006 -6.9100e+006 -2.8514e+006 177130 197397,197449,197423
 8.2000e+001 197524 -2.1837e+006 -7.6180e+006 -2.0357e+006 177130 197397,197475,197449
 8.2000e+001 197501 -1.1905e+006 -1.0316e+007 -2.4262e+006 177130 197371,197475,197397
 8.2000e+001 197748 -6.7689e+005 -5.3753e+006  4.7695e+005 176790 197598,197676,197624
 8.2000e+001 197725 -4.5884e+005 -4.0768e+006  6.9746e+005 176790 197572,197676,197598
 8.2000e+001 197702 -5.8163e+005 -4.5655e+006  4.9948e+005 176790 197624,197676,197650
 8.2000e+001 197900 -2.8383e+005 -2.8756e+006 -4.8861e+005 176300 197773,197825,197799
 8.2000e+001 197877 -4.3776e+004 -4.2548e+006 -3.7497e+005 176300 197773,197851,197825
 8.2000e+001 198052 -1.2878e+006 -4.8418e+006 -1.2194e+006 176010 197925,197977,197951
 8.2000e+001 198029 -5.0459e+005 -6.6588e+006 -1.9804e+006 176010 197925,198003,197977
 8.2000e+001 198204 -1.2567e+006 -5.7523e+006 -2.5959e+006 175670 198103,198155,198129
 8.2000e+001 198181 -1.6392e+006 -3.5103e+006 -6.2041e+005 175670 198077,198155,198103
 8.2000e+001 198405 -3.4484e+005 -3.8956e+006 -7.5485e+005 175266 198255,198307,198281
 8.2000e+001 198382 -1.3358e+005 -5.4893e+006 -2.1016e+006 175266 198229,198307,198255
 8.2000e+001 198359 -1.2188e+006 -4.9909e+006 -2.4638e+006 175266 198229,198333,198307
 8.2000e+001 198606  3.8147e+003 -7.6291e+004  6.3295e+003 174876 198430,198508,198482
 8.2000e+001 198583 -2.9367e+003 -7.2751e+004 -4.1368e+004 174876 198430,198534,198508
 8.2000e+001 198560  3.3398e+003 -3.5763e+004 -8.6579e+003 174876 198430,198482,198456
 8.2000e+001 198758  7.8773e+002 -3.3295e+002 -3.3708e+002 174536 198657,198709,198683
 8.2000e+001 198735  6.1856e+002 -4.8722e+002  3.4651e+002 174536 198631,198709,198657
 8.2000e+001 199008 -8.9787e+005 -5.0316e+006 -3.2067e+004 174132 198835,198913,198887
 8.2000e+001 198985 -5.6652e+005 -1.9759e+006  3.0044e+005 174132 198809,198913,198835
 8.2000e+001 198962 -5.3892e+005 -2.2039e+006 -1.2533e+006 174132 198783,198913,198809
 8.2000e+001 198939 -3.4827e+005 -5.4088e+006 -8.3080e+003 174132 198835,198887,198861
 8.2000e+001 199160 -1.0685e+006 -2.6944e+006 -6.4120e+005 173842 199059,199111,199085
 8.2000e+001 199137 -3.9138e+005 -1.1873e+006 -1.0567e+005 173842 199033,199111,199059
 8.2000e+001 199361 -6.8747e+005 -4.1948e+006  1.2108e+006 173438 199237,199289,199263
 8.2000e+001 199338 -4.2010e+005 -4.4484e+006  1.2577e+006 173438 199211,199289,199237
 8.2000e+001 199315 -6.3057e+004 -6.5520e+006 -5.2808e+005 173438 199185,199289,199211
 8.2000e+001 199513 -8.4786e+005 -5.5225e+006  5.5068e+004 173190 199386,199438,199412
 8.2000e+001 199490 -1.5481e+006 -6.0225e+006  4.2183e+005 173190 199386,199464,199438
 8.2000e+001 199665 -4.5923e+005 -1.5294e+006  2.4775e+005 172750 199564,199616,199590
 8.2000e+001 199642 -8.8332e+005 -8.5480e+005 -2.4780e+004 172750 199538,199616,199564
 8.2000e+001 199817 -2.3712e+005 -3.0755e+006 -1.0137e+006 172524 199690,199742,199716
 8.2000e+001 199794 -1.4901e+006 -9.6682e+005 -5.5504e+005 172524 199690,199768,199742
 8.2000e+001 199969 -6.3633e+003 -6.1845e+006 -2.0579e+005 172348 199842,199894,199868
 8.2000e+001 199946  3.1507e+005 -6.1175e+006 -5.2876e+004 172348 199842,199920,199894
 8.2000e+001 200121  7.2666e+004 -1.5701e+006 -3.0210e+005 172008 199994,200046,200020
 8.2000e+001 200098 -1.7043e+005 -5.0540e+005 -1.1877e+005 172008 199994,200072,200046
 8.2000e+001 200273 -1.7563e+006 -5.5981e+006 -2.2608e+006 171668 200172,200224,200198
 8.2000e+001 200250 -1.1925e+006 -5.7805e+006 -1.2635e+006 171668 200146,200224,200172
 8.2000e+001 200474  2.4920e+005 -4.2898e+006 -6.5613e+005 171264 200350,200402,200376
 8.2000e+001 200451 -1.7946e+005 -4.7596e+006 -9.2715e+005 171264 200324,200402,200350
 8.2000e+001 200428 -3.2594e+005 -3.1854e+006  1.0187e+006 171264 200298,200402,200324
 8.2000e+001 200626 -1.0284e+006 -4.7535e+006 -8.1195e+005 170832 200525,200577,200551
 8.2000e+001 200603 -2.8240e+005 -2.8410e+006 -2.1887e+005 170832 200499,200577,200525
 8.2000e+001 200827 -7.2518e+004 -1.5759e+006  3.9776e+005 170492 200677,200729,200703
 8.2000e+001 200804 -9.9366e+005 -7.3669e+005 -2.7904e+005 170492 200651,200729,200677
 8.2000e+001 200781 -6.9896e+005 -9.2015e+005 -4.9545e+005 170492 200651,200755,200729
 8.2000e+001 201077 -7.2778e+005 -2.5698e+006 -2.2641e+005 170088 200878,200956,200904
 8.2000e+001 201054 -5.0195e+005 -1.2829e+006 -1.7967e+005 170088 200852,200956,200878
 8.2000e+001 201031 -9.1949e+005 -1.3833e+006  2.1542e+006 170088 200904,200956,200930
 8.2000e+001 201008  3.5350e+004 -1.7386e+006  1.3483e+005 170088 200852,200982,200956
 8.2000e+001 201278  9.7364e+004 -3.8654e+005 -1.5432e+005 169798 201102,201154,201128
 8.2000e+001 201255 -3.6512e+005 -1.8355e+006 -4.6282e+005 169798 201102,201206,201154
 8.2000e+001 201232 -1.5517e+006  3.9039e+005  1.7547e+005 169798 201154,201206,201180
 8.2000e+001 201430 -1.4550e+005 -2.5837e+006 -5.5434e+005 169337 201303,201355,201329
 8.2000e+001 201407 -1.1873e+005 -8.4006e+005 -1.5144e+005 169337 201303,201381,201355
 8.2000e+001 201631 -2.2241e+005 -3.1185e+006  6.6022e+005 168883 201481,201559,201507
 8.2000e+001 201608 -3.1248e+005 -2.6731e+006  9.2972e+005 168883 201455,201559,201481
 8.2000e+001 201585 -1.8046e+005 -2.2036e+006  7.2319e+005 168883 201507,201559,201533
 8.2000e+001 201832  2.8741e+005 -6.6778e+006  4.0629e+005 168479 201682,201734,201708
 8.2000e+001 201809 -2.1034e+006 -4.8740e+006 -1.1839e+006 168479 201656,201734,201682
 8.2000e+001 201786 -1.7873e+006 -3.6292e+006  1.7514e+004 168479 201656,201760,201734
 8.2000e+001 202033 -3.4018e+005 -2.7226e+006  7.4043e+004 167825 201883,201935,201909
 8.2000e+001 202010 -1.7058e+006 -3.9757e+006 -2.2008e+006 167825 201857,201935,201883
 8.2000e+001 201987 -4.7608e+005 -9.8798e+006 -1.2965e+006 167825 201857,201961,201935
 8.2000e+001 202234 -1.1260e+005 -7.3204e+005 -1.7623e+005 167435 202058,202136,202084
 8.2000e+001 202211 -2.7579e+005 -1.8582e+006  9.5091e+005 167435 202058,202162,202136
 8.2000e+001 202188 -5.5314e+004 -3.9742e+005  9.4984e+004 167435 202084,202136,202110
 8.2000e+001 202386  3.8957e+004 -1.6963e+006  3.1493e+005 167002 202285,202337,202311
 8.2000e+001 202363 -3.3628e+005 -4.6921e+005  3.1020e+005 167002 202259,202337,202285
 8.2000e+001 202538 -1.9565e+006 -1.8551e+006 -1.7361e+006 166662 202411,202463,202437
 8.2000e+001 202515 -7.2617e+005 -3.2003e+006 -2.5581e+006 166662 202411,202489,202463
 8.2000e+001 202690 -1.7757e+004 -1.7394e+006 -6.8638e+005 166322 202589,202641,202615
 8.2000e+001 202667 -3.5572e+003 -9.8734e+005 -8.3199e+004 166322 202563,202641,202589
 8.2000e+001 202891 -8.4387e+004 -5.4225e+004 -1.1148e+004 165918 202715,202767,202741
 8.2000e+001 202868 -1.4725e+005 -4.3789e+005 -2.7344e+005 165918 202715,202793,202767
 8.2000e+001 202845 -3.0966e+005 -6.0899e+005 -1.6589e+005 165918 202715,202819,202793
 8.2000e+001 203092  1.4355e+005 -2.2480e+006 -3.4306e+005 165628 202916,202968,202942
 8.2000e+001 203069 -4.6976e+004 -1.4367e+006 -3.9176e+005 165628 202916,202994,202968
 8.2000e+001 203046 -2.4099e+005 -1.2656e+006 -5.5189e+005 165628 202916,203020,202994
 8.2000e+001 203293 -3.5171e+006 -1.8964e+006 -2.5363e+006 165266 203143,203195,203169
 8.2000e+001 203270 -1.4024e+006 -5.0421e+006 -5.6253e+005 165266 203143,203221,203195
 8.2000e+001 203247 -9.1883e+005 -5.4031e+006 -9.8447e+005 165266 203117,203221,203143
 8.2000e+001 203445 -2.6229e+005 -1.2128e+006  4.6825e+005 164826 203318,203370,203344
 8.2000e+001 203422 -9.2144e+004 -7.7007e+005 -4.6223e+004 164826 203318,203396,203370
 8.2000e+001 203597 -7.7099e+005 -5.4527e+005 -1.8962e+005 164386 203470,203522,203496
 8.2000e+001 203574 -1.2910e+006 -2.0575e+006 -6.6814e+005 164386 203470,203548,203522
 8.2000e+001 203798 -2.3226e+005 -2.4360e+004 -1.3516e+004 163996 203622,203674,203648
 8.2000e+001 203775 -7.6321e+005 -8.6600e+003  1.4736e+005 163996 203622,203726,203674
 8.2000e+001 203752 -7.3014e+005 -2.9817e+003 -4.7351e+004 163996 203674,203726,203700
 8.2000e+001 203901 -5.1964e+005 -7.9576e+005  1.2429e+004 163770 203823,203875,203849
 8.2000e+001 204053 -1.6254e+006 -2.3581e+006 -8.3009e+005 163474 203952,204004,203978
 8.2000e+001 204030 -1.6827e+006 -2.5307e+006 -1.1068e+006 163474 203926,204004,203952
 8.2000e+001 204205 -2.9763e+005 -1.4159e+006 -1.9815e+005 163034 204104,204156,204130
 8.2000e+001 204182 -4.7839e+005 -1.8591e+006 -6.9509e+005 163034 204078,204156,204104
 8.2000e+001 204357 -9.2829e+004 -1.1509e+004  3.2652e+004 162624 204256,204308,204282
 8.2000e+001 204334 -9.2836e+004 -1.1536e+004  3.2655e+004 162624 204230,204308,204256
 8.2000e+001 204509  2.2761e+002  9.8832e+001 -2.5865e+002 162200 204382,204434,204408
 8.2000e+001 204486  3.7788e+002 -1.1243e+002  8.3119e+001 162200 204382,204460,204434
 8.2000e+001 204710 -2.0778e+006 -3.0528e+005  1.9631e+005 161810 204560,204638,204586
 8.2000e+001 204687 -1.4608e+006 -1.0309e+006 -8.2940e+005 161810 204534,204638,204560
 8.2000e+001 204664 -1.7669e+006 -2.6239e+005  5.7808e+005 161810 204586,204638,204612
 8.2000e+001 204862 -7.2913e+005 -7.6895e+005 -6.0275e+005 161406 204735,204787,204761
 8.2000e+001 204839 -5.0510e+005 -7.9678e+005 -6.3410e+005 161406 204735,204813,204787
 8.2000e+001 205014 -1.0347e+003 -5.6261e+003  1.8561e+003 161180 204887,204939,204913
 8.2000e+001 204991 -5.8115e+002 -1.9794e+003 -2.1963e+002 161180 204887,204965,204939
 8.2000e+001 205215 -4.3890e+005 -1.1506e+006 -1.6295e+006 160726 205039,205091,205065
 8.2000e+001 205192 -6.8617e+005 -2.2182e+006 -1.4044e+006 160726 205039,205143,205091
 8.2000e+001 205169 -1.4158e+006 -2.8316e+006 -1.9348e+006 160726 205091,205143,205117
 8.2000e+001 205416 -4.3006e-001  9.3585e-002 -1.0835e-002 160272 205292,205344,205318
 8.2000e+001 205393  2.0277e-001  2.3357e-001 -2.5678e-001 160272 205240,205344,205292
 8.2000e+001 205370 -7.5993e-002  3.9033e-002 -2.0808e-002 160272 205240,205292,205266
 8.2000e+001 205568 -7.2464e+002 -8.3857e+003  6.1068e+002 159932 205441,205493,205467
 8.2000e+001 205545 -3.6575e+002 -5.4851e+003  5.7521e+002 159932 205441,205519,205493
 8.2000e+001 205720  4.4153e+001  3.8724e+002 -1.0283e+002 159542 205593,205645,205619
 8.2000e+001 205697  6.6109e+001  2.6749e+001 -2.4036e+002 159542 205593,205671,205645
 8.2000e+001 205872  8.4386e+002 -3.2938e+003 -4.4375e+002 159252 205745,205797,205771
 8.2000e+001 205849 -5.8336e+002 -8.6528e+003  4.4374e+002 159252 205745,205823,205797
 8.2000e+001 206024 -1.2855e+005 -8.8831e+005  3.5816e+005 159004 205923,205975,205949
 8.2000e+001 206001 -7.0922e+004 -1.6016e+006  5.1366e+005 159004 205897,205975,205923
 8.2000e+001 206127 -4.6010e+006 -3.8822e+006  3.8162e+003 158364 206049,206101,206075
 8.2000e+001 206328 -9.7622e+002 -3.6733e+002  2.0220e+002 157960 206178,206256,206204
 8.2000e+001 206305  2.4851e+002 -5.0596e+002 -8.7872e+001 157960 206152,206256,206178
 8.2000e+001 206282 -5.9354e+001 -1.1206e+004 -1.3964e+002 157960 206204,206256,206230
 8.2000e+001 206529 -1.5993e+006 -4.1996e+006  1.0853e+006 157648 206405,206457,206431
 8.2000e+001 206506 -2.6086e+006 -1.1400e+006  9.3807e+005 157648 206379,206457,206405
 8.2000e+001 206483 -2.6739e+006 -8.2654e+005  1.3308e+006 157648 206353,206457,206379
 8.2000e+001 206730 -6.7459e+004 -1.6948e+004  3.2413e+004 157208 206554,206606,206580
 8.2000e+001 206707 -3.2120e+004 -9.3720e+003  1.5544e+004 157208 206554,206632,206606
 8.2000e+001 206684 -9.7406e+004 -2.2156e+004  4.1538e+004 157208 206554,206658,206632
 8.2000e+001 206882 -2.0249e+001 -4.9018e+003  6.5243e+002 157010 206755,206807,206781
 8.2000e+001 206859 -2.7934e+002 -3.6396e+003  6.1695e+001 157010 206755,206833,206807
 8.2000e+001 207034  1.2238e+001 -7.9196e+001 -4.4462e+001 156620 206907,206959,206933
 8.2000e+001 207011 -6.5308e+001 -2.4200e+001 -7.1056e+000 156620 206907,206985,206959
 8.2000e+001 207186 -1.9078e+005 -1.1721e+006 -1.2024e+005 156330 207085,207137,207111
 8.2000e+001 207163 -5.3769e+005 -1.3559e+006 -1.2446e+006 156330 207059,207137,207085
 8.2000e+001 207387 -6.9234e+005 -1.1549e+006 -2.2989e+005 155890 207211,207289,207237
 8.2000e+001 207364 -1.4097e+006 -1.3590e+006 -6.9739e+005 155890 207211,207315,207289
 8.2000e+001 207341 -2.9976e+005 -7.6852e+005  3.5767e+004 155890 207237,207289,207263
 8.2000e+001 207588 -5.9055e+005 -1.9584e+007  7.4211e+006 155436 207438,207490,207464
 8.2000e+001 207565 -1.2110e+006 -1.3670e+007 -9.2659e+005 155436 207412,207490,207438
 8.2000e+001 207542 -2.5674e+006 -6.4484e+006 -1.0946e+006 155436 207412,207516,207490
 8.2000e+001 207789  1.6589e+006 -2.8614e+007 -1.9224e+006 155260 207639,207691,207665
 8.2000e+001 207766 -3.6618e+006 -8.6890e+006  4.3871e+006 155260 207613,207691,207639
 8.2000e+001 207743 -1.4691e+006 -6.3786e+006 -9.4146e+004 155260 207613,207717,207691
 8.2000e+001 207990 -2.6427e+003 -6.6578e+003  2.7493e+003 154920 207840,207918,207892
 8.2000e+001 207967  1.0411e+003 -7.7571e+003 -6.9928e+003 154920 207814,207918,207840
 8.2000e+001 207944  8.2056e+003 -1.5735e+004  6.2649e+003 154920 207840,207892,207866
 8.2000e+001 208191 -9.6990e+001 -5.4525e+003  6.3572e+002 154630 208015,208093,208041
 8.2000e+001 208168 -2.6455e+002 -5.6082e+003  8.2094e+002 154630 208015,208119,208093
 8.2000e+001 208145 -1.0462e+003 -1.6073e+003 -9.4622e+002 154630 208041,208093,208067
 8.2000e+001 208343 -1.5456e+002 -1.0235e+004  1.0619e+003 154240 208216,208268,208242
 8.2000e+001 208320 -8.3880e+001 -9.4918e+003  7.0413e+002 154240 208216,208294,208268
 8.2000e+001 208495  5.8639e+005 -4.5612e+006 -1.4199e+006 153950 208394,208446,208420
 8.2000e+001 208472 -3.2199e+005 -1.5950e+006  5.8325e+005 153950 208368,208446,208394
 8.2000e+001 208647 -9.7232e+005 -5.0827e+005  1.5425e+006 153603 208520,208572,208546
 8.2000e+001 208624 -1.1509e+006 -1.3941e+006 -1.0850e+006 153603 208520,208598,208572
 8.2000e+001 208848 -1.0742e+006 -4.3785e+005  9.3132e+004 153149 208698,208776,208724
 8.2000e+001 208825 -2.5709e+006  1.0487e+005  1.9767e+005 153149 208672,208776,208698
 8.2000e+001 208802 -5.7754e+005 -2.5756e+005  3.8794e+005 153149 208724,208776,208750
 8.2000e+001 209000  1.6298e+004 -1.6586e+006  4.5821e+004 152859 208873,208925,208899
 8.2000e+001 208977  6.7208e+005 -2.4787e+006 -3.6888e+003 152859 208873,208951,208925
 8.2000e+001 209152  9.1309e+004 -2.2591e+006 -9.6251e+004 152569 209051,209103,209077
 8.2000e+001 209129  4.2498e+004 -2.0860e+006 -5.3807e+003 152569 209025,209103,209051
 8.2000e+001 209304 -1.4468e+003 -3.8043e+003 -2.0345e+003 152065 209177,209229,209203
 8.2000e+001 209281  4.4652e+003 -1.8528e+004 -5.6633e+002 152065 209177,209255,209229
 8.2000e+001 209456 -2.5658e+006 -2.1463e+006 -3.8912e+005 151775 209355,209407,209381
 8.2000e+001 209433 -2.0305e+006 -3.2081e+006 -1.5091e+005 151775 209329,209407,209355
 8.2000e+001 209608 -8.6849e+005 -3.8027e+006 -1.0658e+006 151371 209481,209533,209507
 8.2000e+001 209585  6.0075e+005 -6.4255e+006 -4.1093e+005 151371 209481,209559,209533
 8.2000e+001 209760 -2.3492e+002  1.2428e+002 -1.6846e+003 150981 209659,209711,209685
 8.2000e+001 209737  1.4709e+003  7.8356e+002 -1.1647e+003 150981 209633,209711,209659
 8.2000e+001 209912  2.1686e+006 -2.9531e+007 -2.6288e+006 150619 209811,209863,209837
 8.2000e+001 209889 -2.7500e+006 -1.2175e+007  3.3339e+006 150619 209785,209863,209811
 8.2000e+001 210064 -2.6504e+003 -3.7260e+004  5.0399e+003 150279 209937,209989,209963
 8.2000e+001 210041  1.4864e+003 -4.1654e+003  1.1575e+003 150279 209937,210015,209989
 8.2000e+001 210265 -3.1156e+006 -4.9920e+006 -2.0724e+005 149989 210115,210167,210141
 8.2000e+001 210242 -1.6043e+006 -5.9613e+006 -1.4468e+006 149989 210115,210193,210167
 8.2000e+001 210219 -8.2876e+005 -5.2269e+006 -8.9246e+005 149989 210089,210193,210115
 8.2000e+001 210417 -2.6791e+004 -2.0992e+004  1.1025e+004 149599 210316,210368,210342
 8.2000e+001 210394 -1.1022e+004 -2.2664e+004  1.3968e+004 149599 210290,210368,210316
 8.2000e+001 210618 -3.3197e+006 -1.3085e+007  3.4877e+006 149095 210468,210520,210494
 8.2000e+001 210595 -2.9084e+006 -1.2917e+007  2.8160e+006 149095 210442,210520,210468
 8.2000e+001 210572 -1.3406e+006 -1.5043e+007  2.5138e+006 149095 210442,210546,210520
 8.2000e+001 210819  6.2325e+001 -3.2265e+001  2.7090e+001 148748 210695,210747,210721
 8.2000e+001 210796  6.6662e+001 -6.8378e+001  5.2103e+001 148748 210669,210747,210695
 8.2000e+001 210773  6.2870e+002 -3.6493e+002 -7.6661e+001 148748 210643,210747,210669
 8.2000e+001 210971  3.7298e+001  7.8787e+001 -1.3724e+002 148408 210870,210922,210896
 8.2000e+001 210948  5.5361e+001  5.0997e+001 -1.2551e+002 148408 210844,210922,210870
 8.2000e+001 211123 -1.8609e+005 -1.5145e+006  4.1360e+005 148118 210996,211048,211022
 8.2000e+001 211100 -7.2113e+005 -1.4694e+006  9.5254e+005 148118 210996,211074,211048
 8.2000e+001 211275 -5.4005e+005 -1.1005e+006  5.8248e+005 147778 211148,211200,211174
 8.2000e+001 211252 -7.9290e+005 -2.1691e+006  1.3815e+006 147778 211148,211226,211200
 8.2000e+001 211427 -1.0952e+005 -1.9151e+005  1.2946e+005 147324 211326,211378,211352
 8.2000e+001 211404  1.5955e+003 -3.1384e+005  1.1001e+005 147324 211300,211378,211326
 8.2000e+001 211628 -2.2102e+006 -1.2796e+006  9.3224e+005 147012 211452,211504,211478
 8.2000e+001 211605 -2.1716e+006  8.7513e+005  1.3158e+006 147012 211452,211556,211504
 8.2000e+001 211582 -2.1211e+006 -3.8625e+005  1.7794e+006 147012 211504,211556,211530
 8.2000e+001 211829 -2.4596e+005 -1.0915e+006  4.8328e+005 146636 211679,211757,211731
 8.2000e+001 211806 -1.8817e+005 -1.1025e+006  4.9455e+005 146636 211653,211757,211679
 8.2000e+001 211783 -4.9451e+005 -1.3501e+006  7.8756e+005 146636 211679,211731,211705
 8.2000e+001 211981 -3.3797e+002 -3.1649e+002 -4.0353e+002 146246 211880,211932,211906
 8.2000e+001 211958  2.2014e+002 -9.7294e+002  2.2064e+001 146246 211854,211932,211880
 8.2000e+001 212133 -4.8715e+002 -4.1648e+001 -1.6463e+002 145956 212006,212058,212032
 8.2000e+001 212110 -5.0341e+002 -1.1591e+002 -1.3046e+002 145956 212006,212084,212058
 8.2000e+001 212285  4.4879e+002 -2.0805e+002 -1.0065e+002 145544 212184,212236,212210
 8.2000e+001 212262  3.5186e+002  1.9888e+002 -2.2459e+002 145544 212158,212236,212184
 8.2000e+001 212486 -6.0622e+005 -1.6102e+007  3.9673e+006 144990 212362,212414,212388
 8.2000e+001 212463  2.7728e+005 -1.3220e+007  5.6291e+006 144990 212310,212414,212362
 8.2000e+001 212440 -4.9871e+006 -3.1878e+006  1.9972e+006 144990 212310,212362,212336
 8.2000e+001 212638  4.1490e+003 -4.0881e+004  1.0299e+004 144600 212537,212589,212563
 8.2000e+001 212615  2.7598e+003 -3.0794e+004  1.7632e+004 144600 212511,212589,212537
 8.2000e+001 212839 -3.1648e+005 -1.7846e+006  5.0344e+005 144210 212689,212741,212715
 8.2000e+001 212816 -4.5553e+005 -2.0304e+006  8.6915e+005 144210 212663,212741,212689
 8.2000e+001 212793 -4.7210e+005 -2.0961e+006  8.8916e+005 144210 212663,212767,212741
 8.2000e+001 212991  1.4971e-001  1.5067e-002  3.2566e-001 143920 212890,212942,212916
 8.2000e+001 212968  6.9414e-002 -2.5636e-001 -2.5458e-001 143920 212864,212942,212890
 8.2000e+001 213143  1.8538e+001  1.4598e+001  1.7049e+002 143480 213016,213068,213042
 8.2000e+001 213120  4.8901e+002  3.0127e+002 -5.8415e+001 143480 213016,213094,213068
 8.2000e+001 213295 -1.0712e+005 -4.4467e+005  2.0617e+005 142990 213194,213246,213220
 8.2000e+001 213272 -7.5023e+004 -2.4482e+005  9.0432e+004 142990 213168,213246,213194
 8.2000e+001 213447  2.4356e+005 -1.1240e+006  6.2919e+005 142600 213320,213372,213346
 8.2000e+001 213424 -1.9858e+005 -1.2562e+006  7.2126e+005 142600 213320,213398,213372
 8.2000e+001 213599  8.8103e+003 -5.6100e+004 -5.2632e+003 142260 213472,213524,213498
 8.2000e+001 213576 -1.5966e+004 -5.9939e+004  3.1497e+004 142260 213472,213550,213524
 8.2000e+001 213751 -4.6487e+004 -1.3742e+005 -7.4075e+004 141870 213624,213676,213650
 8.2000e+001 213728 -7.3144e+004 -1.4782e+005 -6.5230e+004 141870 213624,213702,213676
 8.2000e+001 213903 -1.8456e+006 -2.1765e+006 -1.9937e+006 141530 213776,213828,213802
 8.2000e+001 213880 -5.0630e+005 -2.5313e+006 -9.9742e+005 141530 213776,213854,213828
 8.2000e+001 214055 -5.0218e+006 -9.3233e+004  6.0598e+005 141218 213928,213980,213954
 8.2000e+001 214032 -3.0450e+006 -6.1281e+005  1.7340e+005 141218 213928,214006,213980
 8.2000e+001 214207  3.7046e+002  3.3088e+002 -2.4526e+002 140928 214080,214132,214106
 8.2000e+001 214184 -3.8426e+001  2.2750e+002 -1.8862e+002 140928 214080,214158,214132
 8.2000e+001 214359 -5.3650e+003 -2.5025e+004 -9.9724e+002 140538 214232,214284,214258
 8.2000e+001 214336 -5.6914e+003 -1.1023e+005  4.5024e+004 140538 214232,214310,214284
 8.2000e+001 214560 -5.1279e+005 -5.1874e+006  1.3080e+006 140248 214384,214462,214410
 8.2000e+001 214537 -3.2470e+004 -2.6738e+006  5.9151e+005 140248 214384,214488,214462
 8.2000e+001 214514 -4.0322e+005 -3.3013e+006 -4.4754e+003 140248 214410,214462,214436
 8.2000e+001 214712 -4.9309e+004 -2.1930e+005  1.2886e+005 140000 214611,214663,214637
 8.2000e+001 214689 -5.6859e+004 -2.2786e+005  1.1960e+005 140000 214585,214663,214611
 8.2000e+001 214913 -3.5772e+005 -2.3878e+006 -6.0865e+005 139596 214737,214815,214763
 8.2000e+001 214890 -3.1283e+005 -1.3307e+006  1.3023e+004 139596 214737,214841,214815
 8.2000e+001 214867  9.8951e+005 -8.1666e+006  8.8843e+005 139596 214763,214815,214789
 8.2000e+001 215016  2.5539e+002 -1.9249e+002  2.3615e+002 139420 214938,214990,214964
 8.2000e+001 215168 -3.8516e+006 -9.7213e+006  6.2751e+006 139130 215067,215119,215093
 8.2000e+001 215145 -2.2184e+006 -1.0989e+007  4.0529e+006 139130 215041,215119,215067
 8.2000e+001 215320 -2.4721e+006 -4.5570e+006  2.8619e+006 138790 215219,215271,215245
 8.2000e+001 215297 -2.1675e+006 -1.1287e+007  6.1215e+006 138790 215193,215271,215219
 8.2000e+001 215472 -6.6046e+004 -6.1610e+005  2.6560e+005 138514 215345,215397,215371
 8.2000e+001 215449 -7.2562e+004 -4.4569e+005  1.2411e+005 138514 215345,215423,215397
 8.2000e+001 215624 -3.3843e+005 -7.5409e+006  2.1365e+006 138174 215497,215549,215523
 8.2000e+001 215601 -4.2461e+005 -5.9598e+006  1.8450e+006 138174 215497,215575,215549
 8.2000e+001 215776 -3.1108e+004 -2.8739e+005 -1.0528e+005 137734 215649,215701,215675
 8.2000e+001 215753 -6.1645e+003 -3.0396e+005 -4.3105e+004 137734 215649,215727,215701
 8.2000e+001 215977  2.2612e+006 -8.9192e+006  8.6182e+005 137344 215801,215879,215827
 8.2000e+001 215954 -1.1330e+006 -1.7700e+006 -1.3389e+006 137344 215801,215905,215879
 8.2000e+001 215931  4.3638e+005 -1.2868e+007 -5.2981e+006 137344 215827,215879,215853
 8.2000e+001 216129 -5.0417e+005 -1.0833e+006  1.2792e+005 136940 216028,216080,216054
 8.2000e+001 216106 -4.3720e+005 -1.9988e+006  6.8270e+005 136940 216002,216080,216028
 8.2000e+001 216330 -7.7889e+005 -7.8521e+006  1.3096e+006 136600 216180,216232,216206
 8.2000e+001 216307 -1.3104e+006 -8.0427e+006  3.5822e+006 136600 216154,216232,216180
 8.2000e+001 216284 -1.0863e+006 -4.4416e+006  1.3060e+006 136600 216154,216258,216232
 8.2000e+001 216482  4.4797e+005 -5.0760e+006  1.2954e+006 136260 216381,216433,216407
 8.2000e+001 216459 -1.4552e+005 -3.0375e+006  1.2093e+006 136260 216355,216433,216381
 8.2000e+001 216634 -1.0759e+005 -2.2629e+005  1.2686e+005 135970 216533,216585,216559
 8.2000e+001 216611 -7.0191e+004 -4.1370e+005  2.0501e+005 135970 216507,216585,216533
 8.2000e+001 216835 -1.6967e+005 -3.8542e+006  2.3113e+005 135608 216685,216763,216711
 8.2000e+001 216812  1.6681e+005 -4.2281e+006 -3.9330e+005 135608 216659,216763,216685
 8.2000e+001 216789 -3.9535e+004 -1.7166e+006  1.2753e+004 135608 216711,216763,216737
 8.2000e+001 217036 -4.2665e+005 -4.5725e+005  3.9326e+005 135312 216912,216964,216938
 8.2000e+001 217013 -4.0083e+005 -1.6226e+006  9.9348e+005 135312 216886,216964,216912
 8.2000e+001 216990  2.4355e+005 -3.1437e+006  7.0866e+005 135312 216860,216964,216886
 8.2000e+001 217237 -2.0436e+005 -1.3706e+006  4.6847e+005 134908 217061,217139,217113
 8.2000e+001 217214 -3.7901e+005 -1.4779e+006  8.0214e+005 134908 217061,217165,217139
 8.2000e+001 217191 -3.9416e+005 -1.7953e+006  6.8849e+005 134908 217061,217113,217087
 8.2000e+001 217438 -5.7402e+005 -1.1719e+007 -2.2331e+006 134568 217288,217366,217314
 8.2000e+001 217415 -1.2259e+006 -1.2209e+007 -2.5663e+006 134568 217262,217366,217288
 8.2000e+001 217392 -1.1193e+006 -1.4969e+007 -3.2248e+006 134568 217314,217366,217340
 8.2000e+001 217590 -1.0502e+005 -7.1072e+005  3.5644e+005 134106 217463,217515,217489
 8.2000e+001 217567 -9.1526e+004 -6.0528e+005  1.8443e+005 134106 217463,217541,217515
 8.2000e+001 217791  1.7506e+006  9.8053e+006  4.1432e+006 133816 217641,217693,217667
 8.2000e+001 217768 -2.2255e+006 -2.2013e+007 -6.9992e+006 133816 217641,217719,217693
 8.2000e+001 217745 -7.9267e+006 -1.9543e+006  3.9358e+006 133816 217615,217719,217641
 8.2000e+001 217992 -4.0516e+006 -5.3037e+006  5.3209e+006 133355 217842,217920,217894
 8.2000e+001 217969 -1.7746e+006 -9.4443e+006  3.9544e+006 133355 217816,217920,217842
 8.2000e+001 217946 -8.0454e+005 -2.9935e+006  5.0610e+005 133355 217842,217894,217868
 8.2000e+001 218193  1.8350e+005 -7.1046e+006  1.5857e+005 132851 218017,218095,218069
 8.2000e+001 218170 -5.7643e+006 -7.1341e+006  7.0074e+006 132851 218017,218121,218095
 8.2000e+001 218147 -1.8132e+006 -3.4565e+006 -9.8942e+005 132851 218017,218069,218043
 8.2000e+001 218345 -1.5496e+004 -8.2442e+004  2.6892e+004 132511 218244,218296,218270
 8.2000e+001 218322 -1.4547e+004 -2.4438e+005  7.0484e+004 132511 218218,218296,218244
 8.2000e+001 218497  2.2343e+006 -2.3823e+007  8.9222e+005 132235 218396,218448,218422
 8.2000e+001 218474  4.9178e+005 -9.8740e+006  1.4442e+006 132235 218370,218448,218396
 8.2000e+001 218698 -3.3698e+005 -7.8659e+006 -2.0668e+006 131945 218574,218626,218600
 8.2000e+001 218675 -1.5117e+006 -1.3852e+007 -1.7429e+006 131945 218522,218626,218574
 8.2000e+001 218652 -2.7177e+006 -6.2576e+006 -3.1615e+006 131945 218522,218574,218548
 8.2000e+001 218850 -4.8685e+005 -1.4407e+007  1.3120e+006 131655 218723,218775,218749
 8.2000e+001 218827  3.2885e+005 -1.1672e+007  7.3038e+005 131655 218723,218801,218775
 8.2000e+001 218953 -3.7768e+002 -9.1892e+001 -3.7045e+001 131215 218875,218927,218901
 8.2000e+001 219105 -1.1739e+005 -2.6312e+006 -9.1020e+004 130875 218978,219030,219004
 8.2000e+001 219082 -3.9648e+004 -1.2057e+006  4.8571e+004 130875 218978,219056,219030
 8.2000e+001 219306 -6.7869e+005 -1.6568e+006  3.1611e+005 130429 219156,219234,219208
 8.2000e+001 219283 -6.4323e+005 -1.2936e+006  4.1414e+005 130429 219130,219234,219156
 8.2000e+001 219260 -1.8666e+006 -1.9841e+006  1.2812e+006 130429 219156,219208,219182
 8.2000e+001 219507 -5.7407e+005 -1.8753e+006  8.7940e+005 130025 219383,219435,219409
 8.2000e+001 219484 -5.3601e+005 -2.3223e+006  1.0910e+006 130025 219331,219435,219383
 8.2000e+001 219461 -5.1786e+005 -1.5443e+006  7.2027e+005 130025 219331,219383,219357
 8.2000e+001 219659 -1.1204e-002 -8.0417e-001  9.4919e-002 129685 219558,219610,219584
 8.2000e+001 219636  2.5788e-002  1.8510e+000 -2.1848e-001 129685 219532,219610,219558
 8.2000e+001 219860 -3.6997e+005 -1.2136e+006  7.7358e+005 129395 219710,219788,219762
 8.2000e+001 219837 -2.6083e+005 -1.6523e+006  8.1647e+005 129395 219684,219788,219710
 8.2000e+001 219814 -2.1921e+005 -1.5172e+006  5.6408e+005 129395 219710,219762,219736
 8.2000e+001 220061  5.6948e+003 -1.0187e+005  5.7106e+004 128991 219937,219989,219963
 8.2000e+001 220038  3.2471e+003 -1.8882e+005  4.4232e+004 128991 219885,219989,219937
 8.2000e+001 220015 -8.5590e+003 -2.4335e+005  8.5682e+004 128991 219885,219937,219911
 8.2000e+001 220262 -4.4492e+004 -5.5802e+004  8.8918e+003 128701 220086,220164,220112
 8.2000e+001 220239 -1.8434e+004 -1.7850e+005  7.3058e+004 128701 220086,220190,220164
 8.2000e+001 220216 -4.3021e+003 -4.5096e+004  1.4662e+004 128701 220112,220164,220138
 8.2000e+001 220463 -3.5519e+006 -1.0032e+007  4.8103e+006 128297 220339,220391,220365
 8.2000e+001 220440 -2.4227e+006 -1.1313e+007  4.4732e+006 128297 220313,220391,220339
 8.2000e+001 220417 -1.3315e+006 -1.5563e+007 -6.4040e+006 128297 220287,220391,220313
 8.2000e+001 220615 -5.8776e-002 -2.1001e-002 -3.5133e-002 128007 220488,220540,220514
 8.2000e+001 220592  6.3940e-002  2.2846e-002  3.8220e-002 128007 220488,220566,220540
 8.2000e+001 220767 -1.8457e+005 -3.8981e+006  6.8147e+005 127567 220640,220692,220666
 8.2000e+001 220744 -3.0541e+005 -2.6609e+006  5.5303e+005 127567 220640,220718,220692
 8.2000e+001 220919 -6.3747e+005 -1.3346e+007 -1.4732e+006 127163 220792,220844,220818
 8.2000e+001 220896 -6.1966e+005 -1.6837e+007  3.1481e+006 127163 220792,220870,220844
 8.2000e+001 221071 -3.2946e+006 -3.4737e+006  3.2929e+006 126915 220970,221022,220996
 8.2000e+001 221048 -1.6865e+006 -6.9164e+006  2.7416e+006 126915 220944,221022,220970
 8.2000e+001 221272 -2.3367e+006 -5.8321e+006  4.1970e+006 126461 221122,221174,221148
 8.2000e+001 221249  1.4783e+005 -6.3996e+006  1.0479e+006 126461 221122,221200,221174
 8.2000e+001 221226 -1.6436e+006 -3.3115e+006  2.3331e+006 126461 221096,221200,221122
 8.2000e+001 221375  4.3087e+000 -3.6599e+001  5.7852e-001 126213 221297,221349,221323
 8.2000e+001 221478 -8.3397e-313  1.5816e-313  1.6237e-312 125766 221400,221452,221426
 8.2000e+001 221679 -1.4847e+004 -1.1500e+005  3.5330e+004 125212 221503,221555,221529
 8.2000e+001 221656 -7.9345e+003 -9.8774e+004  2.8611e+004 125212 221503,221581,221555
 8.2000e+001 221633 -2.7727e+004 -2.9369e+005  1.3362e+005 125212 221503,221607,221581
 8.2000e+001 221929 -1.4056e+001  5.6931e+002 -1.1662e+002 124872 221782,221834,221808
 8.2000e+001 221906  5.7696e+001  5.2781e+002 -1.8832e+002 124872 221756,221834,221782
 8.2000e+001 221883  2.0137e+002  3.2149e+002  9.1875e+001 124872 221704,221834,221756
 8.2000e+001 221860 -3.8919e+001  5.2889e+001  3.5812e+002 124872 221704,221756,221730
 8.2000e+001 222130 -1.3403e+006 -6.5328e+006 -1.2901e+005 124582 221980,222058,222006
 8.2000e+001 222107 -2.7942e+006 -5.4603e+006  6.8478e+005 124582 221954,222058,221980
 8.2000e+001 222084 -2.3889e+006 -6.5921e+006 -6.1696e+005 124582 222006,222058,222032
 8.2000e+001 222282 -2.2111e+006 -4.9725e+006 -4.0828e+005 124192 222181,222233,222207
 8.2000e+001 222259 -3.3594e+005 -3.9863e+006  3.5881e+005 124192 222155,222233,222181
 8.2000e+001 222483 -4.5166e+004 -5.2766e+004  6.9802e+003 123702 222333,222385,222359
 8.2000e+001 222460 -6.8525e+003 -4.1957e+004  1.3549e+004 123702 222333,222411,222385
 8.2000e+001 222437 -6.9357e+003 -7.3161e+003  1.7780e+003 123702 222307,222411,222333
 8.2000e+001 222635  1.6523e+002 -5.0178e+001 -8.7350e+001 123312 222508,222560,222534
 8.2000e+001 222612  1.8059e+002  3.7411e+001 -1.1047e+002 123312 222508,222586,222560
 8.2000e+001 222787 -2.1701e+000 -9.4516e-002  4.3352e-001 122858 222686,222738,222712
 8.2000e+001 222764  7.3965e-001  3.3406e-002 -1.5660e-001 122858 222660,222738,222686
 8.2000e+001 222939 -1.3590e+004 -3.2566e+005 -1.5802e+003 122568 222812,222864,222838
 8.2000e+001 222916  2.0111e+004 -1.8825e+005 -6.2521e+003 122568 222812,222890,222864
 8.2000e+001 223091 -5.4028e+004 -7.5900e+004  6.2910e+004 122392 222964,223016,222990
 8.2000e+001 223068 -6.3609e+004 -4.4708e+004  2.3667e+004 122392 222964,223042,223016
 8.2000e+001 223292 -3.7753e+005 -1.1128e+006  2.5783e+005 121852 223142,223220,223194
 8.2000e+001 223269 -1.9985e+006 -4.5636e+005  3.7036e+005 121852 223116,223220,223142
 8.2000e+001 223246 -1.2877e+006 -1.1065e+006 -9.4648e+005 121852 223142,223194,223168
 8.2000e+001 223493 -1.3151e+006 -4.9081e+005  8.0895e+005 121406 223343,223395,223369
 8.2000e+001 223470 -1.4138e+006 -5.3788e+005  8.5249e+005 121406 223343,223421,223395
 8.2000e+001 223447 -5.7746e+005 -7.7314e+005  5.5682e+005 121406 223317,223421,223343
 8.2000e+001 223645  2.7374e+005 -1.5337e+007  3.3606e+006 121002 223544,223596,223570
 8.2000e+001 223622 -1.3919e+006 -1.2211e+007  3.1968e+006 121002 223518,223596,223544
 8.2000e+001 223846  2.5182e-001  5.5747e-001  5.9069e-001 120662 223670,223748,223696
 8.2000e+001 223823 -1.3691e-001  4.1787e-003  1.9810e-001 120662 223670,223774,223748
 8.2000e+001 223800 -9.2103e-001 -1.2189e+000 -1.0093e+000 120662 223696,223748,223722
 8.2000e+001 224047 -9.9077e-001 -2.5067e+000  1.4075e+000 120222 223897,223949,223923
 8.2000e+001 224024  1.0711e+000  2.3814e+000  5.0100e-001 120222 223871,223949,223897
 8.2000e+001 224001 -2.0077e+000 -3.3197e+000 -2.5277e+000 120222 223871,223975,223949
 8.2000e+001 224248  7.9457e+001 -4.2333e+001 -2.3212e+001 119875 224124,224176,224150
 8.2000e+001 224225  2.0018e+001  5.5938e+001 -3.4269e+001 119875 224098,224176,224124
 8.2000e+001 224202  1.4741e+002 -6.3071e+000 -1.2185e+002 119875 224072,224176,224098
 8.2000e+001 224449  1.3106e+000  1.9292e-001 -1.3674e-001 119677 224325,224377,224351
 8.2000e+001 224426  1.3653e+000  9.4647e-001 -2.1310e+000 119677 224299,224377,224325
 8.2000e+001 224403 -1.1185e+001 -2.8524e+000  5.1734e+000 119677 224273,224377,224299
 8.2000e+001 224552 -7.2879e-001 -3.7018e-001 -5.2112e-001 119273 224474,224526,224500
 8.2000e+001 224704 -5.1461e+004 -3.0684e+005  1.2520e+005 118983 224603,224655,224629
 8.2000e+001 224681 -5.3528e+004 -3.0330e+005  1.2735e+005 118983 224577,224655,224603
 8.2000e+001 224856 -4.5272e+005  4.6321e+003 -1.5601e+003 118529 224755,224807,224781
 8.2000e+001 224833  5.0102e+004 -5.9334e+005  1.6239e+005 118529 224729,224807,224755
 8.2000e+001 225008 -5.8779e-002 -3.1756e-001 -4.7558e-002 118353 224881,224933,224907
 8.2000e+001 224985  1.6790e-001  4.2172e-002  7.4549e-002 118353 224881,224959,224933
 8.2000e+001 225209 -1.3998e+006 -5.6833e+006 -1.5069e+006 117949 225059,225137,225111
 8.2000e+001 225186 -2.5340e+005 -3.8902e+006  9.7065e+005 117949 225033,225137,225059
 8.2000e+001 225163  9.1102e+005 -1.2112e+007  1.8300e+006 117949 225059,225111,225085
 8.2000e+001 225410  9.8428e+004 -8.6186e+006  6.0348e+005 117559 225260,225338,225312
 8.2000e+001 225387 -2.9193e+006 -9.3585e+006  4.8008e+005 117559 225234,225338,225260
 8.2000e+001 225364 -6.9728e+005 -6.4330e+006 -2.1178e+006 117559 225260,225312,225286
 8.2000e+001 225611 -1.8689e+006 -1.2989e+007 -4.1656e+006 117361 225461,225513,225487
 8.2000e+001 225588 -3.1836e+006 -1.4382e+007  2.1049e+006 117361 225461,225539,225513
 8.2000e+001 225565 -8.2930e+005 -1.5474e+007  1.4864e+006 117361 225435,225539,225461
 8.2000e+001 225812  3.1411e+005 -1.0767e+007 -5.2189e+005 116900 225636,225714,225662
 8.2000e+001 225789 -3.1591e+006 -3.3400e+006 -1.4434e+006 116900 225636,225740,225714
 8.2000e+001 225766 -5.4279e+001 -1.0847e+007 -7.9858e+003 116900 225662,225714,225688
 8.2000e+001 225964 -2.5023e+004 -7.9364e+006  3.4698e+004 116560 225837,225889,225863
 8.2000e+001 225941  3.3773e+005 -8.5969e+006  1.2320e+005 116560 225837,225915,225889
 8.2000e+001 226165  6.4669e-001  2.8590e+000 -3.9431e-001 116106 226015,226093,226041
 8.2000e+001 226142 -5.4462e-001 -1.0525e+000 -2.5434e-001 116106 225989,226093,226015
 8.2000e+001 226119  1.8976e-001 -2.2009e+000  1.1107e+000 116106 226041,226093,226067
 8.2000e+001 226268 -1.9031e+006 -4.8942e+006  1.3907e+006 115716 226190,226242,226216
 8.2000e+001 226420 -1.9606e+005 -1.3733e+007  2.5358e+006 115376 226293,226345,226319
 8.2000e+001 226397 -7.7615e+005 -1.5036e+007  4.7351e+006 115376 226293,226371,226345
 8.2000e+001 226621 -1.0203e+006 -2.8708e+006  6.8535e+005 114972 226497,226549,226523
 8.2000e+001 226598 -5.7119e+005 -1.4848e+007 -3.3029e+005 114972 226445,226549,226497
 8.2000e+001 226575  4.2692e+005 -7.6069e+006  1.0426e+006 114972 226445,226497,226471
 8.2000e+001 226773 -1.1116e+006 -4.9158e+006 -1.6850e+006 114670 226646,226698,226672
 8.2000e+001 226750  7.0610e+005 -1.0376e+007  1.1209e+006 114670 226646,226724,226698
 8.2000e+001 226974  7.7905e+004 -3.6617e+006 -6.1439e+005 114082 226798,226850,226824
 8.2000e+001 226951  2.1098e+005 -4.9379e+006 -1.5799e+005 114082 226798,226902,226850
 8.2000e+001 226928  5.6649e+004 -6.8017e+006 -6.2787e+005 114082 226850,226902,226876
 8.2000e+001 227175 -9.6980e+005 -7.2158e+006 -3.5313e+006 113678 226999,227051,227025
 8.2000e+001 227152 -1.6896e+006 -9.6554e+006 -4.0829e+006 113678 226999,227077,227051
 8.2000e+001 227129 -3.1672e+006 -4.9555e+006 -3.2619e+006 113678 226999,227103,227077
 8.2000e+001 227425 -3.3093e+006 -7.0327e+006 -6.9074e+006 113274 227226,227278,227252
 8.2000e+001 227402  1.4961e+005 -6.7684e+006 -1.2684e+006 113274 227226,227330,227278
 8.2000e+001 227379 -2.0071e+006 -2.6749e+006 -6.8453e+005 113274 227200,227330,227226
 8.2000e+001 227356 -1.1338e+006 -5.8427e+005 -8.4441e+005 113274 227278,227330,227304
 8.2000e+001 227626 -1.8923e+006 -4.3877e+006 -4.1465e+006 112934 227502,227554,227528
 8.2000e+001 227603  9.8137e+005 -3.8769e+006 -5.8146e+005 112934 227450,227554,227502
 8.2000e+001 227580 -2.5745e+006 -6.2175e+005  1.3555e+006 112934 227450,227502,227476
 8.2000e+001 227876 -1.8101e+005 -2.0431e+006 -1.9399e+005 112437 227677,227755,227703
 8.2000e+001 227853 -1.3732e+006 -2.4997e+006  1.5928e+006 112437 227677,227781,227755
 8.2000e+001 227830 -2.8130e+005 -9.9892e+005  3.9404e+005 112437 227703,227755,227729
 8.2000e+001 227807 -2.4796e+005 -9.3471e+006 -6.8647e+005 112437 227651,227781,227677
 8.2000e+001 228126 -3.4096e+005 -5.4251e+006 -4.8856e+005 112041 227927,228005,227953
 8.2000e+001 228103 -5.3073e+005 -5.8654e+006 -7.6215e+005 112041 227927,228031,228005
 8.2000e+001 228080 -2.1020e+005 -6.3118e+006 -4.1620e+005 112041 227953,228005,227979
 8.2000e+001 228057 -1.0767e+006 -4.5865e+006 -1.1203e+006 112041 227901,228031,227927
 8.2000e+001 228327 -3.1678e+006 -4.1393e+006  1.0317e+005 111693 228151,228203,228177
 8.2000e+001 228304 -8.9244e+004 -2.8210e+006 -1.8525e+006 111693 228151,228229,228203
 8.2000e+001 228281  9.5901e+005 -7.3932e+006  1.5268e+006 111693 228151,228255,228229
 8.2000e+001 228479 -8.7530e+005 -4.2631e+005 -8.4200e+005 111253 228352,228404,228378
 8.2000e+001 228456 -5.5844e+005 -5.7688e+004  3.5213e+004 111253 228352,228430,228404
 8.2000e+001 228582 -2.0095e-002 -1.7915e-002 -1.7345e-002 110906 228504,228556,228530
 8.2000e+001 228783 -6.3413e+003 -1.7924e+006 -6.4855e+004 110416 228633,228711,228659
 8.2000e+001 228760  2.8054e+004 -1.6586e+006 -5.5401e+004 110416 228607,228711,228633
 8.2000e+001 228737  5.0303e+004 -2.0740e+006 -1.0392e+005 110416 228659,228711,228685
 8.2000e+001 228935 -4.8121e+005 -4.7756e+006 -2.0351e+006 110012 228808,228860,228834
 8.2000e+001 228912 -2.1387e+006 -8.8669e+006 -3.2999e+006 110012 228808,228886,228860
 8.2000e+001 229087 -3.0199e+006 -3.5189e+006 -2.4608e+006 109672 228960,229012,228986
 8.2000e+001 229064  6.0029e+005 -8.2379e+006 -1.4243e+006 109672 228960,229038,229012
 8.2000e+001 229190 -2.3579e-002  5.8485e-002 -6.7571e-002 109332 229112,229164,229138
 8.2000e+001 229391  3.0983e+004 -2.6772e+005 -4.3837e+004 109156 229267,229319,229293
 8.2000e+001 229368 -7.8049e+004 -7.1413e+005 -8.8130e+004 109156 229215,229319,229267
 8.2000e+001 229345  1.5916e+004 -1.4380e+005 -1.6921e+004 109156 229215,229267,229241
 8.2000e+001 229543  9.1105e+005 -1.0299e+007  1.1668e+006 108752 229416,229468,229442
 8.2000e+001 229520 -4.9699e+005 -5.2864e+006 -4.9262e+005 108752 229416,229494,229468
 8.2000e+001 229744 -2.1734e+005 -6.0078e+006  1.6135e+003 108198 229594,229646,229620
 8.2000e+001 229721 -1.2444e+005 -5.9888e+006  6.0998e+004 108198 229594,229672,229646
 8.2000e+001 229698 -3.7458e+005 -6.7347e+006 -3.9069e+005 108198 229568,229672,229594
 8.2000e+001 229847 -8.4042e+003 -5.7516e+005 -9.1808e+004 107758 229769,229821,229795
 8.2000e+001 230048 -9.4676e+005 -3.3158e+006 -5.7677e+005 107468 229898,229950,229924
 8.2000e+001 230025 -7.8335e+005 -2.6960e+006  6.0738e+005 107468 229872,229950,229898
 8.2000e+001 230002 -1.5421e+006 -2.1680e+006  8.6771e+004 107468 229872,229976,229950
 8.2000e+001 230298  1.6144e+005 -1.6096e+006  8.9203e+005 107121 230099,230203,230177
 8.2000e+001 230275 -7.6143e+005 -1.3514e+006  1.8869e+005 107121 230073,230203,230099
 8.2000e+001 230252  9.2164e+005 -2.2968e+006 -6.6032e+005 107121 230099,230177,230151
 8.2000e+001 230229 -2.8947e+005 -2.3092e+006 -8.1746e+005 107121 230099,230151,230125
 8.2000e+001 230450 -2.9349e+005 -5.5385e+005  1.6192e+005 106823 230349,230401,230375
 8.2000e+001 230427 -6.0976e+003 -1.4393e+006  5.8400e+003 106823 230323,230401,230349
 8.2000e+001 230602 -5.0310e+006 -7.9522e+006 -8.8802e+006 106533 230501,230553,230527
 8.2000e+001 230579  2.9131e+006 -1.4893e+007  5.2210e+006 106533 230475,230553,230501
 8.2000e+001 230803 -8.7157e+004 -2.1192e+006 -5.5455e+004 106029 230679,230731,230705
 8.2000e+001 230780  5.0966e+004 -1.5592e+006 -4.2844e+004 106029 230653,230731,230679
 8.2000e+001 230757 -1.0633e+004 -1.9635e+006 -1.2369e+005 106029 230627,230731,230653
 8.2000e+001 231004 -2.0239e+005 -3.2338e+006  2.2555e+005 105689 230854,230906,230880
 8.2000e+001 230981  2.5851e+005 -3.9104e+006 -5.4396e+005 105689 230828,230906,230854
 8.2000e+001 230958 -6.5619e+005 -2.8807e+006 -1.3747e+006 105689 230828,230932,230906
 8.2000e+001 231156  2.0385e+005 -7.7487e+006 -2.1984e+005 105377 231055,231107,231081
 8.2000e+001 231133 -1.3821e+005 -6.0467e+006  2.6731e+005 105377 231029,231107,231055
 8.2000e+001 231406 -1.0811e+006 -7.3183e+006 -1.2079e+006 104858 231207,231259,231233
 8.2000e+001 231383 -1.8011e+006 -7.0929e+006 -1.7090e+006 104858 231207,231311,231259
 8.2000e+001 231360 -1.0601e+006 -8.6901e+006 -2.4171e+006 104858 231259,231311,231285
 8.2000e+001 231337 -1.0210e+006 -8.5814e+006 -1.9956e+006 104858 231181,231311,231207
 8.2000e+001 231558 -6.6882e+005 -1.8642e+007  5.8053e+005 104418 231457,231509,231483
 8.2000e+001 231535 -4.5775e+006 -1.8770e+007 -8.9366e+006 104418 231431,231509,231457
 8.2000e+001 231710 -3.3475e+006 -5.5906e+005 -1.4625e+005 103978 231583,231635,231609
 8.2000e+001 231687 -1.6761e+006 -9.4112e+005 -1.0614e+006 103978 231583,231661,231635
 8.2000e+001 231862 -1.3621e+006 -9.6936e+006 -1.1498e+006 103588 231761,231813,231787
 8.2000e+001 231839  1.8176e+005 -4.1134e+006 -3.4246e+005 103588 231735,231813,231761
 8.2000e+001 232014 -9.2743e+005 -7.9321e+006 -3.2236e+006 103248 231887,231939,231913
 8.2000e+001 231991 -2.1747e+006 -1.2916e+007 -4.9010e+006 103248 231887,231965,231939
 8.2000e+001 232215 -1.2162e+004 -1.5491e+004 -2.9509e+003 102844 232039,232117,232065
 8.2000e+001 232192 -9.7216e+003 -2.4265e+003 -2.4467e+003 102844 232039,232143,232117
 8.2000e+001 232169 -2.8668e+004 -1.6552e+004 -1.8507e+003 102844 232065,232117,232091
 8.2000e+001 232416 -2.8129e+006 -7.9626e+006 -3.6073e+006 102554 232240,232318,232292
 8.2000e+001 232393  5.5719e+005 -1.3022e+007 -5.1943e+005 102554 232240,232344,232318
 8.2000e+001 232370 -3.9920e+006 -2.5381e+006 -6.2372e+005 102554 232240,232292,232266
 8.2000e+001 232568 -4.7547e+004 -3.7535e+006  2.5739e+005 102100 232441,232493,232467
 8.2000e+001 232545  1.8414e+005 -3.7711e+006  5.3633e+005 102100 232441,232519,232493
 8.2000e+001 232769 -2.2997e+005 -2.4094e+006  4.9670e+005 101596 232645,232697,232671
 8.2000e+001 232746  6.3264e+004 -1.3253e+006  2.8025e+005 101596 232593,232697,232645
 8.2000e+001 232723 -9.8239e+004 -2.3144e+006  4.8368e+005 101596 232593,232645,232619
 8.2000e+001 232921 -2.2510e+005 -8.2746e+004  2.1221e+004 101420 232794,232846,232820
 8.2000e+001 232898 -2.4547e+005 -2.8534e+005  9.5774e+003 101420 232794,232872,232846
 8.2000e+001 233073 -1.3501e+006 -2.4911e+006 -4.9669e+005 101023 232946,232998,232972
 8.2000e+001 233050  4.2965e+005 -5.6759e+006  2.0078e+006 101023 232946,233024,232998
 8.2000e+001 233225  2.6613e+003 -2.5538e+004 -5.4582e+002 100661 233098,233150,233124
 8.2000e+001 233202 -3.7280e+003  1.1840e+004 -3.4661e+003 100661 233098,233176,233150
 8.2000e+001 233426 -1.5602e+006 -6.8843e+006 -2.3220e+006 100265 233276,233328,233302
 8.2000e+001 233403 -1.2078e+006 -6.3979e+006 -1.1933e+006 100265 233276,233354,233328
 8.2000e+001 233380 -1.2614e+006 -6.7122e+006 -1.2810e+006 100265 233250,233354,233276
 8.2000e+001 233578 -8.6439e+003 -2.3396e+006  1.4225e+005 100032 233451,233503,233477
 8.2000e+001 233555 -2.7647e+005 -2.3419e+006  5.6029e+005 100032 233451,233529,233503
 8.2000e+001 233681 -2.1433e+006  3.7143e+004 -1.2766e+005 99742 233603,233655,233629
 8.2000e+001 233784 -6.2872e+005 -1.5341e+006  3.9516e+005 99402 233706,233758,233732
 8.2000e+001 233936 -6.8919e+005 -1.5473e+006  6.8362e+005 99062 233835,233887,233861
 8.2000e+001 233913 -7.8119e+005 -1.9299e+006  7.4160e+005 99062 233809,233887,233835
 8.2000e+001 234088 -5.4394e+005 -1.0268e+006  3.8501e+005 98772 233987,234039,234013
 8.2000e+001 234065 -1.5696e+005 -9.6249e+005  3.4856e+005 98772 233961,234039,233987
 8.2000e+001 234240 -5.2881e+003 -9.3230e+004  2.5252e+004 98160 234139,234191,234165
 8.2000e+001 234217 -7.8409e+003 -1.0406e+005  2.5004e+004 98160 234113,234191,234139
 8.2000e+001 234441 -1.0295e+002 -2.7061e+002 -1.6102e+002 97820 234317,234369,234343
 8.2000e+001 234418 -1.0220e+002 -2.1324e+002 -6.0351e+001 97820 234291,234369,234317
 8.2000e+001 234395  2.1378e+002 -1.5610e+003 -4.4807e+001 97820 234265,234369,234291
 8.2000e+001 234593 -1.6077e+005 -1.0351e+006  1.0843e+005 97366 234466,234518,234492
 8.2000e+001 234570 -2.4559e+005 -1.4768e+006  1.9911e+005 97366 234466,234544,234518
 8.2000e+001 234794 -4.9311e+005 -6.2832e+005 -4.2576e+005 96976 234618,234670,234644
 8.2000e+001 234771 -1.1453e+005 -1.2901e+006 -3.6071e+005 96976 234618,234722,234670
 8.2000e+001 234748 -1.7334e+005 -1.2310e+006 -4.7749e+005 96976 234670,234722,234696
 8.2000e+001 234946 -4.9571e+005 -8.4988e+005  3.3680e+005 96568 234845,234897,234871
 8.2000e+001 234923 -3.8876e+005 -8.3753e+005  6.8484e+005 96568 234819,234897,234845
 8.2000e+001 235196 -1.3987e+004 -1.0843e+006 -8.0336e+003 96216 234997,235075,235049
 8.2000e+001 235173 -2.9098e+004 -1.4127e+006  1.3081e+005 96216 234997,235101,235075
 8.2000e+001 235150 -2.9650e+005 -2.2015e+006  8.3812e+004 96216 234997,235049,235023
 8.2000e+001 235127 -4.3808e+004 -1.3641e+006  2.4510e+005 96216 234971,235101,234997
 8.2000e+001 235348 -1.2167e+006 -1.8726e+006 -7.5598e+005 95863 235247,235299,235273
 8.2000e+001 235325 -9.5980e+005 -1.2600e+006 -5.3640e+005 95863 235221,235299,235247
 8.2000e+001 235500 -7.1683e+004 -5.7686e+005  1.0478e+005 95339 235373,235425,235399
 8.2000e+001 235477 -1.5756e+005 -7.6913e+005  9.5763e+005 95339 235373,235451,235425
 8.2000e+001 235701  1.5106e+005 -2.1873e+006  4.5960e+005 95023 235525,235577,235551
 8.2000e+001 235678 -1.9567e+003 -1.3849e+006 -2.0347e+005 95023 235525,235629,235577
 8.2000e+001 235655 -3.1104e+005 -1.0319e+006 -1.5862e+005 95023 235577,235629,235603
 8.2000e+001 235853  7.8437e+004 -1.3141e+007 -4.4397e+005 94671 235726,235778,235752
 8.2000e+001 235830  2.3301e+005 -1.4354e+007  4.6597e+005 94671 235726,235804,235778
 8.2000e+001 236005 -2.1673e+006 -6.8858e+006  1.0717e+006 94261 235904,235956,235930
 8.2000e+001 235982 -9.8810e+005 -1.2018e+007 -4.0354e+006 94261 235878,235956,235904
 8.2000e+001 236206 -1.7353e+006 -6.7146e+005  9.2448e+005 93853 236056,236134,236082
 8.2000e+001 236183 -2.2440e+006 -8.0381e+005  8.1272e+005 93853 236030,236134,236056
 8.2000e+001 236160 -1.4084e+006 -8.6779e+005  9.9154e+005 93853 236082,236134,236108
 8.2000e+001 236407 -1.5535e+006 -3.5609e+006  6.4223e+005 93557 236257,236309,236283
 8.2000e+001 236384 -2.8282e+006 -4.5260e+006 -2.5223e+006 93557 236231,236309,236257
 8.2000e+001 236361  1.4331e+006 -1.8993e+007  2.0913e+006 93557 236231,236335,236309
 8.2000e+001 236559  1.3966e+003 -2.4198e+004  7.7913e+003 93149 236432,236484,236458
 8.2000e+001 236536  3.3806e+003 -1.3824e+004  5.2805e+003 93149 236432,236510,236484
 8.2000e+001 236711 -1.7137e+005 -1.8966e+005  1.8454e+005 92853 236584,236636,236610
 8.2000e+001 236688 -1.0813e+005 -1.7859e+005  1.5740e+005 92853 236584,236662,236636
 8.2000e+001 236912 -1.6816e+005 -1.2505e+006  4.0600e+005 92501 236736,236788,236762
 8.2000e+001 236889 -3.3999e+005 -1.0693e+006  3.2006e+005 92501 236736,236840,236788
 8.2000e+001 236866 -2.2225e+005 -9.5647e+005  6.3054e+004 92501 236788,236840,236814
 8.2000e+001 237113 -7.9519e+004 -4.1600e+006  1.4304e+005 92291 236963,237041,237015
 8.2000e+001 237090  1.8754e+005 -2.3749e+006  1.0170e+005 92291 236937,237041,236963
 8.2000e+001 237067 -1.9004e+005 -3.7828e+006  8.4756e+005 92291 236963,237015,236989
 8.2000e+001 237265  6.4522e+004 -4.0849e+005 -3.3883e+005 91871 237138,237190,237164
 8.2000e+001 237242 -2.8731e+005 -1.3397e+006 -5.9322e+005 91871 237138,237216,237190
 8.2000e+001 237368 -2.7686e+004 -2.1335e+006 -8.6172e+004 91581 237290,237342,237316
 8.2000e+001 237520 -9.0989e+004 -1.6437e+005  1.1358e+005 91184 237419,237471,237445
 8.2000e+001 237497 -1.9846e+005 -4.8601e+004  2.2247e+005 91184 237393,237471,237419
 8.2000e+001 237672 -8.2801e+004 -8.9120e+005 -1.6995e+005 90894 237545,237597,237571
 8.2000e+001 237649  1.0594e+005 -2.2193e+006  4.3650e+005 90894 237545,237623,237597
 8.2000e+001 237873 -3.2318e+005 -2.1274e+006  7.5538e+005 90490 237749,237801,237775
 8.2000e+001 237850 -6.7971e+004 -2.9275e+006  1.0332e+006 90490 237723,237801,237749
 8.2000e+001 237827 -5.2118e+005 -3.0306e+006  1.1112e+005 90490 237697,237801,237723
 8.2000e+001 238074 -5.2758e+005 -4.9959e+006  3.2078e+005 90100 237898,237976,237950
 8.2000e+001 238051 -2.0724e+006 -4.9526e+006 -1.7918e+005 90100 237898,238002,237976
 8.2000e+001 238028 -6.7620e+005 -2.1330e+006  4.8805e+005 90100 237898,237950,237924
 8.2000e+001 238275 -9.2714e+004 -7.3418e+005  1.8867e+005 89696 238125,238177,238151
 8.2000e+001 238252 -5.4855e+005 -4.7189e+005 -4.3412e+005 89696 238099,238177,238125
 8.2000e+001 238229 -6.9278e+005 -2.6937e+006 -2.0770e+005 89696 238099,238203,238177
 8.2000e+001 238427 -9.5807e+002 -7.8051e+002  6.6903e+002 89206 238326,238378,238352
 8.2000e+001 238404 -1.6638e+003 -1.2173e+003  1.8906e+002 89206 238300,238378,238326
 8.2000e+001 238579 -8.2893e+004 -2.0294e+006  2.2554e+004 88908 238452,238504,238478
 8.2000e+001 238556 -1.5845e+005 -2.1975e+006  3.3935e+005 88908 238452,238530,238504
 8.2000e+001 238682  1.1200e+002 -3.9120e+001  6.4934e+001 88568 238604,238656,238630
 8.2000e+001 238883 -2.3569e+005 -3.5773e+006  1.3286e+006 88278 238733,238811,238785
 8.2000e+001 238860 -5.2797e+005 -2.7803e+006  1.2683e+006 88278 238707,238811,238733
 8.2000e+001 238837 -1.2358e+005 -3.8421e+006  6.8835e+005 88278 238733,238785,238759
 8.2000e+001 239035 -2.5189e+006 -4.2989e+006 -7.5246e+005 87988 238908,238960,238934
 8.2000e+001 239012 -2.6808e+006 -2.2604e+006 -7.8741e+004 87988 238908,238986,238960
 8.2000e+001 239138 -7.2132e+005 -1.7338e+006 -4.7630e+005 87648 239060,239112,239086
 8.2000e+001 239339 -3.5180e+006 -3.5491e+006 -3.2953e+006 87358 239163,239215,239189
 8.2000e+001 239316 -3.5228e+006 -1.3360e+006 -3.9068e+005 87358 239163,239241,239215
 8.2000e+001 239293 -1.3520e+006 -1.3781e+006 -8.6104e+005 87358 239163,239267,239241
 8.2000e+001 239589 -1.4947e+003 -1.5839e+005  3.4399e+004 86961 239390,239468,239416
 8.2000e+001 239566 -1.6684e+005 -9.1305e+004  2.0047e+005 86961 239390,239494,239468
 8.2000e+001 239543 -2.4797e+004 -5.3459e+003  1.1463e+004 86961 239416,239468,239442
 8.2000e+001 239520 -1.8135e+005 -1.0033e+005  1.9339e+005 86961 239364,239494,239390
 8.2000e+001 239741 -1.2766e+006 -9.6989e+005 -4.4253e+004 86621 239640,239692,239666
 8.2000e+001 239718 -3.3421e+005 -2.9289e+006 -1.4046e+006 86621 239614,239692,239640
 8.2000e+001 239893 -6.8873e+005 -2.9780e+006  8.8437e+005 86217 239792,239844,239818
 8.2000e+001 239870 -5.7896e+005 -4.1470e+006  1.4075e+006 86217 239766,239844,239792
 8.2000e+001 240045 -7.6920e+005 -2.9120e+006  8.3140e+005 85827 239918,239970,239944
 8.2000e+001 240022 -2.5065e+005 -2.7564e+006  1.9043e+005 85827 239918,239996,239970
 8.2000e+001 240197 -9.5162e+005 -4.5623e+006  5.7356e+005 85437 240096,240148,240122
 8.2000e+001 240174 -7.8708e+005 -7.5077e+005  3.8891e+005 85437 240070,240148,240096
 8.2000e+001 240349  1.4298e+004 -3.7322e+005  1.0686e+005 85147 240222,240274,240248
 8.2000e+001 240326 -2.1514e+004 -2.3890e+005 -3.6353e+004 85147 240222,240300,240274
 8.2000e+001 240501 -8.1892e+004 -4.3918e+005 -6.0077e+004 84807 240374,240426,240400
 8.2000e+001 240478 -5.6802e+005 -1.1878e+006  6.8010e+005 84807 240374,240452,240426
 8.2000e+001 240653  5.6321e+002 -5.2271e+002 -8.2480e+002 84303 240552,240604,240578
 8.2000e+001 240630 -5.3084e+001 -1.8576e+003 -1.5015e+003 84303 240526,240604,240552
 8.2000e+001 240854 -9.4036e+005 -8.9288e+006 -4.9779e+006 83929 240704,240756,240730
 8.2000e+001 240831  1.3917e+006 -6.6800e+006  2.4666e+006 83929 240704,240782,240756
 8.2000e+001 240808 -3.1072e+006  2.3449e+006  2.5775e+006 83929 240678,240782,240704
 8.2000e+001 241055  5.3386e+002 -4.2251e+002 -2.9801e+002 83539 240879,240957,240931
 8.2000e+001 241032  7.9524e+002 -6.8908e+002  1.9740e+002 83539 240879,240983,240957
 8.2000e+001 241009  3.5112e+002 -3.8412e+002 -2.2757e+002 83539 240879,240931,240905
 8.2000e+001 241207 -2.1072e+004 -3.2412e+005  4.5109e+004 83079 241106,241158,241132
 8.2000e+001 241184 -5.5416e+003 -3.0138e+005  5.6017e+004 83079 241080,241158,241106
 8.2000e+001 241408 -4.4751e+005 -8.8547e+005 -9.8630e+005 82665 241232,241284,241258
 8.2000e+001 241385 -3.6385e+005  7.2753e+005 -3.0515e+006 82665 241232,241336,241284
 8.2000e+001 241362 -3.1079e+006 -1.1245e+007  5.2553e+006 82665 241284,241336,241310
 8.2000e+001 241658 -2.2494e+005 -3.9376e+006  5.5848e+005 82375 241485,241563,241511
 8.2000e+001 241635 -1.0729e+004 -2.2602e+006  2.3161e+005 82375 241433,241563,241485
 8.2000e+001 241612 -1.0730e+005 -2.6738e+006  2.2374e+005 82375 241433,241485,241459
 8.2000e+001 241589 -6.8412e+005 -4.3409e+006  8.2109e+005 82375 241511,241563,241537
 8.2000e+001 241810 -6.7696e+005 -9.8699e+005 -4.8262e+005 82035 241683,241735,241709
 8.2000e+001 241787 -5.1196e+005 -1.7730e+006  6.1422e+005 82035 241683,241761,241735
 8.2000e+001 241962 -8.0503e+005 -1.9098e+006  6.3782e+005 81695 241861,241913,241887
 8.2000e+001 241939 -4.1184e+005 -2.6580e+006 -7.5475e+005 81695 241835,241913,241861
 8.2000e+001 242114 -8.9655e+005 -4.2895e+006  9.6602e+005 81355 242013,242065,242039
 8.2000e+001 242091 -3.6439e+005 -2.2487e+006  7.9417e+005 81355 241987,242065,242013
 8.2000e+001 242266 -1.6173e+003 -3.0481e+005  1.8707e+004 80951 242139,242191,242165
 8.2000e+001 242243 -2.1661e+003 -3.0741e+005  2.0856e+004 80951 242139,242217,242191
 8.2000e+001 242467 -4.3301e+005 -4.9725e+006  5.7554e+005 80311 242291,242369,242343
 8.2000e+001 242444  1.5363e+005 -2.4862e+006  4.4262e+005 80311 242291,242395,242369
 8.2000e+001 242421 -1.7811e+005 -1.2206e+006  2.1921e+005 80311 242291,242343,242317
 8.2000e+001 242619 -1.5421e+006 -2.6133e+006  4.3774e+005 80021 242492,242544,242518
 8.2000e+001 242596 -1.4922e+006 -2.4252e+006  1.5747e+006 80021 242492,242570,242544
 8.2000e+001 242869 -4.4377e+004 -1.0962e+005 -3.5926e+002 79631 242644,242722,242696
 8.2000e+001 242846 -1.9716e+004 -3.8401e+005  7.4993e+004 79631 242644,242774,242722
 8.2000e+001 242823  2.8185e+004 -2.3593e+005  3.2385e+004 79631 242722,242774,242748
 8.2000e+001 242800 -3.7624e+004 -1.2413e+005  5.4171e+004 79631 242644,242696,242670
 8.2000e+001 243070  2.5798e+005 -1.4170e+007  3.4145e+006 79341 242920,242972,242946
 8.2000e+001 243047 -7.0487e+005 -6.4651e+006 -5.8745e+005 79341 242920,242998,242972
 8.2000e+001 243024 -7.4888e+005 -3.8133e+006  1.6904e+006 79341 242894,242998,242920
 8.2000e+001 243222 -2.8922e+005 -2.3811e+006  8.7449e+005 78801 243121,243173,243147
 8.2000e+001 243199 -4.3817e+005 -2.8161e+006  1.0767e+006 78801 243095,243173,243121
 8.2000e+001 243423 -8.2726e+005 -1.9217e+006 -8.2109e+005 78511 243273,243325,243299
 8.2000e+001 243400  7.4308e+005 -5.1503e+006  7.7961e+005 78511 243273,243351,243325
 8.2000e+001 243377 -1.8461e+003 -5.3697e+006  1.0704e+005 78511 243247,243351,243273
 8.2000e+001 243624 -3.4666e+005 -2.8069e+006 -9.7623e+005 78107 243474,243552,243526
 8.2000e+001 243601 -5.2473e+005 -3.4982e+006 -1.0530e+006 78107 243448,243552,243474
 8.2000e+001 243578 -6.0989e+005 -1.9504e+006 -1.6440e+005 78107 243474,243526,243500
 8.2000e+001 243776 -1.0027e+006 -4.7040e+006 -1.1994e+006 77653 243649,243701,243675
 8.2000e+001 243753 -1.3143e+006 -4.8351e+006 -7.6451e+005 77653 243649,243727,243701
 8.2000e+001 243977 -3.9474e+005 -5.8579e+006  5.7366e+004 77093 243801,243853,243827
 8.2000e+001 243954 -7.4284e+004 -4.8688e+006  7.2776e+005 77093 243801,243879,243853
 8.2000e+001 243931 -4.0103e+005 -1.8210e+006 -2.0536e+005 77093 243801,243905,243879
 8.2000e+001 244080 -5.7775e+005 -6.0691e+006  2.7005e+005 76791 244002,244054,244028
 8.2000e+001 244232 -3.6188e+004 -2.5654e+006 -1.6523e+005 76311 244131,244183,244157
 8.2000e+001 244209 -1.8038e+005 -4.7440e+006 -1.1189e+005 76311 244105,244183,244131
 8.2000e+001 244433  4.5180e+005 -1.5743e+007  4.3530e+006 75903 244283,244335,244309
 8.2000e+001 244410 -8.9541e+005 -9.4208e+006 -5.0658e+005 75903 244283,244361,244335
 8.2000e+001 244387 -1.2960e+006 -7.8605e+006  5.8441e+005 75903 244257,244361,244283
 8.2000e+001 244585  2.9530e+005 -1.5413e+007  1.6441e+006 75419 244458,244510,244484
 8.2000e+001 244562 -8.2663e+005 -7.7378e+006 -1.5806e+005 75419 244458,244536,244510
 8.2000e+001 244737 -3.9699e+005 -7.1806e+005 -1.7713e+005 75215 244636,244688,244662
 8.2000e+001 244714 -2.8538e+005 -3.0840e+006 -1.7124e+005 75215 244610,244688,244636
 8.2000e+001 244889 -9.1662e+005 -4.2663e+006 -6.9177e+005 74857 244788,244840,244814
 8.2000e+001 244866 -2.5882e+005 -1.8897e+006 -2.6862e+005 74857 244762,244840,244788
 8.2000e+001 245041 -2.5974e+005 -1.9360e+006 -1.0529e+006 74653 244940,244992,244966
 8.2000e+001 245018 -3.2101e+005 -4.5230e+005  8.6701e+005 74653 244914,244992,244940
 8.2000e+001 245144 -1.5189e+006 -5.6366e+006 -1.3887e+006 74359 245066,245118,245092
 8.2000e+001 245296 -1.3052e+004 -2.8763e+005 -9.0266e+004 74007 245169,245221,245195
 8.2000e+001 245273 -8.5424e+004 -4.9064e+005 -1.4085e+005 74007 245169,245247,245221
 8.2000e+001 245448 -2.4228e+006 -5.0187e+006 -7.2701e+005 73711 245321,245373,245347
 8.2000e+001 245425 -2.1931e+006 -4.9596e+006 -8.0865e+005 73711 245321,245399,245373
 8.2000e+001 245600  1.1454e+006 -1.2640e+007 -1.5020e+006 73301 245499,245551,245525
 8.2000e+001 245577 -1.5704e+006 -8.0173e+006  1.9997e+006 73301 245473,245551,245499
 8.2000e+001 245752 -2.8219e+006 -4.2451e+006 -2.5862e+006 72995 245625,245677,245651
 8.2000e+001 245729  8.6788e+005 -1.5820e+007 -2.2302e+006 72995 245625,245703,245677
 8.2000e+001 245953 -1.2496e+006 -1.3697e+007  7.8491e+005 72585 245777,245829,245803
 8.2000e+001 245930 -5.6518e+005 -1.4048e+007  1.7838e+006 72585 245777,245855,245829
 8.2000e+001 245907 -1.6133e+006 -9.1962e+006  4.5884e+005 72585 245777,245881,245855
 8.2000e+001 246154 -4.5990e+005 -7.1285e+006  1.3914e+006 72127 246030,246082,246056
 8.2000e+001 246131 -9.7862e+005 -8.0970e+006  7.1878e+005 72127 245978,246082,246030
 8.2000e+001 246108 -1.3190e+005 -9.1185e+006  3.9541e+005 72127 245978,246030,246004
 8.2000e+001 246257 -1.7165e+006 -2.6556e+005 -2.3530e+005 71737 246179,246231,246205
 8.2000e+001 246360  1.3882e+005 -3.0995e+006  5.1340e+005 71447 246282,246334,246308
 8.2000e+001 246512 -1.2909e+005 -1.8588e+006  8.0267e+005 71157 246385,246437,246411
 8.2000e+001 246489 -5.8150e+004 -1.3898e+006 -6.5955e+004 71157 246385,246463,246437
 8.2000e+001 246664 -1.6888e+005 -1.8799e+006 -5.4381e+005 70753 246537,246589,246563
 8.2000e+001 246641 -7.3758e+005 -6.5434e+005 -2.8530e+005 70753 246537,246615,246589
 8.2000e+001 246865 -1.5272e+006 -7.9503e+006  4.1227e+006 70249 246715,246767,246741
 8.2000e+001 246842 -3.3849e+006 -7.8259e+006 -4.9366e+004 70249 246715,246793,246767
 8.2000e+001 246819 -1.5310e+005 -1.5114e+007 -4.3321e+006 70249 246689,246793,246715
 8.2000e+001 247066  1.6487e+004 -1.4759e+006  2.0275e+005 70023 246916,246994,246942
 8.2000e+001 247043 -1.0350e+005 -1.1244e+006  3.4984e+005 70023 246890,246994,246916
 8.2000e+001 247020  7.3132e+004 -1.3705e+006  3.2492e+005 70023 246942,246994,246968
 8.2000e+001 247267 -2.6368e+005 -2.9740e+006 -4.6029e+005 69633 247091,247143,247117
 8.2000e+001 247244 -8.9013e+004 -2.0581e+006 -3.6576e+005 69633 247091,247169,247143
 8.2000e+001 247221 -7.2272e+004 -2.0875e+006 -3.9144e+005 69633 247091,247195,247169
 8.2000e+001 247419 -1.0871e+006 -4.6454e+006  4.7140e+005 69457 247318,247370,247344
 8.2000e+001 247396 -1.2032e+006 -1.9827e+006  7.5071e+005 69457 247292,247370,247318
 8.2000e+001 247522 -1.3388e+002 -8.4845e+001 -5.4271e+000 69209 247444,247496,247470
 8.2000e+001 247625 -1.1814e+006 -1.2067e+006 -9.2195e+005 68919 247547,247599,247573
 8.2000e+001 247777  1.2836e+005 -4.1997e+006 -2.2315e+005 68579 247650,247702,247676
 8.2000e+001 247754  9.1266e+004 -9.4252e+005 -2.6755e+005 68579 247650,247728,247702
 8.2000e+001 247929 -1.0431e+005 -3.7840e+006  7.3747e+005 68289 247802,247854,247828
 8.2000e+001 247906 -3.9619e+005 -2.1446e+006 -7.3526e+005 68289 247802,247880,247854
 8.2000e+001 248081 -2.5934e+005 -2.8540e+006  9.0917e+005 67949 247980,248032,248006
 8.2000e+001 248058 -3.6600e+005 -4.3564e+005  4.7460e+004 67949 247954,248032,247980
 8.2000e+001 248233 -1.7778e+006 -5.0947e+006 -6.6804e+005 67616 248132,248184,248158
 8.2000e+001 248210 -7.0558e+005 -4.4890e+006 -1.3520e+005 67616 248106,248184,248132
 8.2000e+001 248434 -8.8311e+004 -2.7918e+006 -1.8282e+005 67212 248284,248336,248310
 8.2000e+001 248411 -3.2416e+005 -2.8275e+006 -1.1066e+005 67212 248258,248336,248284
 8.2000e+001 248388 -1.1839e+006 -8.9757e+005 -5.2489e+005 67212 248258,248362,248336
 8.2000e+001 248586 -2.9772e+005 -3.9947e+006 -4.2270e+005 66872 248485,248537,248511
 8.2000e+001 248563 -9.2211e+004 -1.7146e+006 -4.0146e+005 66872 248459,248537,248485
 8.2000e+001 248738 -4.2938e+005 -4.9425e+006  1.8668e+005 66510 248637,248689,248663
 8.2000e+001 248715 -5.6329e+005 -5.5820e+006  1.0509e+005 66510 248611,248689,248637
 8.2000e+001 248890 -2.7766e+004 -7.3042e+005  1.4206e+005 66220 248789,248841,248815
 8.2000e+001 248867 -4.5086e+004 -9.5565e+005 -3.0880e+005 66220 248763,248841,248789
 8.2000e+001 249091 -1.1284e+006 -7.9711e+006  1.3956e+006 65759 248915,248967,248941
 8.2000e+001 249068 -9.5433e+005 -4.8457e+006  1.9017e+006 65759 248915,248993,248967
 8.2000e+001 249045 -4.2033e+005 -3.5909e+006  2.9236e+005 65759 248915,249019,248993
 8.2000e+001 249243 -9.1449e+004 -7.1977e+006  1.5418e+006 65419 249142,249194,249168
 8.2000e+001 249220  1.8739e+005 -1.6179e+006  3.3563e+005 65419 249116,249194,249142
 8.2000e+001 249395 -1.5528e+005 -1.8121e+006 -3.5063e+005 65079 249268,249320,249294
 8.2000e+001 249372 -2.9631e+005 -3.2149e+006 -5.4663e+005 65079 249268,249346,249320
 8.2000e+001 249547 -1.6821e+006 -6.2338e+006  1.6587e+006 64739 249420,249472,249446
 8.2000e+001 249524 -1.3848e+005 -4.5433e+006 -1.4695e+006 64739 249420,249498,249472
 8.2000e+001 249650 -1.5043e+006 -3.9551e+006 -1.8452e+006 64342 249572,249624,249598
 8.2000e+001 249851  2.1236e+003 -3.2534e+006 -3.0888e+005 63938 249701,249779,249753
 8.2000e+001 249828 -6.1254e+004 -3.4023e+006  4.8637e+005 63938 249675,249779,249701
 8.2000e+001 249805 -3.7354e+005 -1.0549e+006 -2.1904e+005 63938 249701,249753,249727
 8.2000e+001 250052 -3.3407e+005 -3.9697e+006 -4.5509e+005 63341 249876,249954,249902
 8.2000e+001 250029 -3.7681e+005 -4.6104e+006 -4.9867e+005 63341 249876,249980,249954
 8.2000e+001 250006 -1.7271e+005 -4.0447e+006 -3.8948e+005 63341 249902,249954,249928
 8.2000e+001 250253 -6.6836e+005 -6.1047e+005 -2.9993e+004 63058 250077,250129,250103
 8.2000e+001 250230 -2.4014e+006 -2.4976e+006  1.4072e+006 63058 250077,250155,250129
 8.2000e+001 250207 -4.3864e+005 -1.5055e+006  3.8281e+005 63058 250077,250181,250155
 8.2000e+001 250454 -6.2049e+005 -5.6084e+006  5.9773e+005 62832 250304,250382,250330
 8.2000e+001 250431  2.2724e+004 -6.8600e+006 -1.8410e+006 62832 250278,250382,250304
 8.2000e+001 250408 -1.2521e+006 -4.1581e+006  1.1495e+005 62832 250330,250382,250356
 8.2000e+001 250606 -1.0386e+006 -4.8793e+006 -1.4619e+006 62428 250479,250531,250505
 8.2000e+001 250583 -9.4950e+004 -1.0221e+007 -1.4908e+006 62428 250479,250557,250531
 8.2000e+001 250758 -2.0510e+005 -6.6779e+006  9.0976e+005 62202 250631,250683,250657
 8.2000e+001 250735 -4.0037e+005 -6.1507e+006  7.4435e+004 62202 250631,250709,250683
 8.2000e+001 250861  1.3793e+005 -2.7366e+006 -2.6144e+005 61954 250783,250835,250809
 8.2000e+001 251062 -2.6535e+006 -4.1901e+006 -7.4027e+003 61557 250912,250990,250938
 8.2000e+001 251039  3.5464e+005 -1.0625e+007 -2.7243e+006 61557 250886,250990,250912
 8.2000e+001 251016 -2.2641e+006 -6.4495e+006 -3.6842e+006 61557 250938,250990,250964
 8.2000e+001 251263 -4.2420e+005 -5.6841e+006 -2.2565e+004 61167 251113,251165,251139
 8.2000e+001 251240 -4.7625e+005 -4.8636e+006 -1.2581e+005 61167 251113,251191,251165
 8.2000e+001 251217 -1.1646e+006 -4.8831e+006  6.9656e+005 61167 251087,251191,251113
 8.2000e+001 251415 -9.7807e+005 -4.5402e+006  1.7962e+006 60827 251288,251340,251314
 8.2000e+001 251392 -3.4351e+005 -1.8150e+006 -3.4993e+005 60827 251288,251366,251340
 8.2000e+001 251567 -1.4875e+005 -2.5798e+006 -1.7766e+005 60487 251466,251518,251492
 8.2000e+001 251544 -6.2510e+005 -3.7229e+006 -6.0891e+005 60487 251440,251518,251466
 8.2000e+001 251719 -1.6062e+005 -7.3620e+006 -5.0182e+005 59983 251592,251644,251618
 8.2000e+001 251696 -8.2040e+005 -5.7588e+006 -3.7931e+005 59983 251592,251670,251644
 8.2000e+001 251920 -8.8832e+004 -1.3336e+006  1.1637e+004 59807 251770,251848,251796
 8.2000e+001 251897 -5.3512e+004 -9.3112e+005 -4.3368e+004 59807 251744,251848,251770
 8.2000e+001 251874 -7.7147e+004 -1.1938e+006  6.5819e+004 59807 251796,251848,251822
 8.2000e+001 252023  4.7675e+005 -4.0096e+006 -1.0954e+005 59517 251945,251997,251971
 8.2000e+001 252175  1.1554e+006 -9.8628e+006 -1.6599e+005 59269 252074,252126,252100
 8.2000e+001 252152 -4.6433e+004 -6.7787e+006  3.9026e+004 59269 252048,252126,252074
 8.2000e+001 252278 -1.0204e+006 -6.3690e+006  9.5559e+005 58979 252200,252252,252226
 8.2000e+001 252381 -2.4544e+006 -1.6926e+006  1.3703e+006 58689 252303,252355,252329
 8.2000e+001 252533 -4.7360e+005 -3.0479e+006 -7.3673e+005 58249 252432,252484,252458
 8.2000e+001 252510 -8.5680e+005 -4.5667e+006 -6.5499e+005 58249 252406,252484,252432
 8.2000e+001 252734 -1.4538e+005 -2.0981e+006  2.3603e+005 57902 252584,252662,252610
 8.2000e+001 252711  9.0237e+004 -4.0310e+006 -7.2033e+005 57902 252558,252662,252584
 8.2000e+001 252688 -4.8775e+004 -1.3305e+006  2.7195e+003 57902 252610,252662,252636
 8.2000e+001 252886  1.6074e+005 -5.2229e+006 -2.4856e+005 57540 252785,252837,252811
 8.2000e+001 252863  5.3761e+004 -3.8239e+006  1.3606e+005 57540 252759,252837,252785
 8.2000e+001 253038 -9.7449e+005 -6.0816e+006  1.6221e+006 57086 252937,252989,252963
 8.2000e+001 253015 -3.1457e+005 -1.1643e+006  4.3535e+005 57086 252911,252989,252937
 8.2000e+001 253239 -7.9958e+005 -5.6951e+006 -4.8820e+005 56796 253063,253141,253115
 8.2000e+001 253216 -8.2085e+004 -5.8900e+006  3.3209e+005 56796 253063,253167,253141
 8.2000e+001 253193 -5.7962e+006 -1.1350e+006  7.8083e+005 56796 253063,253115,253089
 8.2000e+001 253342 -6.6667e+005 -1.2768e+007 -1.3580e+005 56349 253264,253316,253290
 8.2000e+001 253543 -2.8443e+005 -2.6594e+006 -1.1933e+006 56009 253367,253419,253393
 8.2000e+001 253520 -5.5198e+005 -1.2502e+006 -6.4795e+005 56009 253367,253445,253419
 8.2000e+001 253497 -4.1194e+005 -1.2558e+006 -6.6239e+005 56009 253367,253471,253445
 8.2000e+001 253695 -1.4719e+005 -7.4714e+005  3.6419e+005 55733 253594,253646,253620
 8.2000e+001 253672 -4.3381e+005 -2.6372e+005  3.3118e+005 55733 253568,253646,253594
 8.2000e+001 253798 -6.5300e+005 -1.4184e+006 -1.9530e+005 55557 253720,253772,253746
 8.2000e+001 253950 -6.4766e+005 -2.9258e+006  6.1108e+004 55153 253849,253901,253875
 8.2000e+001 253927 -2.0168e+005 -3.3720e+006 -4.7007e+005 55153 253823,253901,253849
 8.2000e+001 254151 -1.0553e+006 -3.7918e+006  3.8506e+005 54863 253975,254053,254001
 8.2000e+001 254128 -8.5976e+005 -3.4148e+006  2.1769e+005 54863 253975,254079,254053
 8.2000e+001 254105 -9.9670e+005 -5.0448e+006  9.4920e+005 54863 254001,254053,254027
 8.2000e+001 254303 -9.0167e+004 -3.4474e+005  2.0821e+005 54373 254176,254228,254202
 8.2000e+001 254280 -2.5331e+005 -4.2894e+005  2.9561e+005 54373 254176,254254,254228
 8.2000e+001 254455 -6.9635e+004 -4.1722e+006 -4.1325e+005 53975 254354,254406,254380
 8.2000e+001 254432 -2.7565e+005 -9.2158e+005  1.3368e+005 53975 254328,254406,254354
 8.2000e+001 254607 -1.8930e+005 -5.0714e+006 -3.6271e+004 53585 254480,254532,254506
 8.2000e+001 254584 -3.7211e+005 -4.3048e+006 -1.1060e+005 53585 254480,254558,254532
 8.2000e+001 254808 -9.3247e+005 -3.4848e+006  2.1171e+005 53245 254658,254736,254684
 8.2000e+001 254785 -9.2146e+005 -4.8048e+005 -1.7996e+005 53245 254632,254736,254658
 8.2000e+001 254762 -4.8554e+005 -1.7003e+006  5.0457e+004 53245 254684,254736,254710
 8.2000e+001 254911 -1.4900e+005 -1.3683e+006 -3.1790e+005 52955 254833,254885,254859
 8.2000e+001 255063 -4.8498e+005 -6.7852e+006  6.2820e+004 52551 254962,255014,254988
 8.2000e+001 255040 -6.2206e+005 -6.9769e+006 -4.5267e+004 52551 254936,255014,254962
 8.2000e+001 255264 -1.1189e+006 -1.0438e+006 -6.0340e+005 52261 255114,255166,255140
 8.2000e+001 255241 -1.2280e+006 -2.2886e+006 -1.7947e+005 52261 255114,255192,255166
 8.2000e+001 255218 -5.3178e+006 -1.1065e+006  9.1208e+005 52261 255088,255192,255114
 8.2000e+001 255416 -9.5273e+005 -5.5324e+006  2.2248e+006 51971 255289,255341,255315
 8.2000e+001 255393 -3.5685e+005 -4.8056e+006 -5.2066e+005 51971 255289,255367,255341
 8.2000e+001 255568  1.5192e+005 -1.4691e+006 -5.0242e+005 51681 255441,255493,255467
 8.2000e+001 255545 -1.3046e+005 -1.0687e+006 -5.0980e+005 51681 255441,255519,255493
 8.2000e+001 255769 -2.4882e+005 -2.6984e+006  5.6678e+004 51291 255619,255697,255671
 8.2000e+001 255746 -2.2879e+005 -2.3636e+006 -2.5400e+005 51291 255593,255697,255619
 8.2000e+001 255723 -2.9738e+005 -5.7248e+006 -6.8277e+005 51291 255619,255671,255645
 8.2000e+001 255921 -6.7092e+005 -3.1524e+006  8.4119e+005 50951 255820,255872,255846
 8.2000e+001 255898 -1.2322e+005 -1.2753e+006  4.5462e+004 50951 255794,255872,255820
 8.2000e+001 256171 -8.0782e+005 -5.3385e+006  7.0507e+005 50547 256024,256076,256050
 8.2000e+001 256148 -8.5786e+005 -4.1172e+006  3.0334e+005 50547 255972,256076,256024
 8.2000e+001 256125 -7.5069e+004 -4.1781e+006  2.6495e+005 50547 255946,256076,255972
 8.2000e+001 256102 -7.3733e+005 -4.8789e+006  5.1709e+005 50547 255972,256024,255998
 8.2000e+001 256323  1.2192e+005 -4.0993e+006  4.0557e+005 50093 256196,256248,256222
 8.2000e+001 256300 -1.0334e+006 -2.5795e+006 -8.0651e+005 50093 256196,256274,256248
 8.2000e+001 256426  3.7152e+002 -1.5190e+003  6.9590e+002 49845 256348,256400,256374
 8.2000e+001 256627  5.9884e+004 -5.7504e+006  7.9966e+004 49555 256477,256555,256503
 8.2000e+001 256604 -4.4148e+004 -2.9299e+006  2.2331e+005 49555 256451,256555,256477
 8.2000e+001 256581 -3.7979e+005 -5.1115e+006  3.4282e+005 49555 256503,256555,256529
 8.2000e+001 256828 -4.3832e+005 -2.3526e+006 -4.6381e+005 49056 256652,256730,256678
 8.2000e+001 256805 -7.1754e+005 -2.0257e+006 -2.8124e+005 49056 256652,256756,256730
 8.2000e+001 256782 -3.1236e+005 -3.6960e+006  4.8681e+005 49056 256678,256730,256704
 8.2000e+001 256931 -3.7898e+004 -1.3915e+005  1.9923e+004 48766 256853,256905,256879
 8.2000e+001 257083 -1.7402e+006 -5.1054e+006 -7.6188e+005 48568 256982,257034,257008
 8.2000e+001 257060 -6.7337e+005 -8.7081e+005 -1.8248e+005 48568 256956,257034,256982
 8.2000e+001 257186 -3.8908e+003 -3.5205e+006  2.1740e+003 48228 257108,257160,257134
 8.2000e+001 257338 -1.2217e+006 -5.1028e+005  2.9150e+005 47888 257237,257289,257263
 8.2000e+001 257315 -5.3867e+005 -3.4966e+006  1.9055e+006 47888 257211,257289,257237
 8.2000e+001 257539 -4.1453e+005 -3.2893e+006  1.2570e+005 47548 257363,257441,257415
 8.2000e+001 257516 -7.1472e+005 -3.0503e+006 -3.3106e+005 47548 257363,257467,257441
 8.2000e+001 257493 -8.0479e+005 -2.2894e+006 -8.2975e+004 47548 257363,257415,257389
 8.2000e+001 257740 -5.2268e+004 -5.3772e+006  4.7545e+005 46994 257564,257642,257616
 8.2000e+001 257717 -4.3527e+005 -3.7158e+006 -1.5724e+005 46994 257564,257668,257642
 8.2000e+001 257694 -8.7661e+005 -5.3189e+006 -2.0312e+005 46994 257564,257616,257590
 8.2000e+001 257843 -3.1962e+005 -8.8760e+005 -1.4750e+005 46654 257765,257817,257791
 8.2000e+001 257995 -5.8656e+005 -2.7548e+006  3.6642e+005 46364 257894,257946,257920
 8.2000e+001 257972 -6.7297e+005 -2.8622e+006  2.9741e+005 46364 257868,257946,257894
 8.2000e+001 258147 -5.4315e+004 -3.3748e+006  1.1685e+005 46024 258046,258098,258072
 8.2000e+001 258124 -3.9440e+005 -2.4232e+006  4.2491e+005 46024 258020,258098,258046
 8.2000e+001 258250 -4.5176e+005 -6.8380e+005  4.0703e+005 45741 258172,258224,258198
 8.2000e+001 258402 -8.4399e+005 -3.0364e+006  6.4846e+005 45401 258301,258353,258327
 8.2000e+001 258379 -4.3708e+005 -2.6897e+006  8.8788e+005 45401 258275,258353,258301
 8.2000e+001 258603 -6.8089e+005 -1.7472e+006  1.6032e+004 45071 258427,258505,258479
 8.2000e+001 258580 -2.5778e+005 -4.0887e+006  2.4657e+005 45071 258427,258531,258505
 8.2000e+001 258557 -3.0535e+005 -2.5730e+006  1.8399e+005 45071 258427,258479,258453
 8.2000e+001 258755 -2.0281e+005 -4.0870e+006 -3.8981e+005 44681 258654,258706,258680
 8.2000e+001 258732 -3.5225e+005 -3.1870e+006 -3.9781e+005 44681 258628,258706,258654
 8.2000e+001 258907 -1.9762e+005 -3.2415e+006 -2.8089e+005 44157 258806,258858,258832
 8.2000e+001 258884 -7.1836e+005 -2.4557e+006 -1.9696e+005 44157 258780,258858,258806
 8.2000e+001 259010 -5.4859e+005 -2.2332e+006 -8.7700e+004 43705 258932,258984,258958
 8.2000e+001 259113 -5.4156e+005 -2.6381e+006  9.6124e+004 43284 259035,259087,259061
 8.2000e+001 259216 -3.5813e+005 -4.6195e+006 -2.0631e+005 42954 259138,259190,259164
 8.2000e+001 259319 -6.4616e+005 -1.3297e+006 -2.9856e+004 42116 259241,259293,259267
 8.2000e+001 259422 -5.8111e+005 -6.8055e+006  1.1365e+006 41804 259344,259396,259370
 8.2000e+001 259525 -6.4095e+005 -6.2548e+006  9.4730e+005 41219 259447,259499,259473
 8.2000e+001 259628 -5.6546e+005 -2.7486e+006 -6.1737e+005 385 259550,259602,259576
 8.4000e+001 190120 -1.7970e+005 -2.3507e+006 -4.2082e+005 189630 189993,190045,190019
 8.4000e+001 190097 -6.9976e+005 -1.7341e+006 -2.6442e+005 189630 189993,190071,190045
 8.4000e+001 190319 -1.4431e+006 -4.3790e+006 -4.5989e+005 189312 190169,190221,190195
 8.4000e+001 190296 -6.3359e+005 -3.6612e+006 -1.0829e+006 189312 190169,190247,190221
 8.4000e+001 190273 -9.1585e+005 -2.9504e+006  2.7243e+005 189312 190143,190247,190169
 8.4000e+001 190518 -4.7773e+005  4.9925e+004  1.7528e+004 189124 190368,190446,190420
 8.4000e+001 190495 -5.6299e+005  2.1746e+004 -3.4813e+003 189124 190342,190446,190368
 8.4000e+001 190472 -9.9297e+005 -5.2349e+004 -4.8679e+004 189124 190368,190420,190394
 8.4000e+001 190619 -4.5074e+005 -4.7345e+004 -5.8538e+003 188926 190541,190593,190567
 8.4000e+001 190771 -4.8841e+005 -7.5279e+004  1.3523e+004 188614 190670,190722,190696
 8.4000e+001 190748 -5.5906e+005  1.6483e+005  5.4481e+004 188614 190644,190722,190670
 8.4000e+001 190972 -5.0162e+005 -4.8879e+005 -3.3403e+005 188324 190848,190900,190874
 8.4000e+001 190949 -5.2058e+005 -8.2277e+005 -5.2479e+005 188324 190796,190900,190848
 8.4000e+001 190926 -6.7184e+004 -3.6766e+005 -2.2520e+005 188324 190796,190848,190822
 8.4000e+001 191124 -6.8399e+005 -1.0198e+006 -1.6274e+005 188034 191023,191075,191049
 8.4000e+001 191101 -1.6169e+005 -1.1461e+006 -1.2149e+005 188034 190997,191075,191023
 8.4000e+001 191276 -2.0137e+005 -8.6574e+005 -7.2098e+004 187836 191149,191201,191175
 8.4000e+001 191253 -2.4830e+005 -4.5245e+005  1.5234e+005 187836 191149,191227,191201
 8.4000e+001 191379 -4.5885e+005 -3.3475e+005 -9.9630e+004 187546 191301,191353,191327
 8.4000e+001 191531 -2.4401e+005 -3.3787e+006  2.8843e+005 187256 191430,191482,191456
 8.4000e+001 191508 -1.1495e+006 -4.8821e+006 -1.5150e+006 187256 191404,191482,191430
 8.4000e+001 191634 -7.3979e+005  2.5374e+004 -1.8740e+004 187058 191556,191608,191582
 8.4000e+001 191835 -5.1107e+005  2.0558e+004 -2.0879e+004 186860 191659,191711,191685
 8.4000e+001 191812 -3.3321e+005 -1.0305e+005  7.9926e+003 186860 191659,191737,191711
 8.4000e+001 191789 -2.9239e+005 -5.7156e+003 -4.2104e+004 186860 191659,191763,191737
 8.4000e+001 191987 -2.9431e+005 -1.7086e+005 -1.4136e+004 186662 191886,191938,191912
 8.4000e+001 191964 -1.7726e+005 -4.5790e+005  1.7169e+005 186662 191860,191938,191886
 8.4000e+001 192090 -7.1111e+005 -7.7379e+005 -1.6789e+004 186486 192012,192064,192038
 8.4000e+001 192242 -1.2699e+005 -7.0351e+006 -3.3192e+005 186288 192115,192167,192141
 8.4000e+001 192219 -8.1562e+005 -4.1688e+006  1.1668e+005 186288 192115,192193,192167
 8.4000e+001 192394  2.9906e+004 -5.6226e+006 -2.8809e+005 185935 192293,192345,192319
 8.4000e+001 192371 -5.1589e+005 -3.8988e+006 -6.8780e+005 185935 192267,192345,192293
 8.4000e+001 192546 -4.5281e+005 -3.0771e+006 -5.7710e+005 185675 192419,192471,192445
 8.4000e+001 192523 -8.9588e+005 -1.5252e+006 -6.0902e+005 185675 192419,192497,192471
 8.4000e+001 192649 -8.1123e+005 -1.6032e+006 -5.3337e+004 185499 192571,192623,192597
 8.4000e+001 192801 -2.4504e+005 -1.3207e+006  2.7508e+005 185301 192674,192726,192700
 8.4000e+001 192778 -2.0507e+005 -1.3520e+006  3.8465e+005 185301 192674,192752,192726
 8.4000e+001 193002 -8.3656e+004 -5.5558e+005 -3.7928e+005 185046 192852,192930,192878
 8.4000e+001 192979 -3.4958e+005 -1.4536e+006 -1.9703e+005 185046 192826,192930,192852
 8.4000e+001 192956  4.1853e+005 -1.8510e+006 -2.1742e+004 185046 192878,192930,192904
 8.4000e+001 193203  1.7136e+005 -4.7524e+006 -7.1588e+005 184798 193079,193131,193105
 8.4000e+001 193180 -1.0000e+006 -3.0922e+006 -1.4943e+005 184798 193027,193131,193079
 8.4000e+001 193157 -1.7814e+006 -3.3129e+006  2.2387e+005 184798 193027,193079,193053
 8.4000e+001 193404 -2.2439e+005 -4.7456e+006 -1.1828e+006 184600 193254,193306,193280
 8.4000e+001 193381 -4.7523e+005 -1.3544e+006 -1.8502e+005 184600 193254,193332,193306
 8.4000e+001 193358 -8.3918e+005 -3.7370e+005 -3.7247e+005 184600 193228,193332,193254
 8.4000e+001 193556 -5.9821e+005 -5.3988e+005 -6.0917e+005 184402 193429,193481,193455
 8.4000e+001 193533 -6.4832e+005 -5.7377e+005 -5.8375e+005 184402 193429,193507,193481
 8.4000e+001 193708  4.2889e+004 -1.5954e+006  1.6304e+005 184204 193607,193659,193633
 8.4000e+001 193685 -5.4031e+005 -5.7000e+006 -1.0242e+006 184204 193581,193659,193607
 8.4000e+001 193860 -4.8948e+005 -8.7721e+005  5.1625e+005 183908 193759,193811,193785
 8.4000e+001 193837 -1.2307e+005 -1.5003e+006  5.3728e+005 183908 193733,193811,193759
 8.4000e+001 194061 -6.8834e+005 -7.6628e+004  1.7849e+005 183710 193911,193989,193937
 8.4000e+001 194038 -5.9832e+005 -2.9991e+005 -2.3415e+004 183710 193885,193989,193911
 8.4000e+001 194015 -5.9757e+005 -2.3408e+005  1.6464e+005 183710 193937,193989,193963
 8.4000e+001 194262 -8.0002e+005 -2.6086e+006 -6.8591e+005 183420 194086,194164,194112
 8.4000e+001 194239 -7.9257e+005 -2.3255e+006 -2.8363e+005 183420 194086,194190,194164
 8.4000e+001 194216  4.6409e+005 -7.2859e+006  1.5426e+006 183420 194112,194164,194138
 8.4000e+001 194414 -6.1577e+005 -5.4426e+006 -1.3755e+005 183222 194287,194339,194313
 8.4000e+001 194391 -3.7742e+005 -1.1938e+006 -3.5925e+005 183222 194287,194365,194339
 8.4000e+001 194517 -9.7645e+005 -7.3850e+005  1.8839e+004 183024 194439,194491,194465
 8.4000e+001 194718  1.6754e+006 -1.5073e+007  1.5575e+006 182734 194568,194620,194594
 8.4000e+001 194695 -1.1209e+006 -4.2631e+006 -3.0879e+006 182734 194542,194620,194568
 8.4000e+001 194672 -3.2053e+006 -2.0069e+006 -1.4928e+006 182734 194542,194646,194620
 8.4000e+001 194870 -4.9970e+005 -5.3560e+005  3.5783e+005 182444 194769,194821,194795
 8.4000e+001 194847 -5.5363e+005 -1.3670e+006  8.6596e+005 182444 194743,194821,194769
 8.4000e+001 195071 -3.1016e+005 -1.4680e+006  8.7218e+005 182154 194895,194947,194921
 8.4000e+001 195048 -3.4892e+005 -5.2355e+005  2.2057e+005 182154 194895,194999,194947
 8.4000e+001 195025 -3.7959e+005 -1.5379e+005  2.3490e+005 182154 194947,194999,194973
 8.4000e+001 195223 -2.5267e+005 -1.4264e+005 -1.1033e+005 181814 195096,195148,195122
 8.4000e+001 195200 -4.7904e+005 -1.5102e+006 -1.0588e+006 181814 195096,195174,195148
 8.4000e+001 195375 -7.5912e+003 -1.2099e+004 -6.9147e+003 181524 195248,195300,195274
 8.4000e+001 195352  4.1127e+003 -5.9393e+004 -1.0096e+003 181524 195248,195326,195300
 8.4000e+001 195527 -2.0384e+005 -1.8144e+006 -3.5344e+005 181326 195426,195478,195452
 8.4000e+001 195504 -9.0127e+005 -1.6020e+006  7.9228e+004 181326 195400,195478,195426
 8.4000e+001 195679  1.8516e+004 -9.6073e+006 -4.2577e+005 180936 195578,195630,195604
 8.4000e+001 195656 -6.1381e+005 -3.9272e+006 -2.7103e+005 180936 195552,195630,195578
 8.4000e+001 195831 -4.6058e+005 -3.7799e+005 -1.7921e+005 180646 195704,195756,195730
 8.4000e+001 195808 -7.3436e+005 -2.4700e+004  1.4838e+004 180646 195704,195782,195756
 8.4000e+001 196032 -3.2241e+005 -2.0989e+006  4.4095e+005 180306 195882,195960,195934
 8.4000e+001 196009 -4.4090e+005 -8.2154e+005 -3.1145e+005 180306 195856,195960,195882
 8.4000e+001 195986  3.1438e+004 -2.3064e+006  1.8026e+005 180306 195882,195934,195908
 8.4000e+001 196233 -2.6008e+005 -1.9497e+005 -9.3351e+005 179944 196057,196109,196083
 8.4000e+001 196210 -9.4642e+005 -3.5023e+006  4.4842e+005 179944 196057,196135,196109
 8.4000e+001 196187 -2.0296e+006  4.6081e+006 -1.5025e+006 179944 196057,196161,196135
 8.4000e+001 196385 -5.6255e+005 -6.5472e+005 -3.9081e+005 179604 196258,196310,196284
 8.4000e+001 196362 -8.7821e+005 -1.1425e+006 -1.0718e+006 179604 196258,196336,196310
 8.4000e+001 196586 -7.6362e+005 -4.9105e+005 -6.0998e+005 179114 196410,196488,196436
 8.4000e+001 196563 -6.0459e+005 -1.6761e+006 -5.7606e+005 179114 196410,196514,196488
 8.4000e+001 196540 -4.2048e+003 -4.5030e+005 -4.5131e+004 179114 196436,196488,196462
 8.4000e+001 196738 -7.0819e+005 -1.5694e+006 -6.6661e+005 178674 196611,196663,196637
 8.4000e+001 196715  3.5759e+004 -3.5609e+006 -1.4599e+005 178674 196611,196689,196663
 8.4000e+001 196939  1.6684e+006 -9.0346e+006 -1.7020e+006 178334 196789,196867,196841
 8.4000e+001 196916 -8.4926e+005 -9.5401e+006  3.3731e+005 178334 196763,196867,196789
 8.4000e+001 196893 -2.4777e+006 -5.8207e+006 -4.2375e+006 178334 196789,196841,196815
 8.4000e+001 197091 -1.0781e+006 -4.0719e+006 -1.1699e+006 177930 196990,197042,197016
 8.4000e+001 197068 -1.4186e+006 -5.3604e+006 -9.9008e+005 177930 196964,197042,196990
 8.4000e+001 197194 -2.6488e+002 -8.5688e+001  4.8078e+001 177732 197116,197168,197142
 8.4000e+001 197346 -4.3464e+005 -5.4479e+006  2.4699e+005 177534 197219,197271,197245
 8.4000e+001 197323 -1.9489e+005 -5.8746e+006  4.6441e+005 177534 197219,197297,197271
 8.4000e+001 197547 -1.1416e+006 -6.6001e+006 -2.6943e+006 177130 197397,197449,197423
 8.4000e+001 197524 -2.1981e+006 -7.3652e+006 -1.8070e+006 177130 197397,197475,197449
 8.4000e+001 197501 -1.2853e+006 -1.1096e+007 -2.4876e+006 177130 197371,197475,197397
 8.4000e+001 197748 -7.0512e+005 -5.3174e+006  4.6266e+005 176790 197598,197676,197624
 8.4000e+001 197725 -4.6754e+005 -4.0149e+006  6.9559e+005 176790 197572,197676,197598
 8.4000e+001 197702 -6.4766e+005 -4.5110e+006  5.2851e+005 176790 197624,197676,197650
 8.4000e+001 197900 -2.7503e+005 -2.8332e+006 -4.7772e+005 176300 197773,197825,197799
 8.4000e+001 197877 -4.9665e+004 -4.1824e+006 -3.6233e+005 176300 197773,197851,197825
 8.4000e+001 198052 -1.3996e+006 -4.4862e+006 -1.2452e+006 176010 197925,197977,197951
 8.4000e+001 198029 -5.2361e+005 -6.9560e+006 -2.1189e+006 176010 197925,198003,197977
 8.4000e+001 198204 -1.2828e+006 -6.1646e+006 -2.8081e+006 175670 198103,198155,198129
 8.4000e+001 198181 -1.6717e+006 -3.6120e+006 -6.5492e+005 175670 198077,198155,198103
 8.4000e+001 198405 -4.1290e+005 -3.7718e+006 -7.5264e+005 175266 198255,198307,198281
 8.4000e+001 198382 -1.6788e+005 -5.5635e+006 -2.2673e+006 175266 198229,198307,198255
 8.4000e+001 198359 -1.2702e+006 -5.1624e+006 -2.5575e+006 175266 198229,198333,198307
 8.4000e+001 198606  3.3535e+003 -6.7341e+004  5.4235e+003 174876 198430,198508,198482
 8.4000e+001 198583 -2.5789e+003 -6.4318e+004 -3.5681e+004 174876 198430,198534,198508
 8.4000e+001 198560  2.6768e+003 -3.1838e+004 -7.6458e+003 174876 198430,198482,198456
 8.4000e+001 198758 -1.8671e+002  1.3733e+002 -1.6026e+002 174536 198657,198709,198683
 8.4000e+001 198735 -3.2039e+002  1.7508e+002  6.2884e+002 174536 198631,198709,198657
 8.4000e+001 199008 -8.7952e+005 -4.8364e+006 -6.5214e+004 174132 198835,198913,198887
 8.4000e+001 198985 -5.2715e+005 -1.8979e+006  2.7752e+005 174132 198809,198913,198835
 8.4000e+001 198962 -5.1639e+005 -2.1183e+006 -1.1997e+006 174132 198783,198913,198809
 8.4000e+001 198939 -3.5239e+005 -5.1923e+006 -4.0518e+004 174132 198835,198887,198861
 8.4000e+001 199160 -1.0554e+006 -2.5982e+006 -6.4654e+005 173842 199059,199111,199085
 8.4000e+001 199137 -3.6843e+005 -1.1200e+006 -9.5214e+004 173842 199033,199111,199059
 8.4000e+001 199361 -6.6557e+005 -4.2499e+006  1.2319e+006 173438 199237,199289,199263
 8.4000e+001 199338 -4.5002e+005 -4.4354e+006  1.2739e+006 173438 199211,199289,199237
 8.4000e+001 199315 -6.4731e+004 -6.5125e+006 -4.9155e+005 173438 199185,199289,199211
 8.4000e+001 199513 -8.6505e+005 -5.5442e+006  9.9520e+004 173190 199386,199438,199412
 8.4000e+001 199490 -1.5602e+006 -6.0037e+006  4.3776e+005 173190 199386,199464,199438
 8.4000e+001 199665 -4.6278e+005 -1.4919e+006  2.4915e+005 172750 199564,199616,199590
 8.4000e+001 199642 -8.8497e+005 -8.4455e+005 -2.2875e+004 172750 199538,199616,199564
 8.4000e+001 199817 -2.4878e+005 -3.0199e+006 -9.8839e+005 172524 199690,199742,199716
 8.4000e+001 199794 -1.5437e+006 -9.3956e+005 -5.0371e+005 172524 199690,199768,199742
 8.4000e+001 199969 -6.7427e+003 -6.1881e+006 -2.0811e+005 172348 199842,199894,199868
 8.4000e+001 199946  3.5633e+005 -6.1120e+006 -4.3680e+004 172348 199842,199920,199894
 8.4000e+001 200121  6.7204e+004 -1.4702e+006 -2.9274e+005 172008 199994,200046,200020
 8.4000e+001 200098 -1.6249e+005 -4.6705e+005 -1.1320e+005 172008 199994,200072,200046
 8.4000e+001 200273 -1.7242e+006 -5.0681e+006 -2.1397e+006 171668 200172,200224,200198
 8.4000e+001 200250 -1.1520e+006 -5.2655e+006 -1.1274e+006 171668 200146,200224,200172
 8.4000e+001 200474  2.1693e+005 -4.2249e+006 -6.7591e+005 171264 200350,200402,200376
 8.4000e+001 200451 -1.9437e+005 -4.6602e+006 -9.3088e+005 171264 200324,200402,200350
 8.4000e+001 200428 -3.1723e+005 -3.1020e+006  9.9180e+005 171264 200298,200402,200324
 8.4000e+001 200626 -1.0267e+006 -4.6211e+006 -7.9474e+005 170832 200525,200577,200551
 8.4000e+001 200603 -2.7625e+005 -2.7516e+006 -2.0213e+005 170832 200499,200577,200525
 8.4000e+001 200827 -9.9832e+004 -1.4726e+006  3.7446e+005 170492 200677,200729,200703
 8.4000e+001 200804 -9.9795e+005 -7.4374e+005 -2.1485e+005 170492 200651,200729,200677
 8.4000e+001 200781 -6.5501e+005 -8.5676e+005 -4.6733e+005 170492 200651,200755,200729
 8.4000e+001 201077 -7.7697e+005 -2.6279e+006 -2.3891e+005 170088 200878,200956,200904
 8.4000e+001 201054 -5.1209e+005 -1.2659e+006 -1.5902e+005 170088 200852,200956,200878
 8.4000e+001 201031 -9.7275e+005 -1.4042e+006  2.2069e+006 170088 200904,200956,200930
 8.4000e+001 201008 -5.0998e+003 -1.6589e+006  1.1142e+005 170088 200852,200982,200956
 8.4000e+001 201278  1.3463e+005 -2.9670e+005 -1.1735e+005 169798 201102,201154,201128
 8.4000e+001 201255 -3.4263e+005 -1.8175e+006 -4.3826e+005 169798 201102,201206,201154
 8.4000e+001 201232 -1.3812e+006  4.4059e+005  1.6422e+005 169798 201154,201206,201180
 8.4000e+001 201430 -1.4086e+005 -2.4145e+006 -5.3508e+005 169337 201303,201355,201329
 8.4000e+001 201407 -1.1538e+005 -7.8032e+005 -1.4573e+005 169337 201303,201381,201355
 8.4000e+001 201631 -2.1344e+005 -3.0754e+006  7.0558e+005 168883 201481,201559,201507
 8.4000e+001 201608 -3.0400e+005 -2.6920e+006  9.3667e+005 168883 201455,201559,201481
 8.4000e+001 201585 -1.8163e+005 -2.2697e+006  7.5757e+005 168883 201507,201559,201533
 8.4000e+001 201832  2.9288e+005 -6.4507e+006  3.9259e+005 168479 201682,201734,201708
 8.4000e+001 201809 -2.1181e+006 -4.6780e+006 -1.1721e+006 168479 201656,201734,201682
 8.4000e+001 201786 -1.8064e+006 -3.4516e+006  6.0745e+004 168479 201656,201760,201734
 8.4000e+001 202033 -3.5808e+005 -2.6933e+006  4.8226e+004 167825 201883,201935,201909
 8.4000e+001 202010 -1.7747e+006 -3.9998e+006 -2.3272e+006 167825 201857,201935,201883
 8.4000e+001 201987 -5.8206e+005 -9.8302e+006 -1.4258e+006 167825 201857,201961,201935
 8.4000e+001 202234 -1.1617e+005 -7.6261e+005 -1.9683e+005 167435 202058,202136,202084
 8.4000e+001 202211 -2.4318e+005 -1.8173e+006  8.6204e+005 167435 202058,202162,202136
 8.4000e+001 202188 -5.4497e+004 -4.1479e+005  8.4938e+004 167435 202084,202136,202110
 8.4000e+001 202386  3.3779e+004 -1.6253e+006  3.3941e+005 167002 202285,202337,202311
 8.4000e+001 202363 -3.4650e+005 -4.6986e+005  3.2197e+005 167002 202259,202337,202285
 8.4000e+001 202538 -1.8872e+006 -1.8482e+006 -1.6643e+006 166662 202411,202463,202437
 8.4000e+001 202515 -6.8955e+005 -3.0735e+006 -2.4613e+006 166662 202411,202489,202463
 8.4000e+001 202690 -2.3851e+004 -1.6353e+006 -6.6287e+005 166322 202589,202641,202615
 8.4000e+001 202667 -3.9860e+003 -9.1574e+005 -7.8884e+004 166322 202563,202641,202589
 8.4000e+001 202891 -8.5315e+004 -6.1407e+004 -1.3127e+004 165918 202715,202767,202741
 8.4000e+001 202868 -1.4881e+005 -4.5399e+005 -2.7880e+005 165918 202715,202793,202767
 8.4000e+001 202845 -2.6204e+005 -6.5411e+005 -1.6366e+005 165918 202715,202819,202793
 8.4000e+001 203092  1.4028e+005 -2.1290e+006 -3.3407e+005 165628 202916,202968,202942
 8.4000e+001 203069 -6.1137e+004 -1.3040e+006 -3.7586e+005 165628 202916,202994,202968
 8.4000e+001 203046 -2.2499e+005 -1.1577e+006 -5.1030e+005 165628 202916,203020,202994
 8.4000e+001 203293 -3.4186e+006 -1.8691e+006 -2.4755e+006 165266 203143,203195,203169
 8.4000e+001 203270 -1.3337e+006 -4.8898e+006 -5.8255e+005 165266 203143,203221,203195
 8.4000e+001 203247 -8.9742e+005 -5.1456e+006 -8.9201e+005 165266 203117,203221,203143
 8.4000e+001 203445 -2.5828e+005 -1.1763e+006  4.8878e+005 164826 203318,203370,203344
 8.4000e+001 203422 -8.7833e+004 -7.3015e+005 -2.9328e+004 164826 203318,203396,203370
 8.4000e+001 203597 -7.9390e+005 -4.0901e+005 -1.5426e+005 164386 203470,203522,203496
 8.4000e+001 203574 -1.3751e+006 -2.0842e+006 -6.9867e+005 164386 203470,203548,203522
 8.4000e+001 203798 -3.2573e+005 -1.1683e+004 -1.1392e+003 163996 203622,203674,203648
 8.4000e+001 203775 -8.3057e+005 -4.0320e+003  1.5398e+005 163996 203622,203726,203674
 8.4000e+001 203752 -7.9704e+005 -3.4314e+003 -5.1585e+004 163996 203674,203726,203700
 8.4000e+001 203901 -4.1361e+005 -7.2647e+005  1.0559e+004 163770 203823,203875,203849
 8.4000e+001 204053 -1.5810e+006 -2.3118e+006 -7.8840e+005 163474 203952,204004,203978
 8.4000e+001 204030 -1.6240e+006 -2.4704e+006 -1.0442e+006 163474 203926,204004,203952
 8.4000e+001 204205 -2.4104e+005 -1.3221e+006 -2.1907e+005 163034 204104,204156,204130
 8.4000e+001 204182 -4.4506e+005 -1.6798e+006 -6.1544e+005 163034 204078,204156,204104
 8.4000e+001 204357 -6.0968e+004 -7.7980e+003  2.1614e+004 162624 204256,204308,204282
 8.4000e+001 204334 -6.1006e+004 -7.6477e+003  2.1519e+004 162624 204230,204308,204256
 8.4000e+001 204509  9.2610e+002  4.7688e+002 -3.8494e+002 162200 204382,204434,204408
 8.4000e+001 204486  6.7133e+002  6.0475e+001 -6.4985e+002 162200 204382,204460,204434
 8.4000e+001 204710 -2.1669e+006 -3.1251e+005  1.9168e+005 161810 204560,204638,204586
 8.4000e+001 204687 -1.5342e+006 -1.0511e+006 -8.5198e+005 161810 204534,204638,204560
 8.4000e+001 204664 -1.8355e+006 -2.7138e+005  6.0000e+005 161810 204586,204638,204612
 8.4000e+001 204862 -6.7666e+005 -6.8127e+005 -5.0730e+005 161406 204735,204787,204761
 8.4000e+001 204839 -4.4305e+005 -6.8629e+005 -5.5113e+005 161406 204735,204813,204787
 8.4000e+001 205014 -6.5555e+002  1.7595e+002 -1.0135e+003 161180 204887,204939,204913
 8.4000e+001 204991 -4.1442e+002 -5.1274e+002 -6.5525e+002 161180 204887,204965,204939
 8.4000e+001 205215 -3.6281e+005 -1.1107e+006 -1.5848e+006 160726 205039,205091,205065
 8.4000e+001 205192 -6.0609e+005 -2.1479e+006 -1.3932e+006 160726 205039,205143,205091
 8.4000e+001 205169 -1.4443e+006 -3.0029e+006 -2.0065e+006 160726 205091,205143,205117
 8.4000e+001 205416 -3.5807e-001 -1.9956e-001  3.1379e-001 160272 205292,205344,205318
 8.4000e+001 205393  2.2286e-001  2.9420e-001  1.0034e-002 160272 205240,205344,205292
 8.4000e+001 205370 -5.8809e-003  4.6353e-002 -5.8952e-002 160272 205240,205292,205266
 8.4000e+001 205568  1.8798e+003  2.6474e+002 -2.1031e+003 159932 205441,205493,205467
 8.4000e+001 205545  1.8186e+003 -1.1556e+003 -2.2110e+003 159932 205441,205519,205493
 8.4000e+001 205720  1.8362e+002 -2.1504e+002  7.6133e+001 159542 205593,205645,205619
 8.4000e+001 205697  1.2598e+001  1.2070e+002  1.4792e+002 159542 205593,205671,205645
 8.4000e+001 205872  1.0209e+003 -1.4063e+003  1.2812e+003 159252 205745,205797,205771
 8.4000e+001 205849  1.0743e+003 -1.3763e+003  8.2534e+002 159252 205745,205823,205797
 8.4000e+001 206024 -1.3204e+005 -9.0210e+005  3.6870e+005 159004 205923,205975,205949
 8.4000e+001 206001 -7.1559e+004 -1.6356e+006  5.2955e+005 159004 205897,205975,205923
 8.4000e+001 206127 -4.4585e+006 -3.7618e+006  3.5038e+003 158364 206049,206101,206075
 8.4000e+001 206328 -3.2928e+002 -8.6062e+002 -9.7498e+002 157960 206178,206256,206204
 8.4000e+001 206305 -7.2358e+002  2.4600e+002  2.6657e+002 157960 206152,206256,206178
 8.4000e+001 206282  2.6867e+003 -4.8632e+003  4.5215e+002 157960 206204,206256,206230
 8.4000e+001 206529 -1.5538e+006 -3.9879e+006  1.0544e+006 157648 206405,206457,206431
 8.4000e+001 206506 -2.5227e+006 -1.0881e+006  9.0833e+005 157648 206379,206457,206405
 8.4000e+001 206483 -2.5897e+006 -7.8777e+005  1.2853e+006 157648 206353,206457,206379
 8.4000e+001 206730 -6.1963e+004 -1.4488e+004  2.9105e+004 157208 206554,206606,206580
 8.4000e+001 206707 -2.7977e+004 -8.1809e+003  1.3069e+004 157208 206554,206632,206606
 8.4000e+001 206684 -8.7827e+004 -1.9587e+004  3.9175e+004 157208 206554,206658,206632
 8.4000e+001 206882  1.5111e+003 -2.0163e+003 -1.7633e+002 157010 206755,206807,206781
 8.4000e+001 206859  1.6228e+003 -3.4475e+003  5.1793e+002 157010 206755,206833,206807
 8.4000e+001 207034  8.3521e+001 -2.2109e+002  8.3674e+001 156620 206907,206959,206933
 8.4000e+001 207011  1.9076e+002 -5.3223e+002  5.2854e+001 156620 206907,206985,206959
 8.4000e+001 207186 -2.2717e+005 -1.2349e+006 -1.5975e+005 156330 207085,207137,207111
 8.4000e+001 207163 -6.7918e+005 -1.4521e+006 -1.3709e+006 156330 207059,207137,207085
 8.4000e+001 207387 -4.8112e+005 -1.0312e+006 -2.2916e+005 155890 207211,207289,207237
 8.4000e+001 207364 -1.3643e+006 -1.2771e+006 -7.0454e+005 155890 207211,207315,207289
 8.4000e+001 207341 -2.9003e+005 -6.7304e+005  5.8288e+003 155890 207237,207289,207263
 8.4000e+001 207588 -6.8679e+005 -1.9318e+007  7.4630e+006 155436 207438,207490,207464
 8.4000e+001 207565 -1.2839e+006 -1.3383e+007 -9.0076e+005 155436 207412,207490,207438
 8.4000e+001 207542 -2.6253e+006 -6.2186e+006 -1.0677e+006 155436 207412,207516,207490
 8.4000e+001 207789  1.6448e+006 -2.8175e+007 -1.9072e+006 155260 207639,207691,207665
 8.4000e+001 207766 -3.6686e+006 -8.4682e+006  4.3252e+006 155260 207613,207691,207639
 8.4000e+001 207743 -1.5025e+006 -6.1904e+006 -8.6490e+004 155260 207613,207717,207691
 8.4000e+001 207990  2.5483e+003 -1.1444e+000  8.6363e+002 154920 207840,207918,207892
 8.4000e+001 207967  4.6125e+001 -1.0146e+003 -1.5304e+003 154920 207814,207918,207840
 8.4000e+001 207944 -1.1414e+001  7.5895e+002  8.1613e+002 154920 207840,207892,207866
 8.4000e+001 208191  4.8543e+002 -6.1507e+003  3.3545e+002 154630 208015,208093,208041
 8.4000e+001 208168  1.0473e+003 -9.6893e+001  9.3212e+002 154630 208015,208119,208093
 8.4000e+001 208145 -1.7557e+003 -1.5364e+003 -1.3998e+003 154630 208041,208093,208067
 8.4000e+001 208343 -6.3910e+002  1.0468e+003 -3.6837e+002 154240 208216,208268,208242
 8.4000e+001 208320 -7.0498e+002 -5.7917e+002  8.1738e+002 154240 208216,208294,208268
 8.4000e+001 208495  4.4949e+005 -3.9188e+006 -1.3682e+006 153950 208394,208446,208420
 8.4000e+001 208472 -2.5269e+005 -1.2325e+006  4.3607e+005 153950 208368,208446,208394
 8.4000e+001 208647 -7.9760e+005 -3.7312e+005  1.2624e+006 153603 208520,208572,208546
 8.4000e+001 208624 -1.0169e+006 -1.1873e+006 -9.8067e+005 153603 208520,208598,208572
 8.4000e+001 208848 -1.1426e+006 -4.3503e+005  8.7558e+004 153149 208698,208776,208724
 8.4000e+001 208825 -2.6721e+006  1.1257e+005  1.9088e+005 153149 208672,208776,208698
 8.4000e+001 208802 -6.0429e+005 -2.6713e+005  4.0420e+005 153149 208724,208776,208750
 8.4000e+001 209000  4.4164e+004 -1.6402e+006 -4.9097e+004 152859 208873,208925,208899
 8.4000e+001 208977  2.9744e+005 -1.6788e+006 -1.3302e+005 152859 208873,208951,208925
 8.4000e+001 209152  3.9125e+004 -1.9674e+006 -1.8430e+005 152569 209051,209103,209077
 8.4000e+001 209129 -3.8202e+004 -1.5543e+006  3.5156e+004 152569 209025,209103,209051
 8.4000e+001 209304  4.7746e-002 -7.6046e-002  1.8312e-001 152065 209177,209229,209203
 8.4000e+001 209281 -8.2565e-002 -5.5379e-003 -1.8094e-002 152065 209177,209255,209229
 8.4000e+001 209456 -2.6427e+006 -2.0639e+006 -4.4239e+005 151775 209355,209407,209381
 8.4000e+001 209433 -1.7823e+006 -2.2585e+006  6.0493e+004 151775 209329,209407,209355
 8.4000e+001 209608 -8.3503e+005 -3.4424e+006 -9.1973e+005 151371 209481,209533,209507
 8.4000e+001 209585  4.9615e+005 -5.5448e+006 -4.2454e+005 151371 209481,209559,209533
 8.4000e+001 209760 -9.1953e+003  2.5870e+002 -3.3361e+002 150981 209659,209711,209685
 8.4000e+001 209737 -2.3492e+003  2.2189e+002 -2.3019e+003 150981 209633,209711,209659
 8.4000e+001 209912  2.1415e+006 -2.9113e+007 -2.5961e+006 150619 209811,209863,209837
 8.4000e+001 209889 -2.7153e+006 -1.1975e+007  3.2919e+006 150619 209785,209863,209811
 8.4000e+001 210064 -4.3366e+003  1.4059e+003  1.1154e+003 150279 209937,209989,209963
 8.4000e+001 210041  6.0574e+002 -2.6571e+003 -2.2764e+003 150279 209937,210015,209989
 8.4000e+001 210265 -2.9175e+006 -4.5596e+006 -2.4724e+005 149989 210115,210167,210141
 8.4000e+001 210242 -1.8155e+006 -5.6725e+006 -1.5860e+006 149989 210115,210193,210167
 8.4000e+001 210219 -8.1817e+005 -4.4894e+006 -8.6546e+005 149989 210089,210193,210115
 8.4000e+001 210417 -2.0862e+003  1.4287e+003  4.8802e+002 149599 210316,210368,210342
 8.4000e+001 210394 -1.1601e+003  3.1404e+003  1.3567e+003 149599 210290,210368,210316
 8.4000e+001 210618 -3.4328e+006 -1.3021e+007  3.6709e+006 149095 210468,210520,210494
 8.4000e+001 210595 -2.9080e+006 -1.2808e+007  2.8207e+006 149095 210442,210520,210468
 8.4000e+001 210572 -1.3957e+006 -1.4587e+007  2.4802e+006 149095 210442,210546,210520
 8.4000e+001 210819 -3.1743e-001  2.7860e-002  1.5145e-001 148748 210695,210747,210721
 8.4000e+001 210796  1.0502e+000  1.7193e+000 -1.1156e+000 148748 210669,210747,210695
 8.4000e+001 210773 -1.9426e+000 -5.4559e+000  3.3176e+000 148748 210643,210747,210669
 8.4000e+001 210971 -7.0349e+001 -3.3538e+002  4.3241e+001 148408 210870,210922,210896
 8.4000e+001 210948  1.3614e+001 -4.6613e+002  9.9718e+001 148408 210844,210922,210870
 8.4000e+001 211123 -1.5051e+005 -1.2439e+006  3.4444e+005 148118 210996,211048,211022
 8.4000e+001 211100 -5.6511e+005 -1.1986e+006  7.6732e+005 148118 210996,211074,211048
 8.4000e+001 211275 -4.3479e+005 -8.7546e+005  4.4839e+005 147778 211148,211200,211174
 8.4000e+001 211252 -6.2285e+005 -1.7655e+006  1.1192e+006 147778 211148,211226,211200
 8.4000e+001 211427 -4.7707e+004 -1.3393e+005  7.5825e+004 147324 211326,211378,211352
 8.4000e+001 211404 -1.2067e+004 -1.8660e+005  6.2270e+004 147324 211300,211378,211326
 8.4000e+001 211628 -2.3051e+006 -1.3470e+006  9.6866e+005 147012 211452,211504,211478
 8.4000e+001 211605 -2.2574e+006  9.4895e+005  1.3692e+006 147012 211452,211556,211504
 8.4000e+001 211582 -2.1958e+006 -4.1380e+005  1.8812e+006 147012 211504,211556,211530
 8.4000e+001 211829 -8.8771e+004 -1.0010e+006  4.4725e+005 146636 211679,211757,211731
 8.4000e+001 211806 -2.9026e+005 -8.2315e+005  4.5446e+005 146636 211653,211757,211679
 8.4000e+001 211783 -2.7501e+005 -1.0004e+006  3.9871e+005 146636 211679,211731,211705
 8.4000e+001 211981 -1.0276e+003  8.6494e+002  4.9466e+001 146246 211880,211932,211906
 8.4000e+001 211958 -9.1541e+002  1.3911e+003  1.2984e+002 146246 211854,211932,211880
 8.4000e+001 212133 -4.9312e+002  2.1791e+002  2.9712e+002 145956 212006,212058,212032
 8.4000e+001 212110 -5.8252e+002 -4.9834e+002  5.9916e+002 145956 212006,212084,212058
 8.4000e+001 212285 -1.1205e+003  5.9553e+002 -1.2753e+001 145544 212184,212236,212210
 8.4000e+001 212262 -6.1651e+002 -4.1271e+002  5.2525e+002 145544 212158,212236,212184
 8.4000e+001 212486 -4.6220e+005 -1.6329e+007  3.8699e+006 144990 212362,212414,212388
 8.4000e+001 212463  2.7481e+005 -1.3254e+007  5.6178e+006 144990 212310,212414,212362
 8.4000e+001 212440 -5.0876e+006 -3.3421e+006  1.8988e+006 144990 212310,212362,212336
 8.4000e+001 212638 -7.4087e+003 -2.6710e+004  7.0138e+003 144600 212537,212589,212563
 8.4000e+001 212615 -3.5284e+003 -1.3818e+004  4.7391e+003 144600 212511,212589,212537
 8.4000e+001 212839 -3.1139e+005 -1.8033e+006  4.9985e+005 144210 212689,212741,212715
 8.4000e+001 212816 -4.7889e+005 -2.0866e+006  9.2824e+005 144210 212663,212741,212689
 8.4000e+001 212793 -4.9203e+005 -2.1393e+006  9.2726e+005 144210 212663,212767,212741
 8.4000e+001 212991 -1.2127e-001 -4.1277e-002  7.0749e-002 143920 212890,212942,212916
 8.4000e+001 212968  2.7064e-001  9.2074e-002 -1.5779e-001 143920 212864,212942,212890
 8.4000e+001 213143 -4.1508e+001 -4.2618e+001  1.1995e+001 143480 213016,213068,213042
 8.4000e+001 213120  6.0568e+000 -2.0409e+001 -1.3794e+000 143480 213016,213094,213068
 8.4000e+001 213295 -6.0864e+004 -2.8237e+005  1.2277e+005 142990 213194,213246,213220
 8.4000e+001 213272 -4.1146e+004 -1.7126e+005  5.1677e+004 142990 213168,213246,213194
 8.4000e+001 213447  2.3494e+005 -8.0759e+005  4.8420e+005 142600 213320,213372,213346
 8.4000e+001 213424 -2.3883e+005 -1.1870e+006  7.8813e+005 142600 213320,213398,213372
 8.4000e+001 213599 -1.9267e+003 -4.5662e+004  7.9556e+003 142260 213472,213524,213498
 8.4000e+001 213576 -5.1931e+003 -4.5900e+004  1.4220e+004 142260 213472,213550,213524
 8.4000e+001 213751 -3.8713e+004 -1.2213e+005 -6.3815e+004 141870 213624,213676,213650
 8.4000e+001 213728 -6.3111e+004 -1.3525e+005 -4.9157e+004 141870 213624,213702,213676
 8.4000e+001 213903 -1.8949e+006 -2.2426e+006 -2.0512e+006 141530 213776,213828,213802
 8.4000e+001 213880 -5.1933e+005 -2.6058e+006 -1.0245e+006 141530 213776,213854,213828
 8.4000e+001 214055 -5.2233e+006 -9.2939e+004  6.3024e+005 141218 213928,213980,213954
 8.4000e+001 214032 -3.1666e+006 -6.3732e+005  1.8133e+005 141218 213928,214006,213980
 8.4000e+001 214207 -3.3893e+002 -2.4759e+002 -2.8734e+002 140928 214080,214132,214106
 8.4000e+001 214184 -1.0023e+002 -3.5831e+002  1.0794e+002 140928 214080,214158,214132
 8.4000e+001 214359 -3.7223e+003 -1.6721e+004 -2.0107e+003 140538 214232,214284,214258
 8.4000e+001 214336 -1.3864e+003 -6.9630e+004  2.7719e+004 140538 214232,214310,214284
 8.4000e+001 214560 -5.5032e+005 -5.3164e+006  1.3744e+006 140248 214384,214462,214410
 8.4000e+001 214537 -4.7348e+004 -2.7130e+006  6.0120e+005 140248 214384,214488,214462
 8.4000e+001 214514 -4.1508e+005 -3.3924e+006  1.7183e+004 140248 214410,214462,214436
 8.4000e+001 214712 -2.8882e+004 -1.2186e+005  7.3265e+004 140000 214611,214663,214637
 8.4000e+001 214689 -3.2845e+004 -1.2287e+005  6.6973e+004 140000 214585,214663,214611
 8.4000e+001 214913 -3.6615e+005 -2.4548e+006 -6.2259e+005 139596 214737,214815,214763
 8.4000e+001 214890 -3.1869e+005 -1.3678e+006  1.2398e+004 139596 214737,214841,214815
 8.4000e+001 214867  1.0134e+006 -8.3918e+006  9.1704e+005 139596 214763,214815,214789
 8.4000e+001 215016  5.6451e+001 -1.7777e+001 -1.5164e+001 139420 214938,214990,214964
 8.4000e+001 215168 -3.8013e+006 -9.6764e+006  6.2393e+006 139130 215067,215119,215093
 8.4000e+001 215145 -2.2928e+006 -1.0884e+007  4.1832e+006 139130 215041,215119,215067
 8.4000e+001 215320 -2.5014e+006 -4.4203e+006  2.7603e+006 138790 215219,215271,215245
 8.4000e+001 215297 -2.1970e+006 -1.1368e+007  6.2222e+006 138790 215193,215271,215219
 8.4000e+001 215472 -7.3981e+004 -6.5100e+005  2.8062e+005 138514 215345,215397,215371
 8.4000e+001 215449 -7.3947e+004 -4.9096e+005  1.4759e+005 138514 215345,215423,215397
 8.4000e+001 215624 -3.5193e+005 -7.5909e+006  2.1749e+006 138174 215497,215549,215523
 8.4000e+001 215601 -4.2014e+005 -6.0575e+006  1.8826e+006 138174 215497,215575,215549
 8.4000e+001 215776 -1.2373e+004 -1.1672e+005 -4.2407e+004 137734 215649,215701,215675
 8.4000e+001 215753 -2.3558e+003 -1.2329e+005 -1.7086e+004 137734 215649,215727,215701
 8.4000e+001 215977  2.1344e+006 -8.4577e+006  6.5748e+005 137344 215801,215879,215827
 8.4000e+001 215954 -1.1053e+006 -1.5993e+006 -1.2801e+006 137344 215801,215905,215879
 8.4000e+001 215931  3.0569e+005 -1.2065e+007 -5.3510e+006 137344 215827,215879,215853
 8.4000e+001 216129 -4.6285e+005 -8.0129e+005  6.5438e+004 136940 216028,216080,216054
 8.4000e+001 216106 -3.3867e+005 -1.6520e+006  7.2180e+005 136940 216002,216080,216028
 8.4000e+001 216330 -5.9115e+005 -7.9842e+006  1.2618e+006 136600 216180,216232,216206
 8.4000e+001 216307 -1.3727e+006 -8.2299e+006  3.8164e+006 136600 216154,216232,216180
 8.4000e+001 216284 -1.0309e+006 -4.4870e+006  1.4299e+006 136600 216154,216258,216232
 8.4000e+001 216482  4.2842e+005 -5.1412e+006  1.3322e+006 136260 216381,216433,216407
 8.4000e+001 216459 -2.3209e+005 -2.9979e+006  1.2154e+006 136260 216355,216433,216381
 8.4000e+001 216634 -6.4546e+004 -1.2522e+005  7.1593e+004 135970 216533,216585,216559
 8.4000e+001 216611 -4.4070e+004 -2.3037e+005  1.1869e+005 135970 216507,216585,216533
 8.4000e+001 216835 -1.7216e+005 -3.9571e+006  2.4311e+005 135608 216685,216763,216711
 8.4000e+001 216812  1.6982e+005 -4.3456e+006 -4.0382e+005 135608 216659,216763,216685
 8.4000e+001 216789 -3.8112e+004 -1.7251e+006  1.2929e+004 135608 216711,216763,216737
 8.4000e+001 217036 -4.7878e+005 -3.1661e+005  2.0856e+005 135312 216912,216964,216938
 8.4000e+001 217013 -3.8026e+005 -1.2609e+006  8.6725e+005 135312 216886,216964,216912
 8.4000e+001 216990  2.0378e+005 -2.5757e+006  6.3133e+005 135312 216860,216964,216886
 8.4000e+001 217237 -2.0668e+005 -1.3878e+006  4.7276e+005 134908 217061,217139,217113
 8.4000e+001 217214 -3.9442e+005 -1.4996e+006  8.1716e+005 134908 217061,217165,217139
 8.4000e+001 217191 -3.9913e+005 -1.8120e+006  6.9335e+005 134908 217061,217113,217087
 8.4000e+001 217438 -5.6344e+005 -1.1094e+007 -2.3188e+006 134568 217288,217366,217314
 8.4000e+001 217415 -1.3301e+006 -1.1382e+007 -2.5753e+006 134568 217262,217366,217288
 8.4000e+001 217392 -1.1549e+006 -1.4273e+007 -3.2546e+006 134568 217314,217366,217340
 8.4000e+001 217590 -1.1246e+005 -7.5273e+005  3.7443e+005 134106 217463,217515,217489
 8.4000e+001 217567 -1.0219e+005 -6.5103e+005  2.0689e+005 134106 217463,217541,217515
 8.4000e+001 217791 -2.0458e+005 -1.0522e+006 -4.6397e+005 133816 217641,217693,217667
 8.4000e+001 217768 -1.3206e+006 -1.5259e+007 -4.4890e+006 133816 217641,217719,217693
 8.4000e+001 217745 -7.5696e+006 -1.6363e+006  3.5194e+006 133816 217615,217719,217641
 8.4000e+001 217992 -4.1016e+006 -5.2596e+006  5.3205e+006 133355 217842,217920,217894
 8.4000e+001 217969 -1.8508e+006 -9.3459e+006  3.9885e+006 133355 217816,217920,217842
 8.4000e+001 217946 -8.3217e+005 -2.9768e+006  5.2602e+005 133355 217842,217894,217868
 8.4000e+001 218193  2.4938e+005 -7.0563e+006  1.3236e+005 132851 218017,218095,218069
 8.4000e+001 218170 -5.8787e+006 -7.0305e+006  7.0219e+006 132851 218017,218121,218095
 8.4000e+001 218147 -1.8163e+006 -3.4755e+006 -1.0042e+006 132851 218017,218069,218043
 8.4000e+001 218345 -1.5547e+004 -7.5925e+004  2.5278e+004 132511 218244,218296,218270
 8.4000e+001 218322 -1.4629e+004 -2.4049e+005  7.0164e+004 132511 218218,218296,218244
 8.4000e+001 218497  2.3523e+006 -2.3417e+007  1.1168e+006 132235 218396,218448,218422
 8.4000e+001 218474  6.4948e+005 -1.0258e+007  1.5914e+006 132235 218370,218448,218396
 8.4000e+001 218698 -3.0268e+005 -7.8271e+006 -2.0481e+006 131945 218574,218626,218600
 8.4000e+001 218675 -1.3862e+006 -1.3145e+007 -1.8190e+006 131945 218522,218626,218574
 8.4000e+001 218652 -2.6691e+006 -6.0452e+006 -3.1357e+006 131945 218522,218574,218548
 8.4000e+001 218850 -5.6441e+005 -1.3968e+007  1.4682e+006 131655 218723,218775,218749
 8.4000e+001 218827  2.4933e+005 -1.2005e+007  8.6326e+005 131655 218723,218801,218775
 8.4000e+001 218953  4.5490e-002 -3.7349e-001  1.6604e-001 131215 218875,218927,218901
 8.4000e+001 219105 -1.2349e+005 -2.6672e+006 -3.4324e+004 130875 218978,219030,219004
 8.4000e+001 219082 -2.1787e+004 -1.2664e+006  7.2369e+004 130875 218978,219056,219030
 8.4000e+001 219306 -6.9805e+005 -1.6528e+006  3.3247e+005 130429 219156,219234,219208
 8.4000e+001 219283 -6.5920e+005 -1.3293e+006  4.2226e+005 130429 219130,219234,219156
 8.4000e+001 219260 -1.8544e+006 -1.9708e+006  1.3226e+006 130429 219156,219208,219182
 8.4000e+001 219507 -5.8139e+005 -1.8893e+006  8.8734e+005 130025 219383,219435,219409
 8.4000e+001 219484 -5.4246e+005 -2.3559e+006  1.1081e+006 130025 219331,219435,219383
 8.4000e+001 219461 -5.1895e+005 -1.5549e+006  7.2481e+005 130025 219331,219383,219357
 8.4000e+001 219659 -1.1204e-002 -8.0417e-001  9.4919e-002 129685 219558,219610,219584
 8.4000e+001 219636  2.5788e-002  1.8510e+000 -2.1848e-001 129685 219532,219610,219558
 8.4000e+001 219860 -3.8136e+005 -1.2146e+006  7.7706e+005 129395 219710,219788,219762
 8.4000e+001 219837 -2.6027e+005 -1.6831e+006  8.2632e+005 129395 219684,219788,219710
 8.4000e+001 219814 -2.2387e+005 -1.5162e+006  5.6981e+005 129395 219710,219762,219736
 8.4000e+001 220061  5.1012e+003 -9.7051e+004  5.5150e+004 128991 219937,219989,219963
 8.4000e+001 220038  2.9428e+003 -1.8108e+005  4.2963e+004 128991 219885,219989,219937
 8.4000e+001 220015 -8.5719e+003 -2.3333e+005  8.2793e+004 128991 219885,219937,219911
 8.4000e+001 220262 -4.3861e+004 -5.3044e+004  8.5416e+003 128701 220086,220164,220112
 8.4000e+001 220239 -2.0770e+004 -1.7138e+005  7.1055e+004 128701 220086,220190,220164
 8.4000e+001 220216 -4.8809e+003 -4.2705e+004  1.4114e+004 128701 220112,220164,220138
 8.4000e+001 220463 -3.6473e+006 -1.0142e+007  4.9265e+006 128297 220339,220391,220365
 8.4000e+001 220440 -2.5416e+006 -1.1255e+007  4.6709e+006 128297 220313,220391,220339
 8.4000e+001 220417 -1.2898e+006 -1.5653e+007 -6.2431e+006 128297 220287,220391,220313
 8.4000e+001 220615 -5.8776e-002 -2.1001e-002 -3.5133e-002 128007 220488,220540,220514
 8.4000e+001 220592  6.3940e-002  2.2846e-002  3.8220e-002 128007 220488,220566,220540
 8.4000e+001 220767 -1.9592e+005 -3.6877e+006  6.8981e+005 127567 220640,220692,220666
 8.4000e+001 220744 -2.7949e+005 -2.5958e+006  5.6285e+005 127567 220640,220718,220692
 8.4000e+001 220919 -6.4280e+005 -1.3262e+007 -1.4278e+006 127163 220792,220844,220818
 8.4000e+001 220896 -7.7080e+005 -1.6914e+007  3.3879e+006 127163 220792,220870,220844
 8.4000e+001 221071 -3.3445e+006 -3.4072e+006  3.2622e+006 126915 220970,221022,220996
 8.4000e+001 221048 -1.7068e+006 -6.8171e+006  2.7412e+006 126915 220944,221022,220970
 8.4000e+001 221272 -2.4105e+006 -5.9396e+006  4.3301e+006 126461 221122,221174,221148
 8.4000e+001 221249  1.3875e+005 -6.5360e+006  1.0893e+006 126461 221122,221200,221174
 8.4000e+001 221226 -1.6903e+006 -3.3878e+006  2.3923e+006 126461 221096,221200,221122
 8.4000e+001 221375 -7.7633e-001 -3.1916e+001 -2.2754e-001 126213 221297,221349,221323
 8.4000e+001 221478 -5.3835e-312 -6.4470e-313  4.2999e-312 125766 221400,221452,221426
 8.4000e+001 221679 -1.4276e+004 -1.1242e+005  3.4728e+004 125212 221503,221555,221529
 8.4000e+001 221656 -7.3831e+003 -9.5262e+004  2.8438e+004 125212 221503,221581,221555
 8.4000e+001 221633 -2.7320e+004 -2.8147e+005  1.2911e+005 125212 221503,221607,221581
 8.4000e+001 221929  4.5984e+002  1.7867e+003 -7.8191e+002 124872 221782,221834,221808
 8.4000e+001 221906  2.6485e+002  5.4821e+002 -7.1351e+002 124872 221756,221834,221782
 8.4000e+001 221883 -5.6797e+002  4.7495e+002 -1.9443e+003 124872 221704,221834,221756
 8.4000e+001 221860 -2.2603e+003 -1.6555e+003 -8.2934e+001 124872 221704,221756,221730
 8.4000e+001 222130 -1.2794e+006 -6.1960e+006 -9.5028e+004 124582 221980,222058,222006
 8.4000e+001 222107 -2.7514e+006 -5.2925e+006  5.8435e+005 124582 221954,222058,221980
 8.4000e+001 222084 -2.2300e+006 -6.3833e+006 -5.6195e+005 124582 222006,222058,222032
 8.4000e+001 222282 -2.1811e+006 -4.9427e+006 -3.5313e+005 124192 222181,222233,222207
 8.4000e+001 222259 -3.4094e+005 -4.0708e+006  3.1132e+005 124192 222155,222233,222181
 8.4000e+001 222483  1.5247e+002 -1.9638e+001  2.1785e+002 123702 222333,222385,222359
 8.4000e+001 222460 -2.9050e+002 -1.7912e+002  1.0267e+002 123702 222333,222411,222385
 8.4000e+001 222437 -4.3356e+002  8.9697e+000 -2.0381e+002 123702 222307,222411,222333
 8.4000e+001 222635  2.7473e+002 -1.0033e+003 -2.2501e+002 123312 222508,222560,222534
 8.4000e+001 222612 -6.5374e+002 -8.8445e+002  2.7891e+002 123312 222508,222586,222560
 8.4000e+001 222787  1.5690e+000  8.9428e+000  3.6544e+000 122858 222686,222738,222712
 8.4000e+001 222764  1.6588e+000  2.0875e+000  4.8824e-001 122858 222660,222738,222686
 8.4000e+001 222939 -1.3392e+004 -3.1411e+005 -1.7339e+003 122568 222812,222864,222838
 8.4000e+001 222916  1.8991e+004 -1.8091e+005 -5.4712e+003 122568 222812,222890,222864
 8.4000e+001 223091 -3.0659e+002  2.9961e+002 -1.4261e+002 122392 222964,223016,222990
 8.4000e+001 223068  5.8891e+002 -1.2959e+002  5.3521e+002 122392 222964,223042,223016
 8.4000e+001 223292 -4.4222e+005 -1.1368e+006  2.6442e+005 121852 223142,223220,223194
 8.4000e+001 223269 -2.0337e+006 -4.8812e+005  3.7169e+005 121852 223116,223220,223142
 8.4000e+001 223246 -1.4327e+006 -1.1761e+006 -8.3887e+005 121852 223142,223194,223168
 8.4000e+001 223493 -1.2436e+006 -4.8490e+005  7.6962e+005 121406 223343,223395,223369
 8.4000e+001 223470 -1.3875e+006 -5.7332e+005  8.6651e+005 121406 223343,223421,223395
 8.4000e+001 223447 -5.9387e+005 -8.1274e+005  5.8923e+005 121406 223317,223421,223343
 8.4000e+001 223645  2.6741e+005 -1.5818e+007  3.4409e+006 121002 223544,223596,223570
 8.4000e+001 223622 -1.4314e+006 -1.2595e+007  3.2745e+006 121002 223518,223596,223544
 8.4000e+001 223846  9.9878e+001  9.6347e+001 -3.8974e+002 120662 223670,223748,223696
 8.4000e+001 223823 -1.3873e+002  1.4961e+002  9.4186e+001 120662 223670,223774,223748
 8.4000e+001 223800  3.6833e+002 -4.2748e+002 -1.9356e+002 120662 223696,223748,223722
 8.4000e+001 224047 -1.8921e+001  1.1172e+002 -5.1683e+001 120222 223897,223949,223923
 8.4000e+001 224024  4.1474e+001  1.3836e+002 -3.6571e+001 120222 223871,223949,223897
 8.4000e+001 224001 -2.0988e+002  3.2102e+002 -9.2178e+001 120222 223871,223975,223949
 8.4000e+001 224248  1.1998e+003 -4.2818e+002  4.2135e+002 119875 224124,224176,224150
 8.4000e+001 224225 -9.9698e+002  8.5103e+001 -3.7804e+002 119875 224098,224176,224124
 8.4000e+001 224202  4.9189e+002  1.0376e+003  5.4268e+002 119875 224072,224176,224098
 8.4000e+001 224449 -1.9094e+001 -1.6973e+002  7.5754e+001 119677 224325,224377,224351
 8.4000e+001 224426  2.6621e+001  1.1368e+001  1.3711e+002 119677 224299,224377,224325
 8.4000e+001 224403 -2.7300e+002  1.9565e+002 -8.6738e+001 119677 224273,224377,224299
 8.4000e+001 224552 -8.2396e+001  1.2014e+002 -1.7665e+002 119273 224474,224526,224500
 8.4000e+001 224704 -5.7732e+004 -3.7308e+005  1.4866e+005 118983 224603,224655,224629
 8.4000e+001 224681 -6.0492e+004 -3.6764e+005  1.5213e+005 118983 224577,224655,224603
 8.4000e+001 224856 -5.2170e+005  1.0560e+003 -6.2806e+003 118529 224755,224807,224781
 8.4000e+001 224833  5.4688e+004 -7.0902e+005  1.9470e+005 118529 224729,224807,224755
 8.4000e+001 225008  1.4692e+002  2.4388e+002 -8.9258e+001 118353 224881,224933,224907
 8.4000e+001 224985 -4.0470e+001 -8.4452e+001  5.3677e+001 118353 224881,224959,224933
 8.4000e+001 225209 -1.3391e+006 -5.8096e+006 -1.5149e+006 117949 225059,225137,225111
 8.4000e+001 225186 -2.5369e+005 -3.9879e+006  1.0062e+006 117949 225033,225137,225059
 8.4000e+001 225163  9.3774e+005 -1.2368e+007  1.9206e+006 117949 225059,225111,225085
 8.4000e+001 225410  9.4786e+004 -8.9501e+006  6.2251e+005 117559 225260,225338,225312
 8.4000e+001 225387 -3.0146e+006 -9.7312e+006  4.4282e+005 117559 225234,225338,225260
 8.4000e+001 225364 -7.2030e+005 -6.6953e+006 -2.1958e+006 117559 225260,225312,225286
 8.4000e+001 225611 -2.1034e+006 -1.2481e+007 -3.9501e+006 117361 225461,225513,225487
 8.4000e+001 225588 -3.6086e+006 -1.3933e+007  2.3902e+006 117361 225461,225539,225513
 8.4000e+001 225565 -6.5540e+005 -1.5967e+007  1.1748e+006 117361 225435,225539,225461
 8.4000e+001 225812  2.2672e+005 -1.0964e+007 -4.7095e+005 116900 225636,225714,225662
 8.4000e+001 225789 -3.3352e+006 -3.3711e+006 -1.4297e+006 116900 225636,225740,225714
 8.4000e+001 225766 -3.6232e+002 -1.1019e+007  1.2014e+004 116900 225662,225714,225688
 8.4000e+001 225964 -2.3596e+004 -8.1238e+006  5.1742e+004 116560 225837,225889,225863
 8.4000e+001 225941  3.4686e+005 -8.7852e+006  1.4024e+005 116560 225837,225915,225889
 8.4000e+001 226165  6.7671e+002  2.8524e+002 -1.9232e+002 116106 226015,226093,226041
 8.4000e+001 226142 -3.5221e+002  5.4310e+002 -6.1788e+002 116106 225989,226093,226015
 8.4000e+001 226119  6.9702e+001 -9.2359e+001 -7.5674e+002 116106 226041,226093,226067
 8.4000e+001 226268 -1.6275e+006 -4.7134e+006  1.3829e+006 115716 226190,226242,226216
 8.4000e+001 226420 -1.3004e+005 -1.4132e+007  2.5091e+006 115376 226293,226345,226319
 8.4000e+001 226397 -7.8254e+005 -1.5565e+007  4.9347e+006 115376 226293,226371,226345
 8.4000e+001 226621 -1.0027e+006 -2.8881e+006  6.6269e+005 114972 226497,226549,226523
 8.4000e+001 226598 -6.0689e+005 -1.5124e+007 -3.8232e+005 114972 226445,226549,226497
 8.4000e+001 226575  4.3139e+005 -7.5220e+006  1.0465e+006 114972 226445,226497,226471
 8.4000e+001 226773 -1.1250e+006 -5.0331e+006 -1.7207e+006 114670 226646,226698,226672
 8.4000e+001 226750  7.2113e+005 -1.0602e+007  1.1614e+006 114670 226646,226724,226698
 8.4000e+001 226974  6.0300e+004 -3.9586e+006 -7.7456e+004 114082 226798,226850,226824
 8.4000e+001 226951  1.5789e+005 -4.3476e+006  4.7948e+004 114082 226798,226902,226850
 8.4000e+001 226928 -2.3194e+005 -6.5344e+006 -9.7850e+004 114082 226850,226902,226876
 8.4000e+001 227175 -8.8640e+005 -7.4788e+006 -3.3020e+006 113678 226999,227051,227025
 8.4000e+001 227152 -1.6263e+006 -9.8560e+006 -4.0120e+006 113678 226999,227077,227051
 8.4000e+001 227129 -3.0820e+006 -5.0168e+006 -3.2229e+006 113678 226999,227103,227077
 8.4000e+001 227425 -3.6177e+006 -7.2333e+006 -6.8563e+006 113274 227226,227278,227252
 8.4000e+001 227402  1.4298e+005 -6.9141e+006 -1.2804e+006 113274 227226,227330,227278
 8.4000e+001 227379 -2.2145e+006 -2.5648e+006 -6.6726e+005 113274 227200,227330,227226
 8.4000e+001 227356 -1.2627e+006 -4.7613e+005 -7.7960e+005 113274 227278,227330,227304
 8.4000e+001 227626 -1.8737e+006 -3.8935e+006 -3.8515e+006 112934 227502,227554,227528
 8.4000e+001 227603  9.1769e+005 -3.4903e+006 -5.7089e+005 112934 227450,227554,227502
 8.4000e+001 227580 -2.4721e+006 -5.5228e+005  1.2739e+006 112934 227450,227502,227476
 8.4000e+001 227876 -2.4859e+005 -1.5329e+006 -2.2365e+005 112437 227677,227755,227703
 8.4000e+001 227853 -1.2444e+006 -1.8825e+006  1.5796e+006 112437 227677,227781,227755
 8.4000e+001 227830 -2.5058e+005 -5.5384e+005  3.1639e+005 112437 227703,227755,227729
 8.4000e+001 227807  4.5984e+005 -9.1438e+006 -5.9068e+005 112437 227651,227781,227677
 8.4000e+001 228126 -3.0502e+005 -4.9779e+006 -5.3289e+005 112041 227927,228005,227953
 8.4000e+001 228103 -5.1176e+005 -5.2436e+006 -7.0582e+005 112041 227927,228031,228005
 8.4000e+001 228080 -1.3496e+005 -5.9036e+006 -4.3321e+005 112041 227953,228005,227979
 8.4000e+001 228057 -1.0517e+006 -4.1344e+006 -1.0643e+006 112041 227901,228031,227927
 8.4000e+001 228327 -2.9700e+006 -3.7352e+006  1.4046e+005 111693 228151,228203,228177
 8.4000e+001 228304 -4.3499e+005 -2.8608e+006 -1.4555e+006 111693 228151,228229,228203
 8.4000e+001 228281  5.2713e+005 -6.3856e+006  1.1450e+006 111693 228151,228255,228229
 8.4000e+001 228479 -2.2934e+005 -1.1032e+005 -2.2229e+005 111253 228352,228404,228378
 8.4000e+001 228456 -1.4759e+005 -1.3257e+004  1.1261e+004 111253 228352,228430,228404
 8.4000e+001 228582  1.4580e+001  2.3726e+001 -1.8246e+001 110906 228504,228556,228530
 8.4000e+001 228783  5.5512e+004 -6.8401e+005 -9.9843e+004 110416 228633,228711,228659
 8.4000e+001 228760 -2.9390e+004 -1.1018e+006 -6.4298e+004 110416 228607,228711,228633
 8.4000e+001 228737  7.1977e+004 -1.5528e+006 -1.1053e+005 110416 228659,228711,228685
 8.4000e+001 228935 -4.8724e+005 -4.3883e+006 -1.9356e+006 110012 228808,228860,228834
 8.4000e+001 228912 -2.0688e+006 -8.1939e+006 -3.1469e+006 110012 228808,228886,228860
 8.4000e+001 229087 -2.8702e+006 -3.2031e+006 -2.3340e+006 109672 228960,229012,228986
 8.4000e+001 229064  5.6066e+005 -7.5839e+006 -1.3838e+006 109672 228960,229038,229012
 8.4000e+001 229190  6.3927e+001 -4.3608e+002  1.3380e+002 109332 229112,229164,229138
 8.4000e+001 229391 -4.0974e+002  1.2972e+001  1.1822e+002 109156 229267,229319,229293
 8.4000e+001 229368 -3.9724e+002  1.5587e+002  1.0377e+002 109156 229215,229319,229267
 8.4000e+001 229345 -2.4237e+002  2.3002e+002 -2.3482e+002 109156 229215,229267,229241
 8.4000e+001 229543  8.6556e+005 -9.5349e+006  1.1627e+006 108752 229416,229468,229442
 8.4000e+001 229520 -4.7995e+005 -4.5257e+006 -5.0876e+005 108752 229416,229494,229468
 8.4000e+001 229744 -2.4741e+005 -5.5381e+006 -6.6230e+003 108198 229594,229646,229620
 8.4000e+001 229721 -6.5454e+004 -5.4889e+006 -6.1584e+004 108198 229594,229672,229646
 8.4000e+001 229698 -4.2569e+005 -5.8913e+006 -3.2589e+005 108198 229568,229672,229594
 8.4000e+001 229847 -7.1786e+002 -2.3202e+002  2.5065e+001 107758 229769,229821,229795
 8.4000e+001 230048 -7.6140e+005 -2.7325e+006 -5.6639e+005 107468 229898,229950,229924
 8.4000e+001 230025 -6.7128e+005 -2.2058e+006  4.6150e+005 107468 229872,229950,229898
 8.4000e+001 230002 -1.0914e+006 -1.5517e+006 -1.5013e+005 107468 229872,229976,229950
 8.4000e+001 230298  2.1926e+005 -1.1860e+006  7.5075e+005 107121 230099,230203,230177
 8.4000e+001 230275 -3.5250e+005 -6.8916e+005  3.2508e+005 107121 230073,230203,230099
 8.4000e+001 230252  7.5629e+005 -1.8164e+006 -6.6327e+005 107121 230099,230177,230151
 8.4000e+001 230229 -2.5012e+005 -1.9138e+006 -6.9179e+005 107121 230099,230151,230125
 8.4000e+001 230450 -3.5802e+005 -3.7778e+005  1.4424e+005 106823 230349,230401,230375
 8.4000e+001 230427 -6.4538e+004 -1.0049e+006  6.2498e+004 106823 230323,230401,230349
 8.4000e+001 230602 -5.0892e+006 -7.1861e+006 -8.4462e+006 106533 230501,230553,230527
 8.4000e+001 230579  2.8032e+006 -1.4284e+007  4.5974e+006 106533 230475,230553,230501
 8.4000e+001 230803 -6.7812e+004 -1.1524e+006 -1.0673e+005 106029 230679,230731,230705
 8.4000e+001 230780  5.5359e+004 -6.3903e+005 -5.2233e+004 106029 230653,230731,230679
 8.4000e+001 230757  2.2388e+004 -1.4092e+006 -1.6353e+005 106029 230627,230731,230653
 8.4000e+001 231004 -1.9230e+005 -2.9033e+006  2.0050e+005 105689 230854,230906,230880
 8.4000e+001 230981  1.5363e+005 -3.5445e+006 -5.1783e+005 105689 230828,230906,230854
 8.4000e+001 230958 -6.6556e+005 -2.5906e+006 -1.2864e+006 105689 230828,230932,230906
 8.4000e+001 231156  2.3787e+005 -7.3005e+006 -2.5715e+005 105377 231055,231107,231081
 8.4000e+001 231133 -2.4431e+005 -5.1702e+006  3.3839e+005 105377 231029,231107,231055
 8.4000e+001 231406 -1.1089e+006 -7.0481e+006 -1.2460e+006 104858 231207,231259,231233
 8.4000e+001 231383 -1.6960e+006 -6.8335e+006 -1.6991e+006 104858 231207,231311,231259
 8.4000e+001 231360 -1.0196e+006 -8.2356e+006 -2.3419e+006 104858 231259,231311,231285
 8.4000e+001 231337 -1.0655e+006 -8.0953e+006 -1.9497e+006 104858 231181,231311,231207
 8.4000e+001 231558 -6.4346e+005 -1.7250e+007  5.9343e+005 104418 231457,231509,231483
 8.4000e+001 231535 -5.4058e+006 -1.7556e+007 -9.5980e+006 104418 231431,231509,231457
 8.4000e+001 231710 -3.4197e+006 -4.0367e+005  2.4147e+004 103978 231583,231635,231609
 8.4000e+001 231687 -1.8951e+006 -6.4986e+005 -8.2073e+005 103978 231583,231661,231635
 8.4000e+001 231862 -1.3341e+006 -8.2882e+006 -1.0025e+006 103588 231761,231813,231787
 8.4000e+001 231839  1.4134e+005 -2.7553e+006 -4.2169e+005 103588 231735,231813,231761
 8.4000e+001 232014 -1.0707e+006 -7.4041e+006 -3.1689e+006 103248 231887,231939,231913
 8.4000e+001 231991 -2.3616e+006 -1.2214e+007 -4.9965e+006 103248 231887,231965,231939
 8.4000e+001 232215 -3.7514e+004 -1.0001e+004  1.7943e+004 102844 232039,232117,232065
 8.4000e+001 232192 -2.3218e+004 -1.6485e+003 -5.4640e+003 102844 232039,232143,232117
 8.4000e+001 232169 -4.3196e+004  3.9663e+003  8.1874e+003 102844 232065,232117,232091
 8.4000e+001 232416 -2.8519e+006 -7.5611e+006 -3.5123e+006 102554 232240,232318,232292
 8.4000e+001 232393  5.8084e+005 -1.2383e+007 -5.7723e+005 102554 232240,232344,232318
 8.4000e+001 232370 -4.0969e+006 -2.5480e+006 -5.4320e+005 102554 232240,232292,232266
 8.4000e+001 232568 -2.1452e+004 -3.0749e+006  2.1606e+005 102100 232441,232493,232467
 8.4000e+001 232545 -1.3150e+005 -3.1051e+006  2.3028e+005 102100 232441,232519,232493
 8.4000e+001 232769 -2.0288e+005 -2.3954e+006  4.1360e+005 101596 232645,232697,232671
 8.4000e+001 232746  6.2808e+004 -1.4202e+006  2.4171e+005 101596 232593,232697,232645
 8.4000e+001 232723 -4.9746e+004 -2.0497e+006  3.8175e+005 101596 232593,232645,232619
 8.4000e+001 232921 -3.8168e+005 -1.1710e+005  4.0085e+004 101420 232794,232846,232820
 8.4000e+001 232898 -4.1417e+005 -3.1383e+005  4.4016e+004 101420 232794,232872,232846
 8.4000e+001 233073 -1.1683e+006 -2.0603e+006 -5.9516e+005 101023 232946,232998,232972
 8.4000e+001 233050  4.9163e+005 -4.9546e+006  1.6829e+006 101023 232946,233024,232998
 8.4000e+001 233225 -2.0631e+003 -3.2958e+003  2.1158e+003 100661 233098,233150,233124
 8.4000e+001 233202  1.9111e+003 -7.8043e+003  9.5983e+002 100661 233098,233176,233150
 8.4000e+001 233426 -1.4341e+006 -6.6407e+006 -2.2566e+006 100265 233276,233328,233302
 8.4000e+001 233403 -1.1158e+006 -6.1883e+006 -1.2020e+006 100265 233276,233354,233328
 8.4000e+001 233380 -1.1925e+006 -6.3129e+006 -1.2589e+006 100265 233250,233354,233276
 8.4000e+001 233578 -9.1004e+003 -2.2827e+006  1.4497e+005 100032 233451,233503,233477
 8.4000e+001 233555 -1.1033e+005 -2.2438e+006  5.4583e+005 100032 233451,233529,233503
 8.4000e+001 233681 -2.3565e+006  1.2020e+004 -1.0078e+005 99742 233603,233655,233629
 8.4000e+001 233784 -5.1377e+005 -1.1343e+006  4.2091e+005 99402 233706,233758,233732
 8.4000e+001 233936 -6.2495e+005 -1.2281e+006  6.4060e+005 99062 233835,233887,233861
 8.4000e+001 233913 -7.1390e+005 -1.5912e+006  6.6784e+005 99062 233809,233887,233835
 8.4000e+001 234088 -5.2597e+005 -9.8419e+005  3.6914e+005 98772 233987,234039,234013
 8.4000e+001 234065 -1.5274e+005 -9.2178e+005  3.3602e+005 98772 233961,234039,233987
 8.4000e+001 234240 -6.9938e+003 -1.0070e+005  2.7542e+004 98160 234139,234191,234165
 8.4000e+001 234217 -1.0927e+004 -1.1414e+005  3.0316e+004 98160 234113,234191,234139
 8.4000e+001 234441  3.9592e+002  3.0184e+000  3.6553e+002 97820 234317,234369,234343
 8.4000e+001 234418  4.0660e+002 -2.1936e+002 -1.6683e+001 97820 234291,234369,234317
 8.4000e+001 234395  4.0238e+001 -3.0023e+002 -2.1871e+002 97820 234265,234369,234291
 8.4000e+001 234593 -7.3128e+004 -6.6437e+005  6.6010e+004 97366 234466,234518,234492
 8.4000e+001 234570 -2.2116e+005 -8.6993e+005  1.6971e+005 97366 234466,234544,234518
 8.4000e+001 234794 -3.9031e+005 -4.5230e+005 -3.3263e+005 96976 234618,234670,234644
 8.4000e+001 234771 -9.9350e+004 -9.8147e+005 -2.7693e+005 96976 234618,234722,234670
 8.4000e+001 234748 -1.4513e+005 -9.8887e+005 -3.5042e+005 96976 234670,234722,234696
 8.4000e+001 234946 -5.3522e+005 -6.3084e+005  2.9978e+005 96568 234845,234897,234871
 8.4000e+001 234923 -4.4043e+005 -7.6544e+005  7.2342e+005 96568 234819,234897,234845
 8.4000e+001 235196 -3.1089e+004 -8.7397e+005  6.6463e+003 96216 234997,235075,235049
 8.4000e+001 235173 -3.8543e+004 -1.2553e+006  1.6755e+005 96216 234997,235101,235075
 8.4000e+001 235150 -3.0890e+005 -1.8176e+006  1.5992e+005 96216 234997,235049,235023
 8.4000e+001 235127 -4.1355e+004 -1.2287e+006  2.2639e+005 96216 234971,235101,234997
 8.4000e+001 235348 -1.1075e+006 -1.7327e+006 -6.6738e+005 95863 235247,235299,235273
 8.4000e+001 235325 -9.7759e+005 -1.2896e+006 -5.9556e+005 95863 235221,235299,235247
 8.4000e+001 235500 -6.9632e+004 -5.6011e+005  1.0298e+005 95339 235373,235425,235399
 8.4000e+001 235477 -1.5628e+005 -7.3977e+005  9.1922e+005 95339 235373,235451,235425
 8.4000e+001 235701  9.9683e+004 -1.8684e+006  4.3793e+005 95023 235525,235577,235551
 8.4000e+001 235678  1.5350e+003 -1.1787e+006 -1.3512e+005 95023 235525,235629,235577
 8.4000e+001 235655 -1.8466e+005 -9.7028e+005 -1.0817e+005 95023 235577,235629,235603
 8.4000e+001 235853  2.6276e+004 -1.2749e+007 -4.9624e+005 94671 235726,235778,235752
 8.4000e+001 235830  2.4520e+005 -1.4064e+007  4.9047e+005 94671 235726,235804,235778
 8.4000e+001 236005 -2.2741e+006 -6.5487e+006  1.1950e+006 94261 235904,235956,235930
 8.4000e+001 235982 -1.0704e+006 -1.1671e+007 -3.9015e+006 94261 235878,235956,235904
 8.4000e+001 236206 -1.9924e+006 -5.2462e+005  8.1125e+005 93853 236056,236134,236082
 8.4000e+001 236183 -2.3750e+006 -6.2586e+005  6.9090e+005 93853 236030,236134,236056
 8.4000e+001 236160 -1.4295e+006 -8.1739e+005  9.3785e+005 93853 236082,236134,236108
 8.4000e+001 236407 -1.5006e+006 -3.3242e+006  6.3825e+005 93557 236257,236309,236283
 8.4000e+001 236384 -2.6976e+006 -4.2505e+006 -2.4278e+006 93557 236231,236309,236257
 8.4000e+001 236361  1.4900e+006 -1.8511e+007  2.1240e+006 93557 236231,236335,236309
 8.4000e+001 236559 -5.2080e+003 -2.2167e+004  5.4674e+003 93149 236432,236484,236458
 8.4000e+001 236536 -3.6031e+003 -1.4604e+004  4.2099e+003 93149 236432,236510,236484
 8.4000e+001 236711 -6.4333e+004 -7.4757e+004  6.1853e+004 92853 236584,236636,236610
 8.4000e+001 236688 -8.1456e+004 -6.0462e+004  6.5437e+004 92853 236584,236662,236636
 8.4000e+001 236912 -1.8662e+005 -1.0435e+006  4.1127e+005 92501 236736,236788,236762
 8.4000e+001 236889 -3.4973e+005 -8.8788e+005  3.3899e+005 92501 236736,236840,236788
 8.4000e+001 236866 -2.3135e+005 -8.3822e+005  3.9230e+004 92501 236788,236840,236814
 8.4000e+001 237113 -7.0836e+004 -3.8859e+006  1.2458e+005 92291 236963,237041,237015
 8.4000e+001 237090  1.9101e+005 -2.2334e+006  1.0562e+005 92291 236937,237041,236963
 8.4000e+001 237067 -1.7755e+005 -3.5294e+006  7.9082e+005 92291 236963,237015,236989
 8.4000e+001 237265  5.3139e+004 -2.5961e+005 -2.8973e+005 91871 237138,237190,237164
 8.4000e+001 237242 -2.1077e+005 -1.0189e+006 -4.7132e+005 91871 237138,237216,237190
 8.4000e+001 237368 -4.7696e+004 -1.8990e+006 -1.4951e+005 91581 237290,237342,237316
 8.4000e+001 237520 -7.7717e+004 -1.2301e+005  9.1961e+004 91184 237419,237471,237445
 8.4000e+001 237497 -1.1698e+005 -2.3715e+004  1.8223e+005 91184 237393,237471,237419
 8.4000e+001 237672 -1.4292e+005 -7.9748e+005 -1.0650e+005 90894 237545,237597,237571
 8.4000e+001 237649  5.6171e+004 -1.8804e+006  3.8496e+005 90894 237545,237623,237597
 8.4000e+001 237873 -2.7637e+005 -1.9454e+006  7.2793e+005 90490 237749,237801,237775
 8.4000e+001 237850 -9.0822e+004 -2.7192e+006  9.4204e+005 90490 237723,237801,237749
 8.4000e+001 237827 -5.6851e+005 -2.8312e+006  2.6760e+005 90490 237697,237801,237723
 8.4000e+001 238074 -5.1563e+005 -4.6467e+006  2.4408e+005 90100 237898,237976,237950
 8.4000e+001 238051 -1.9782e+006 -4.6303e+006 -1.9203e+005 90100 237898,238002,237976
 8.4000e+001 238028 -7.2336e+005 -1.9236e+006  4.5548e+005 90100 237898,237950,237924
 8.4000e+001 238275 -6.6200e+004 -5.6240e+005  1.7178e+005 89696 238125,238177,238151
 8.4000e+001 238252 -4.6589e+005 -3.3864e+005 -3.6217e+005 89696 238099,238177,238125
 8.4000e+001 238229 -5.4201e+005 -2.1575e+006 -2.0384e+005 89696 238099,238203,238177
 8.4000e+001 238427  3.9620e+002 -4.2449e+002  1.8566e+003 89206 238326,238378,238352
 8.4000e+001 238404 -1.4482e+003  2.2492e+003  8.0397e+002 89206 238300,238378,238326
 8.4000e+001 238579 -1.0412e+005 -1.7055e+006  7.5566e+004 88908 238452,238504,238478
 8.4000e+001 238556 -1.8423e+005 -1.7970e+006  2.3061e+005 88908 238452,238530,238504
 8.4000e+001 238682  5.2865e+001 -8.5749e+001 -1.6624e+002 88568 238604,238656,238630
 8.4000e+001 238883 -2.3906e+005 -3.4380e+006  1.3504e+006 88278 238733,238811,238785
 8.4000e+001 238860 -5.4180e+005 -2.5877e+006  1.2908e+006 88278 238707,238811,238733
 8.4000e+001 238837 -1.2053e+005 -3.7203e+006  6.6846e+005 88278 238733,238785,238759
 8.4000e+001 239035 -2.5372e+006 -4.0660e+006 -7.6841e+005 87988 238908,238960,238934
 8.4000e+001 239012 -2.6768e+006 -2.0928e+006 -1.3852e+005 87988 238908,238986,238960
 8.4000e+001 239138 -6.3659e+005 -1.3744e+006 -4.0235e+005 87648 239060,239112,239086
 8.4000e+001 239339 -3.7281e+006 -3.4629e+006 -3.2911e+006 87358 239163,239215,239189
 8.4000e+001 239316 -3.7060e+006 -1.2207e+006 -4.8644e+005 87358 239163,239241,239215
 8.4000e+001 239293 -1.2648e+006 -1.2934e+006 -1.0060e+006 87358 239163,239267,239241
 8.4000e+001 239589 -1.1968e+003 -1.3784e+005  2.9658e+004 86961 239390,239468,239416
 8.4000e+001 239566 -1.3661e+005 -7.8782e+004  1.7303e+005 86961 239390,239494,239468
 8.4000e+001 239543 -2.1250e+004 -4.6984e+003  1.0003e+004 86961 239416,239468,239442
 8.4000e+001 239520 -2.1559e+005 -7.1921e+004  1.5118e+005 86961 239364,239494,239390
 8.4000e+001 239741 -1.2393e+006 -8.7835e+005  3.0234e+003 86621 239640,239692,239666
 8.4000e+001 239718 -3.7587e+005 -2.7380e+006 -1.2881e+006 86621 239614,239692,239640
 8.4000e+001 239893 -7.2346e+005 -2.7436e+006  8.8934e+005 86217 239792,239844,239818
 8.4000e+001 239870 -5.8941e+005 -3.9248e+006  1.4545e+006 86217 239766,239844,239792
 8.4000e+001 240045 -8.0461e+005 -2.8277e+006  8.9510e+005 85827 239918,239970,239944
 8.4000e+001 240022 -2.6146e+005 -2.6637e+006  1.9294e+005 85827 239918,239996,239970
 8.4000e+001 240197 -1.0182e+006 -4.3523e+006  5.5708e+005 85437 240096,240148,240122
 8.4000e+001 240174 -8.6052e+005 -6.2712e+005  3.7329e+005 85437 240070,240148,240096
 8.4000e+001 240349  1.4908e+004 -3.1464e+005  8.8124e+004 85147 240222,240274,240248
 8.4000e+001 240326 -1.8629e+004 -2.0340e+005 -3.1730e+004 85147 240222,240300,240274
 8.4000e+001 240501 -7.5066e+004 -4.3506e+005 -6.0638e+004 84807 240374,240426,240400
 8.4000e+001 240478 -4.2626e+005 -1.1285e+006  6.4344e+005 84807 240374,240452,240426
 8.4000e+001 240653 -2.0827e+002  8.2100e+002  8.9527e+002 84303 240552,240604,240578
 8.4000e+001 240630 -8.3085e+002  1.5297e+002 -9.9735e+001 84303 240526,240604,240552
 8.4000e+001 240854 -9.9254e+005 -8.8675e+006 -4.9524e+006 83929 240704,240756,240730
 8.4000e+001 240831  1.3847e+006 -6.6127e+006  2.4703e+006 83929 240704,240782,240756
 8.4000e+001 240808 -3.1049e+006  2.3691e+006  2.5759e+006 83929 240678,240782,240704
 8.4000e+001 241055 -1.4086e+003 -4.7798e+002  9.2079e+002 83539 240879,240957,240931
 8.4000e+001 241032  3.7635e+002  6.5527e+002 -3.2428e+002 83539 240879,240983,240957
 8.4000e+001 241009 -2.2540e+003  4.3873e+003  4.1758e+002 83539 240879,240931,240905
 8.4000e+001 241207 -2.1319e+004 -2.7017e+005  3.5509e+004 83079 241106,241158,241132
 8.4000e+001 241184  2.7690e+003 -2.6662e+005  4.8289e+004 83079 241080,241158,241106
 8.4000e+001 241408 -4.7374e+005 -7.6428e+005 -9.9377e+005 82665 241232,241284,241258
 8.4000e+001 241385 -2.6224e+005  1.2583e+006 -2.8830e+006 82665 241232,241336,241284
 8.4000e+001 241362 -2.9314e+006 -1.1479e+007  4.9568e+006 82665 241284,241336,241310
 8.4000e+001 241658 -2.5387e+005 -3.9346e+006  5.2753e+005 82375 241485,241563,241511
 8.4000e+001 241635 -2.1573e+004 -2.2798e+006  2.4977e+005 82375 241433,241563,241485
 8.4000e+001 241612 -1.1555e+005 -2.6863e+006  2.3868e+005 82375 241433,241485,241459
 8.4000e+001 241589 -6.6997e+005 -4.4036e+006  7.9173e+005 82375 241511,241563,241537
 8.4000e+001 241810 -6.8962e+005 -9.3782e+005 -4.9913e+005 82035 241683,241735,241709
 8.4000e+001 241787 -4.4495e+005 -1.7164e+006  5.8999e+005 82035 241683,241761,241735
 8.4000e+001 241962 -7.8067e+005 -1.8270e+006  5.9455e+005 81695 241861,241913,241887
 8.4000e+001 241939 -4.2259e+005 -2.5339e+006 -7.1555e+005 81695 241835,241913,241861
 8.4000e+001 242114 -8.5046e+005 -4.0987e+006  1.0233e+006 81355 242013,242065,242039
 8.4000e+001 242091 -3.1234e+005 -2.1255e+006  7.3914e+005 81355 241987,242065,242013
 8.4000e+001 242266 -9.6064e+002 -2.7302e+005  1.7168e+004 80951 242139,242191,242165
 8.4000e+001 242243 -1.2665e+003 -2.7440e+005  1.8061e+004 80951 242139,242217,242191
 8.4000e+001 242467 -4.3221e+005 -4.9714e+006  5.9014e+005 80311 242291,242369,242343
 8.4000e+001 242444  1.5705e+005 -2.4959e+006  4.4797e+005 80311 242291,242395,242369
 8.4000e+001 242421 -1.8479e+005 -1.2219e+006  2.2452e+005 80311 242291,242343,242317
 8.4000e+001 242619 -1.6127e+006 -2.6472e+006  4.2626e+005 80021 242492,242544,242518
 8.4000e+001 242596 -1.5631e+006 -2.4545e+006  1.6281e+006 80021 242492,242570,242544
 8.4000e+001 242869 -3.9067e+004 -7.9587e+004 -6.5451e+003 79631 242644,242722,242696
 8.4000e+001 242846 -1.9833e+004 -3.3656e+005  6.5687e+004 79631 242644,242774,242722
 8.4000e+001 242823  2.8036e+004 -1.9396e+005  1.9435e+004 79631 242722,242774,242748
 8.4000e+001 242800 -3.2290e+004 -8.8791e+004  4.2463e+004 79631 242644,242696,242670
 8.4000e+001 243070  3.6886e+005 -1.4405e+007  3.3949e+006 79341 242920,242972,242946
 8.4000e+001 243047 -6.5876e+005 -6.5538e+006 -6.9114e+005 79341 242920,242998,242972
 8.4000e+001 243024 -7.4777e+005 -3.7843e+006  1.6821e+006 79341 242894,242998,242920
 8.4000e+001 243222 -2.8422e+005 -2.3181e+006  8.7187e+005 78801 243121,243173,243147
 8.4000e+001 243199 -4.0072e+005 -2.6674e+006  1.0183e+006 78801 243095,243173,243121
 8.4000e+001 243423 -9.9666e+005 -1.8262e+006 -8.8032e+005 78511 243273,243325,243299
 8.4000e+001 243400  8.4823e+005 -5.1499e+006  7.4500e+005 78511 243273,243351,243325
 8.4000e+001 243377 -2.0675e+003 -5.3943e+006  1.0812e+005 78511 243247,243351,243273
 8.4000e+001 243624 -3.5237e+005 -2.8526e+006 -1.0042e+006 78107 243474,243552,243526
 8.4000e+001 243601 -5.2284e+005 -3.5155e+006 -1.0772e+006 78107 243448,243552,243474
 8.4000e+001 243578 -5.9893e+005 -1.9659e+006 -1.6821e+005 78107 243474,243526,243500
 8.4000e+001 243776 -9.5677e+005 -4.7855e+006 -1.0820e+006 77653 243649,243701,243675
 8.4000e+001 243753 -1.0822e+006 -4.9754e+006 -9.4545e+005 77653 243649,243727,243701
 8.4000e+001 243977 -4.1953e+005 -5.9382e+006  3.7378e+004 77093 243801,243853,243827
 8.4000e+001 243954 -7.9043e+004 -4.8797e+006  7.4017e+005 77093 243801,243879,243853
 8.4000e+001 243931 -4.0136e+005 -1.8157e+006 -2.0122e+005 77093 243801,243905,243879
 8.4000e+001 244080 -5.5085e+005 -5.8817e+006  2.8744e+005 76791 244002,244054,244028
 8.4000e+001 244232 -4.2457e+003 -2.6023e+006 -2.1205e+005 76311 244131,244183,244157
 8.4000e+001 244209 -1.9508e+005 -4.6766e+006 -2.1895e+005 76311 244105,244183,244131
 8.4000e+001 244433  4.6437e+005 -1.5709e+007  4.2901e+006 75903 244283,244335,244309
 8.4000e+001 244410 -8.8783e+005 -9.5358e+006 -4.6936e+005 75903 244283,244361,244335
 8.4000e+001 244387 -1.3285e+006 -8.0193e+006  5.8655e+005 75903 244257,244361,244283
 8.4000e+001 244585  2.9078e+005 -1.5442e+007  1.6279e+006 75419 244458,244510,244484
 8.4000e+001 244562 -8.0865e+005 -7.9066e+006 -1.5078e+005 75419 244458,244536,244510
 8.4000e+001 244737 -3.9714e+005 -6.5208e+005 -1.7865e+005 75215 244636,244688,244662
 8.4000e+001 244714 -2.8657e+005 -2.9494e+006 -1.7143e+005 75215 244610,244688,244636
 8.4000e+001 244889 -9.2102e+005 -4.2332e+006 -7.0632e+005 74857 244788,244840,244814
 8.4000e+001 244866 -2.7099e+005 -1.8881e+006 -2.8273e+005 74857 244762,244840,244788
 8.4000e+001 245041 -2.8543e+005 -2.1147e+006 -1.1469e+006 74653 244940,244992,244966
 8.4000e+001 245018 -3.5048e+005 -4.9628e+005  9.4697e+005 74653 244914,244992,244940
 8.4000e+001 245144 -1.3653e+006 -5.4279e+006 -1.3199e+006 74359 245066,245118,245092
 8.4000e+001 245296 -1.3377e+004 -2.8767e+005 -9.2121e+004 74007 245169,245221,245195
 8.4000e+001 245273 -8.6236e+004 -4.9191e+005 -1.4308e+005 74007 245169,245247,245221
 8.4000e+001 245448 -2.5106e+006 -4.8665e+006 -8.9076e+005 73711 245321,245373,245347
 8.4000e+001 245425 -2.3775e+006 -4.8364e+006 -7.3563e+005 73711 245321,245399,245373
 8.4000e+001 245600  1.2016e+006 -1.3094e+007 -1.6853e+006 73301 245499,245551,245525
 8.4000e+001 245577 -1.6350e+006 -8.2284e+006  1.9875e+006 73301 245473,245551,245499
 8.4000e+001 245752 -2.8604e+006 -4.3065e+006 -2.6246e+006 72995 245625,245677,245651
 8.4000e+001 245729  8.7459e+005 -1.5989e+007 -2.2683e+006 72995 245625,245703,245677
 8.4000e+001 245953 -1.2920e+006 -1.3832e+007  8.0390e+005 72585 245777,245829,245803
 8.4000e+001 245930 -5.8885e+005 -1.3961e+007  1.7788e+006 72585 245777,245855,245829
 8.4000e+001 245907 -1.6208e+006 -9.3899e+006  5.4068e+005 72585 245777,245881,245855
 8.4000e+001 246154 -4.8299e+005 -7.2660e+006  1.4339e+006 72127 246030,246082,246056
 8.4000e+001 246131 -1.0506e+006 -8.2664e+006  6.6724e+005 72127 245978,246082,246030
 8.4000e+001 246108 -1.2812e+005 -9.6749e+006  3.5209e+005 72127 245978,246030,246004
 8.4000e+001 246257 -1.6076e+006 -2.5164e+005 -2.2311e+005 71737 246179,246231,246205
 8.4000e+001 246360  1.2534e+005 -3.0881e+006  5.1901e+005 71447 246282,246334,246308
 8.4000e+001 246512 -1.3529e+005 -1.8242e+006  8.0014e+005 71157 246385,246437,246411
 8.4000e+001 246489 -5.7762e+004 -1.3571e+006 -6.3385e+004 71157 246385,246463,246437
 8.4000e+001 246664 -1.7858e+005 -1.9765e+006 -5.9981e+005 70753 246537,246589,246563
 8.4000e+001 246641 -7.9520e+005 -6.3258e+005 -3.2130e+005 70753 246537,246615,246589
 8.4000e+001 246865 -1.5442e+006 -7.9548e+006  4.0796e+006 70249 246715,246767,246741
 8.4000e+001 246842 -3.4271e+006 -7.8464e+006 -3.3875e+004 70249 246715,246793,246767
 8.4000e+001 246819 -1.6409e+005 -1.5247e+007 -4.3815e+006 70249 246689,246793,246715
 8.4000e+001 247066  2.1447e+004 -1.4634e+006  1.9803e+005 70023 246916,246994,246942
 8.4000e+001 247043 -1.1167e+005 -1.0779e+006  3.5899e+005 70023 246890,246994,246916
 8.4000e+001 247020  8.0260e+004 -1.3599e+006  3.3065e+005 70023 246942,246994,246968
 8.4000e+001 247267 -3.1142e+005 -3.1514e+006 -6.1620e+005 69633 247091,247143,247117
 8.4000e+001 247244 -1.2225e+005 -2.2985e+006 -5.0423e+005 69633 247091,247169,247143
 8.4000e+001 247221 -1.2439e+005 -2.0788e+006 -4.6167e+005 69633 247091,247195,247169
 8.4000e+001 247419 -1.0861e+006 -4.5707e+006  4.3000e+005 69457 247318,247370,247344
 8.4000e+001 247396 -1.2153e+006 -1.8274e+006  7.1241e+005 69457 247292,247370,247318
 8.4000e+001 247522 -9.5990e+000 -6.6044e+001 -3.8925e+000 69209 247444,247496,247470
 8.4000e+001 247625 -1.0429e+006 -1.0769e+006 -8.2412e+005 68919 247547,247599,247573
 8.4000e+001 247777  1.1918e+005 -3.6931e+006 -1.9279e+005 68579 247650,247702,247676
 8.4000e+001 247754  1.5671e+005 -7.9511e+005 -2.8529e+005 68579 247650,247728,247702
 8.4000e+001 247929 -1.2835e+005 -3.8045e+006  6.9335e+005 68289 247802,247854,247828
 8.4000e+001 247906 -4.1571e+005 -2.1745e+006 -7.7053e+005 68289 247802,247880,247854
 8.4000e+001 248081 -2.3534e+005 -2.5094e+006  7.9118e+005 67949 247980,248032,248006
 8.4000e+001 248058 -3.3218e+005 -4.0012e+005  2.6904e+004 67949 247954,248032,247980
 8.4000e+001 248233 -1.6487e+006 -5.1455e+006 -6.9306e+005 67616 248132,248184,248158
 8.4000e+001 248210 -7.3732e+005 -4.3163e+006 -1.6293e+005 67616 248106,248184,248132
 8.4000e+001 248434 -7.7497e+004 -2.4698e+006 -1.6226e+005 67212 248284,248336,248310
 8.4000e+001 248411 -3.6296e+005 -2.5047e+006 -4.7779e+004 67212 248258,248336,248284
 8.4000e+001 248388 -1.0230e+006 -7.6790e+005 -4.5421e+005 67212 248258,248362,248336
 8.4000e+001 248586 -3.6806e+005 -3.6654e+006 -4.9828e+005 66872 248485,248537,248511
 8.4000e+001 248563 -2.4535e+005 -1.7173e+006 -5.2943e+005 66872 248459,248537,248485
 8.4000e+001 248738 -4.5389e+005 -5.0310e+006  1.9692e+005 66510 248637,248689,248663
 8.4000e+001 248715 -5.9456e+005 -5.3067e+006  8.9100e+004 66510 248611,248689,248637
 8.4000e+001 248890 -2.7998e+004 -7.3773e+005  1.4314e+005 66220 248789,248841,248815
 8.4000e+001 248867 -4.4983e+004 -9.6591e+005 -3.1443e+005 66220 248763,248841,248789
 8.4000e+001 249091 -1.1335e+006 -7.8625e+006  1.4344e+006 65759 248915,248967,248941
 8.4000e+001 249068 -9.6782e+005 -4.7864e+006  1.9145e+006 65759 248915,248993,248967
 8.4000e+001 249045 -4.2043e+005 -3.5529e+006  3.0401e+005 65759 248915,249019,248993
 8.4000e+001 249243 -7.5202e+004 -7.0887e+006  1.5022e+006 65419 249142,249194,249168
 8.4000e+001 249220  1.9952e+005 -1.4588e+006  2.7326e+005 65419 249116,249194,249142
 8.4000e+001 249395 -1.9417e+005 -2.1644e+006 -5.0995e+005 65079 249268,249320,249294
 8.4000e+001 249372 -3.5881e+005 -3.2040e+006 -5.6077e+005 65079 249268,249346,249320
 8.4000e+001 249547 -1.6806e+006 -6.5185e+006  1.6966e+006 64739 249420,249472,249446
 8.4000e+001 249524 -3.1509e+005 -4.7725e+006 -1.6453e+006 64739 249420,249498,249472
 8.4000e+001 249650 -1.2854e+006 -3.9852e+006 -1.7892e+006 64342 249572,249624,249598
 8.4000e+001 249851 -3.4119e+003 -3.2827e+006 -2.4190e+005 63938 249701,249779,249753
 8.4000e+001 249828 -7.4848e+004 -3.4041e+006  3.7785e+005 63938 249675,249779,249701
 8.4000e+001 249805 -3.2406e+005 -1.0277e+006 -1.8991e+005 63938 249701,249753,249727
 8.4000e+001 250052 -3.2797e+005 -3.7388e+006 -5.5447e+005 63341 249876,249954,249902
 8.4000e+001 250029 -5.1579e+005 -4.0374e+006 -3.9116e+005 63341 249876,249980,249954
 8.4000e+001 250006 -1.9042e+005 -4.1108e+006 -2.4719e+005 63341 249902,249954,249928
 8.4000e+001 250253 -6.7895e+005 -5.2797e+005 -2.5602e+004 63058 250077,250129,250103
 8.4000e+001 250230 -2.4188e+006 -2.5868e+006  1.4058e+006 63058 250077,250155,250129
 8.4000e+001 250207 -4.4079e+005 -1.5960e+006  3.8820e+005 63058 250077,250181,250155
 8.4000e+001 250454 -5.9027e+005 -5.4796e+006  5.3412e+005 62832 250304,250382,250330
 8.4000e+001 250431  6.4561e+003 -6.6905e+006 -1.8125e+006 62832 250278,250382,250304
 8.4000e+001 250408 -1.1955e+006 -4.0959e+006  7.0681e+004 62832 250330,250382,250356
 8.4000e+001 250606 -1.0776e+006 -4.4256e+006 -1.4197e+006 62428 250479,250531,250505
 8.4000e+001 250583 -1.4531e+005 -9.8812e+006 -1.5080e+006 62428 250479,250557,250531
 8.4000e+001 250758 -1.6575e+005 -6.5872e+006  9.0464e+005 62202 250631,250683,250657
 8.4000e+001 250735 -3.6600e+005 -5.9901e+006 -3.6530e+004 62202 250631,250709,250683
 8.4000e+001 250861  2.5827e+004 -2.5677e+006 -2.5587e+005 61954 250783,250835,250809
 8.4000e+001 251062 -2.6831e+006 -3.8168e+006  1.0229e+005 61557 250912,250990,250938
 8.4000e+001 251039  3.5260e+005 -1.0300e+007 -2.7712e+006 61557 250886,250990,250912
 8.4000e+001 251016 -2.2915e+006 -5.7679e+006 -3.7679e+006 61557 250938,250990,250964
 8.4000e+001 251263 -5.3495e+005 -5.4549e+006 -8.2210e+004 61167 251113,251165,251139
 8.4000e+001 251240 -6.2229e+005 -4.7025e+006 -1.5832e+005 61167 251113,251191,251165
 8.4000e+001 251217 -1.2042e+006 -4.7205e+006  5.2583e+005 61167 251087,251191,251113
 8.4000e+001 251415 -9.6903e+005 -4.0521e+006  1.6580e+006 60827 251288,251340,251314
 8.4000e+001 251392 -3.0860e+005 -1.6096e+006 -2.9997e+005 60827 251288,251366,251340
 8.4000e+001 251567 -1.6317e+005 -2.6280e+006 -1.4169e+005 60487 251466,251518,251492
 8.4000e+001 251544 -6.5109e+005 -3.5741e+006 -6.6528e+005 60487 251440,251518,251466
 8.4000e+001 251719 -8.0046e+004 -7.0530e+006 -2.7962e+005 59983 251592,251644,251618
 8.4000e+001 251696 -6.1011e+005 -5.1680e+006 -2.6203e+005 59983 251592,251670,251644
 8.4000e+001 251920 -1.0363e+005 -1.3430e+006 -3.5667e+003 59807 251770,251848,251796
 8.4000e+001 251897 -6.1046e+004 -9.0037e+005 -5.8694e+004 59807 251744,251848,251770
 8.4000e+001 251874 -8.0778e+004 -1.1382e+006  6.0393e+004 59807 251796,251848,251822
 8.4000e+001 252023  5.1144e+005 -3.9759e+006 -1.3686e+005 59517 251945,251997,251971
 8.4000e+001 252175  1.1141e+006 -9.4772e+006 -1.5585e+005 59269 252074,252126,252100
 8.4000e+001 252152 -3.7230e+004 -6.5625e+006  3.1837e+004 59269 252048,252126,252074
 8.4000e+001 252278 -1.0368e+006 -5.7145e+006  8.1200e+005 58979 252200,252252,252226
 8.4000e+001 252381 -2.4897e+006 -1.6047e+006  1.2854e+006 58689 252303,252355,252329
 8.4000e+001 252533 -4.7383e+005 -3.0427e+006 -6.6788e+005 58249 252432,252484,252458
 8.4000e+001 252510 -7.9530e+005 -4.3847e+006 -6.4980e+005 58249 252406,252484,252432
 8.4000e+001 252734 -6.7093e+004 -2.2165e+006  1.5034e+005 57902 252584,252662,252610
 8.4000e+001 252711  9.4564e+004 -3.8156e+006 -6.4277e+005 57902 252558,252662,252584
 8.4000e+001 252688  7.0131e+004 -1.4968e+006  6.4091e+004 57902 252610,252662,252636
 8.4000e+001 252886  1.9272e+005 -5.3330e+006 -2.8932e+005 57540 252785,252837,252811
 8.4000e+001 252863  6.9352e+004 -3.7002e+006  1.6002e+005 57540 252759,252837,252785
 8.4000e+001 253038 -9.5903e+005 -6.0902e+006  1.6296e+006 57086 252937,252989,252963
 8.4000e+001 253015 -3.0139e+005 -1.0961e+006  3.9027e+005 57086 252911,252989,252937
 8.4000e+001 253239 -7.9294e+005 -5.3571e+006 -4.4329e+005 56796 253063,253141,253115
 8.4000e+001 253216 -1.0564e+005 -5.4598e+006  1.7921e+005 56796 253063,253167,253141
 8.4000e+001 253193 -5.7284e+006 -9.9955e+005  7.6641e+005 56796 253063,253115,253089
 8.4000e+001 253342 -6.5643e+005 -1.2276e+007 -1.3688e+005 56349 253264,253316,253290
 8.4000e+001 253543 -2.8877e+005 -2.6626e+006 -1.1903e+006 56009 253367,253419,253393
 8.4000e+001 253520 -5.7063e+005 -1.2660e+006 -6.3636e+005 56009 253367,253445,253419
 8.4000e+001 253497 -4.0730e+005 -1.2623e+006 -6.5823e+005 56009 253367,253471,253445
 8.4000e+001 253695 -2.0313e+005 -6.8626e+005  3.6809e+005 55733 253594,253646,253620
 8.4000e+001 253672 -4.5272e+005 -2.6349e+005  3.3879e+005 55733 253568,253646,253594
 8.4000e+001 253798 -6.6449e+005 -1.3859e+006 -2.2625e+005 55557 253720,253772,253746
 8.4000e+001 253950 -6.5358e+005 -2.8969e+006 -3.2632e+003 55153 253849,253901,253875
 8.4000e+001 253927 -2.4663e+005 -3.3336e+006 -5.1887e+005 55153 253823,253901,253849
 8.4000e+001 254151 -1.0582e+006 -3.7603e+006  3.4002e+005 54863 253975,254053,254001
 8.4000e+001 254128 -8.8029e+005 -3.3918e+006  1.9238e+005 54863 253975,254079,254053
 8.4000e+001 254105 -1.0324e+006 -5.0724e+006  9.3707e+005 54863 254001,254053,254027
 8.4000e+001 254303 -6.9971e+004 -2.9469e+005  1.7346e+005 54373 254176,254228,254202
 8.4000e+001 254280 -2.1145e+005 -3.6430e+005  2.4839e+005 54373 254176,254254,254228
 8.4000e+001 254455 -7.8488e+004 -4.2385e+006 -4.2014e+005 53975 254354,254406,254380
 8.4000e+001 254432 -2.8900e+005 -9.3457e+005  1.3529e+005 53975 254328,254406,254354
 8.4000e+001 254607 -1.5604e+005 -5.1073e+006 -4.3862e+004 53585 254480,254532,254506
 8.4000e+001 254584 -3.9099e+005 -4.2907e+006 -1.0645e+005 53585 254480,254558,254532
 8.4000e+001 254808 -8.3046e+005 -3.5700e+006  1.9600e+005 53245 254658,254736,254684
 8.4000e+001 254785 -9.4187e+005 -4.9522e+005 -3.3904e+005 53245 254632,254736,254658
 8.4000e+001 254762 -4.4415e+005 -1.6201e+006  1.8740e+005 53245 254684,254736,254710
 8.4000e+001 254911 -1.5184e+005 -1.4050e+006 -3.2060e+005 52955 254833,254885,254859
 8.4000e+001 255063 -4.6853e+005 -6.8216e+006  5.4438e+004 52551 254962,255014,254988
 8.4000e+001 255040 -6.2048e+005 -6.9781e+006 -4.1329e+004 52551 254936,255014,254962
 8.4000e+001 255264 -1.1178e+006 -1.0562e+006 -6.0849e+005 52261 255114,255166,255140
 8.4000e+001 255241 -1.2067e+006 -2.3271e+006 -1.7915e+005 52261 255114,255192,255166
 8.4000e+001 255218 -5.3054e+006 -1.1114e+006  9.2269e+005 52261 255088,255192,255114
 8.4000e+001 255416 -9.5138e+005 -5.5398e+006  2.1994e+006 51971 255289,255341,255315
 8.4000e+001 255393 -3.1933e+005 -4.8098e+006 -5.2426e+005 51971 255289,255367,255341
 8.4000e+001 255568  1.5167e+005 -1.5019e+006 -4.9015e+005 51681 255441,255493,255467
 8.4000e+001 255545 -1.3306e+005 -1.0889e+006 -5.0169e+005 51681 255441,255519,255493
 8.4000e+001 255769 -2.5115e+005 -2.6416e+006  6.8541e+004 51291 255619,255697,255671
 8.4000e+001 255746 -2.3131e+005 -2.3051e+006 -2.4698e+005 51291 255593,255697,255619
 8.4000e+001 255723 -3.0074e+005 -5.7227e+006 -6.8316e+005 51291 255619,255671,255645
 8.4000e+001 255921 -6.7095e+005 -3.0833e+006  8.4761e+005 50951 255820,255872,255846
 8.4000e+001 255898 -1.2893e+005 -1.2349e+006  4.4696e+004 50951 255794,255872,255820
 8.4000e+001 256171 -7.7042e+005 -5.3442e+006  7.1252e+005 50547 256024,256076,256050
 8.4000e+001 256148 -8.4440e+005 -4.1250e+006  2.7509e+005 50547 255972,256076,256024
 8.4000e+001 256125 -1.1305e+005 -4.0757e+006  3.1730e+005 50547 255946,256076,255972
 8.4000e+001 256102 -7.5953e+005 -4.8953e+006  5.0178e+005 50547 255972,256024,255998
 8.4000e+001 256323  1.2203e+005 -4.1672e+006  4.2583e+005 50093 256196,256248,256222
 8.4000e+001 256300 -1.0373e+006 -2.5979e+006 -8.2554e+005 50093 256196,256274,256248
 8.4000e+001 256426 -2.5710e+000 -8.7502e+001  2.7235e+000 49845 256348,256400,256374
 8.4000e+001 256627  6.7463e+004 -5.7351e+006  8.6001e+004 49555 256477,256555,256503
 8.4000e+001 256604 -3.4563e+004 -2.8653e+006  2.3307e+005 49555 256451,256555,256477
 8.4000e+001 256581 -3.7839e+005 -5.0802e+006  3.5169e+005 49555 256503,256555,256529
 8.4000e+001 256828 -4.2098e+005 -2.3817e+006 -4.5630e+005 49056 256652,256730,256678
 8.4000e+001 256805 -7.1597e+005 -2.0394e+006 -2.6500e+005 49056 256652,256756,256730
 8.4000e+001 256782 -3.2150e+005 -3.7016e+006  4.8330e+005 49056 256678,256730,256704
 8.4000e+001 256931 -3.4664e+004 -4.9087e+004  3.8016e+004 48766 256853,256905,256879
 8.4000e+001 257083 -1.7424e+006 -5.0977e+006 -7.5696e+005 48568 256982,257034,257008
 8.4000e+001 257060 -6.7579e+005 -8.6132e+005 -1.8167e+005 48568 256956,257034,256982
 8.4000e+001 257186 -5.5814e+002 -3.5918e+006  3.4528e+002 48228 257108,257160,257134
 8.4000e+001 257338 -1.2170e+006 -5.1686e+005  2.9631e+005 47888 257237,257289,257263
 8.4000e+001 257315 -5.1260e+005 -3.5415e+006  1.8924e+006 47888 257211,257289,257237
 8.4000e+001 257539 -4.1552e+005 -3.3562e+006  1.3320e+005 47548 257363,257441,257415
 8.4000e+001 257516 -7.0186e+005 -3.1064e+006 -3.3651e+005 47548 257363,257467,257441
 8.4000e+001 257493 -8.0004e+005 -2.3653e+006 -7.4428e+004 47548 257363,257415,257389
 8.4000e+001 257740 -4.8796e+004 -5.3810e+006  4.8460e+005 46994 257564,257642,257616
 8.4000e+001 257717 -4.3730e+005 -3.7040e+006 -1.5448e+005 46994 257564,257668,257642
 8.4000e+001 257694 -8.7974e+005 -5.3418e+006 -1.9948e+005 46994 257564,257616,257590
 8.4000e+001 257843 -3.1560e+005 -9.3386e+005 -1.3898e+005 46654 257765,257817,257791
 8.4000e+001 257995 -5.7479e+005 -2.8141e+006  3.5163e+005 46364 257894,257946,257920
 8.4000e+001 257972 -6.8344e+005 -2.8949e+006  2.9545e+005 46364 257868,257946,257894
 8.4000e+001 258147 -4.6283e+004 -3.4196e+006  1.0950e+005 46024 258046,258098,258072
 8.4000e+001 258124 -3.9934e+005 -2.4256e+006  4.3142e+005 46024 258020,258098,258046
 8.4000e+001 258250 -4.7519e+005 -7.6567e+005  3.7907e+005 45741 258172,258224,258198
 8.4000e+001 258402 -8.3848e+005 -3.0580e+006  6.3344e+005 45401 258301,258353,258327
 8.4000e+001 258379 -4.2292e+005 -2.7229e+006  8.7312e+005 45401 258275,258353,258301
 8.4000e+001 258603 -6.8050e+005 -1.7976e+006  2.0393e+004 45071 258427,258505,258479
 8.4000e+001 258580 -2.5719e+005 -4.1892e+006  2.6020e+005 45071 258427,258531,258505
 8.4000e+001 258557 -3.0405e+005 -2.6237e+006  1.8911e+005 45071 258427,258479,258453
 8.4000e+001 258755 -2.0255e+005 -4.1489e+006 -3.9055e+005 44681 258654,258706,258680
 8.4000e+001 258732 -3.5957e+005 -3.1857e+006 -3.9769e+005 44681 258628,258706,258654
 8.4000e+001 258907 -2.0844e+005 -3.2069e+006 -2.6393e+005 44157 258806,258858,258832
 8.4000e+001 258884 -7.0589e+005 -2.4595e+006 -1.8783e+005 44157 258780,258858,258806
 8.4000e+001 259010 -5.5340e+005 -2.2042e+006 -7.6822e+004 43705 258932,258984,258958
 8.4000e+001 259113 -5.5299e+005 -2.5617e+006  8.3836e+004 43284 259035,259087,259061
 8.4000e+001 259216 -3.5980e+005 -4.6020e+006 -1.9701e+005 42954 259138,259190,259164
 8.4000e+001 259319 -6.5066e+005 -1.3920e+006 -2.5187e+004 42116 259241,259293,259267
 8.4000e+001 259422 -5.7444e+005 -6.8550e+006  1.1068e+006 41804 259344,259396,259370
 8.4000e+001 259525 -6.4850e+005 -6.2564e+006  9.6029e+005 41219 259447,259499,259473
 8.4000e+001 259628 -5.6168e+005 -2.8139e+006 -6.1637e+005 385 259550,259602,259576
 8.6000e+001 190120 -1.5876e+005 -2.4848e+006 -4.2222e+005 189630 189993,190045,190019
 8.6000e+001 190097 -7.0842e+005 -1.8569e+006 -2.6652e+005 189630 189993,190071,190045
 8.6000e+001 190319 -1.4425e+006 -4.3664e+006 -4.4118e+005 189312 190169,190221,190195
 8.6000e+001 190296 -6.2969e+005 -3.6466e+006 -1.0656e+006 189312 190169,190247,190221
 8.6000e+001 190273 -9.1340e+005 -2.9398e+006  2.8468e+005 189312 190143,190247,190169
 8.6000e+001 190518 -4.7200e+005 -3.0013e+004 -7.0086e+003 189124 190368,190446,190420
 8.6000e+001 190495 -5.6945e+005 -9.8318e+003  8.8396e+003 189124 190342,190446,190368
 8.6000e+001 190472 -9.5838e+005 -1.1568e+005 -1.0597e+005 189124 190368,190420,190394
 8.6000e+001 190619 -4.5126e+005 -1.0594e+005 -5.4619e+003 188926 190541,190593,190567
 8.6000e+001 190771 -4.8734e+005 -6.8021e+004  2.0451e+004 188614 190670,190722,190696
 8.6000e+001 190748 -5.3119e+005  1.3992e+005  6.1693e+004 188614 190644,190722,190670
 8.6000e+001 190972 -5.0006e+005 -4.7444e+005 -3.0557e+005 188324 190848,190900,190874
 8.6000e+001 190949 -5.2983e+005 -8.8780e+005 -5.4243e+005 188324 190796,190900,190848
 8.6000e+001 190926 -3.8452e+004 -3.6399e+005 -2.1474e+005 188324 190796,190848,190822
 8.6000e+001 191124 -6.6740e+005 -1.1218e+006 -1.6500e+005 188034 191023,191075,191049
 8.6000e+001 191101 -1.7610e+005 -1.2350e+006 -1.2984e+005 188034 190997,191075,191023
 8.6000e+001 191276 -2.0788e+005 -8.3316e+005 -6.6783e+004 187836 191149,191201,191175
 8.6000e+001 191253 -2.4437e+005 -4.3909e+005  1.4820e+005 187836 191149,191227,191201
 8.6000e+001 191379 -4.5903e+005 -3.3471e+005 -9.9621e+004 187546 191301,191353,191327
 8.6000e+001 191531 -2.4172e+005 -3.3541e+006  2.8744e+005 187256 191430,191482,191456
 8.6000e+001 191508 -1.1343e+006 -4.8318e+006 -1.4857e+006 187256 191404,191482,191430
 8.6000e+001 191634 -7.5285e+005 -5.6052e+003 -1.0911e+004 187058 191556,191608,191582
 8.6000e+001 191835 -5.2969e+005  2.4505e+003 -2.9080e+003 186860 191659,191711,191685
 8.6000e+001 191812 -3.0119e+005 -1.4158e+005  3.8133e+004 186860 191659,191737,191711
 8.6000e+001 191789 -2.4832e+005 -7.6924e+004 -6.4809e+004 186860 191659,191763,191737
 8.6000e+001 191987 -3.6839e+005 -1.3219e+005  1.3178e+004 186662 191886,191938,191912
 8.6000e+001 191964 -2.1136e+005 -3.5041e+005  1.5148e+005 186662 191860,191938,191886
 8.6000e+001 192090 -7.0423e+005 -6.8137e+005  1.4112e+004 186486 192012,192064,192038
 8.6000e+001 192242 -1.4536e+005 -6.8787e+006 -3.1578e+005 186288 192115,192167,192141
 8.6000e+001 192219 -7.9400e+005 -4.1284e+006  1.1905e+005 186288 192115,192193,192167
 8.6000e+001 192394  1.4306e+004 -5.5055e+006 -2.9258e+005 185935 192293,192345,192319
 8.6000e+001 192371 -5.0750e+005 -3.8520e+006 -6.7625e+005 185935 192267,192345,192293
 8.6000e+001 192546 -4.5542e+005 -3.1365e+006 -5.5382e+005 185675 192419,192471,192445
 8.6000e+001 192523 -8.9849e+005 -1.5486e+006 -5.8053e+005 185675 192419,192497,192471
 8.6000e+001 192649 -8.0529e+005 -1.5288e+006 -2.0723e+004 185499 192571,192623,192597
 8.6000e+001 192801 -2.2788e+005 -1.3513e+006  2.8389e+005 185301 192674,192726,192700
 8.6000e+001 192778 -2.1725e+005 -1.3747e+006  3.5370e+005 185301 192674,192752,192726
 8.6000e+001 193002 -8.4390e+004 -5.6535e+005 -3.8053e+005 185046 192852,192930,192878
 8.6000e+001 192979 -3.5060e+005 -1.4754e+006 -2.0715e+005 185046 192826,192930,192852
 8.6000e+001 192956  4.2062e+005 -1.8752e+006 -1.8442e+004 185046 192878,192930,192904
 8.6000e+001 193203  1.5617e+005 -4.6581e+006 -6.9775e+005 184798 193079,193131,193105
 8.6000e+001 193180 -9.9944e+005 -3.0809e+006 -1.3358e+005 184798 193027,193131,193079
 8.6000e+001 193157 -1.8153e+006 -3.3096e+006  2.2791e+005 184798 193027,193079,193053
 8.6000e+001 193404 -2.0924e+005 -4.7576e+006 -1.1719e+006 184600 193254,193306,193280
 8.6000e+001 193381 -4.4936e+005 -1.4215e+006 -1.9720e+005 184600 193254,193332,193306
 8.6000e+001 193358 -8.5434e+005 -3.8860e+005 -3.8785e+005 184600 193228,193332,193254
 8.6000e+001 193556 -5.3481e+005 -6.6340e+005 -6.0850e+005 184402 193429,193481,193455
 8.6000e+001 193533 -6.8461e+005 -6.3012e+005 -6.3344e+005 184402 193429,193507,193481
 8.6000e+001 193708  4.5582e+004 -1.6012e+006  1.8799e+005 184204 193607,193659,193633
 8.6000e+001 193685 -5.5352e+005 -5.6580e+006 -9.9438e+005 184204 193581,193659,193607
 8.6000e+001 193860 -4.9201e+005 -9.4471e+005  5.4235e+005 183908 193759,193811,193785
 8.6000e+001 193837 -1.4302e+005 -1.5530e+006  5.5903e+005 183908 193733,193811,193759
 8.6000e+001 194061 -6.7935e+005 -5.1355e+004  1.5675e+005 183710 193911,193989,193937
 8.6000e+001 194038 -5.7318e+005 -2.2563e+005 -5.5847e+004 183710 193885,193989,193911
 8.6000e+001 194015 -5.6461e+005 -1.6269e+005  1.2416e+005 183710 193937,193989,193963
 8.6000e+001 194262 -7.9297e+005 -2.6098e+006 -6.7711e+005 183420 194086,194164,194112
 8.6000e+001 194239 -7.7567e+005 -2.2867e+006 -2.7329e+005 183420 194086,194190,194164
 8.6000e+001 194216  4.7813e+005 -7.2527e+006  1.5310e+006 183420 194112,194164,194138
 8.6000e+001 194414 -6.1523e+005 -5.4726e+006 -1.3014e+005 183222 194287,194339,194313
 8.6000e+001 194391 -3.7630e+005 -1.2023e+006 -3.5254e+005 183222 194287,194365,194339
 8.6000e+001 194517 -9.7686e+005 -7.5880e+005  2.3874e+004 183024 194439,194491,194465
 8.6000e+001 194718  1.6564e+006 -1.4944e+007  1.5588e+006 182734 194568,194620,194594
 8.6000e+001 194695 -1.1582e+006 -4.2179e+006 -3.0480e+006 182734 194542,194620,194568
 8.6000e+001 194672 -3.1422e+006 -2.0417e+006 -1.5311e+006 182734 194542,194646,194620
 8.6000e+001 194870 -4.8347e+005 -5.4839e+005  3.4008e+005 182444 194769,194821,194795
 8.6000e+001 194847 -5.4468e+005 -1.4556e+006  8.8502e+005 182444 194743,194821,194769
 8.6000e+001 195071 -3.1711e+005 -1.5227e+006  9.0586e+005 182154 194895,194947,194921
 8.6000e+001 195048 -3.5434e+005 -5.4741e+005  2.4094e+005 182154 194895,194999,194947
 8.6000e+001 195025 -4.0051e+005 -1.5614e+005  2.4818e+005 182154 194947,194999,194973
 8.6000e+001 195223 -2.5776e+005 -1.4332e+005 -1.0718e+005 181814 195096,195148,195122
 8.6000e+001 195200 -4.9196e+005 -1.5214e+006 -1.0177e+006 181814 195096,195174,195148
 8.6000e+001 195375 -2.8475e+003 -4.7185e+003 -2.3607e+003 181524 195248,195300,195274
 8.6000e+001 195352  9.9324e+002 -2.2828e+004  1.4694e+002 181524 195248,195326,195300
 8.6000e+001 195527 -2.0944e+005 -1.8124e+006 -4.2161e+005 181326 195426,195478,195452
 8.6000e+001 195504 -9.1423e+005 -1.4711e+006  8.4385e+003 181326 195400,195478,195426
 8.6000e+001 195679  2.3142e+004 -9.5427e+006 -4.1381e+005 180936 195578,195630,195604
 8.6000e+001 195656 -6.1330e+005 -3.8859e+006 -2.6207e+005 180936 195552,195630,195578
 8.6000e+001 195831 -4.8917e+005 -4.0783e+005 -2.0155e+005 180646 195704,195756,195730
 8.6000e+001 195808 -7.1614e+005 -5.4578e+004 -3.9305e+003 180646 195704,195782,195756
 8.6000e+001 196032 -3.3441e+005 -2.1574e+006  4.7133e+005 180306 195882,195960,195934
 8.6000e+001 196009 -4.6908e+005 -8.2628e+005 -3.3315e+005 180306 195856,195960,195882
 8.6000e+001 195986  3.4804e+004 -2.3836e+006  1.8896e+005 180306 195882,195934,195908
 8.6000e+001 196233 -2.6647e+005 -2.5300e+005 -8.9005e+005 179944 196057,196109,196083
 8.6000e+001 196210 -9.6724e+005 -3.5968e+006  4.3689e+005 179944 196057,196135,196109
 8.6000e+001 196187 -1.9906e+006  4.3047e+006 -1.4739e+006 179944 196057,196161,196135
 8.6000e+001 196385 -5.5751e+005 -6.2736e+005 -3.5271e+005 179604 196258,196310,196284
 8.6000e+001 196362 -9.1121e+005 -1.1832e+006 -1.1072e+006 179604 196258,196336,196310
 8.6000e+001 196586 -7.3886e+005 -4.8022e+005 -5.8923e+005 179114 196410,196488,196436
 8.6000e+001 196563 -5.5481e+005 -1.7409e+006 -5.6161e+005 179114 196410,196514,196488
 8.6000e+001 196540 -3.9925e+003 -4.4058e+005 -4.4331e+004 179114 196436,196488,196462
 8.6000e+001 196738 -7.2045e+005 -1.5972e+006 -6.7102e+005 178674 196611,196663,196637
 8.6000e+001 196715  3.4899e+004 -3.6175e+006 -1.4363e+005 178674 196611,196689,196663
 8.6000e+001 196939  1.8382e+006 -9.1252e+006 -1.4525e+006 178334 196789,196867,196841
 8.6000e+001 196916 -7.7984e+005 -9.6792e+006  1.9045e+005 178334 196763,196867,196789
 8.6000e+001 196893 -2.4249e+006 -5.6768e+006 -4.1719e+006 178334 196789,196841,196815
 8.6000e+001 197091 -1.1642e+006 -4.1186e+006 -1.2308e+006 177930 196990,197042,197016
 8.6000e+001 197068 -1.5502e+006 -5.5869e+006 -1.0423e+006 177930 196964,197042,196990
 8.6000e+001 197194 -3.5796e+001  7.5321e+001  1.2378e+002 177732 197116,197168,197142
 8.6000e+001 197346 -4.2385e+005 -5.5161e+006  2.4960e+005 177534 197219,197271,197245
 8.6000e+001 197323 -1.9063e+005 -5.9093e+006  4.4872e+005 177534 197219,197297,197271
 8.6000e+001 197547 -1.0915e+006 -6.3859e+006 -2.5860e+006 177130 197397,197449,197423
 8.6000e+001 197524 -2.1973e+006 -7.1760e+006 -1.6675e+006 177130 197397,197475,197449
 8.6000e+001 197501 -1.3733e+006 -1.1671e+007 -2.5694e+006 177130 197371,197475,197397
 8.6000e+001 197748 -7.1730e+005 -5.4105e+006  4.8415e+005 176790 197598,197676,197624
 8.6000e+001 197725 -5.0683e+005 -4.0262e+006  7.0576e+005 176790 197572,197676,197598
 8.6000e+001 197702 -6.9503e+005 -4.5782e+006  5.9524e+005 176790 197624,197676,197650
 8.6000e+001 197900 -2.6638e+005 -2.8673e+006 -4.6124e+005 176300 197773,197825,197799
 8.6000e+001 197877 -2.5643e+004 -4.2386e+006 -3.4976e+005 176300 197773,197851,197825
 8.6000e+001 198052 -1.4688e+006 -4.5163e+006 -1.2927e+006 176010 197925,197977,197951
 8.6000e+001 198029 -5.4186e+005 -7.3246e+006 -2.2294e+006 176010 197925,198003,197977
 8.6000e+001 198204 -1.3371e+006 -6.5254e+006 -2.9517e+006 175670 198103,198155,198129
 8.6000e+001 198181 -1.7404e+006 -3.8234e+006 -6.8163e+005 175670 198077,198155,198103
 8.6000e+001 198405 -4.4323e+005 -3.8461e+006 -7.6448e+005 175266 198255,198307,198281
 8.6000e+001 198382 -1.9039e+005 -5.7877e+006 -2.4070e+006 175266 198229,198307,198255
 8.6000e+001 198359 -1.3415e+006 -5.4519e+006 -2.6480e+006 175266 198229,198333,198307
 8.6000e+001 198606  5.2498e+002 -8.7558e+004  1.2199e+004 174876 198430,198508,198482
 8.6000e+001 198583 -5.9700e+002 -8.5362e+004 -1.0155e+004 174876 198430,198534,198508
 8.6000e+001 198560 -6.5619e+002 -5.0143e+004 -1.4414e+003 174876 198430,198482,198456
 8.6000e+001 198758 -2.1119e+003 -7.2973e+002 -1.1911e+003 174536 198657,198709,198683
 8.6000e+001 198735 -1.7535e+003  1.0831e+002 -2.1334e+003 174536 198631,198709,198657
 8.6000e+001 199008 -8.7201e+005 -4.8944e+006 -6.3018e+004 174132 198835,198913,198887
 8.6000e+001 198985 -4.8618e+005 -1.9206e+006  3.0381e+005 174132 198809,198913,198835
 8.6000e+001 198962 -4.9894e+005 -2.1521e+006 -1.2106e+006 174132 198783,198913,198809
 8.6000e+001 198939 -3.4896e+005 -5.2408e+006 -3.6375e+004 174132 198835,198887,198861
 8.6000e+001 199160 -1.0830e+006 -2.6524e+006 -6.6304e+005 173842 199059,199111,199085
 8.6000e+001 199137 -3.5300e+005 -1.1037e+006 -7.3810e+004 173842 199033,199111,199059
 8.6000e+001 199361 -6.6189e+005 -4.3007e+006  1.2090e+006 173438 199237,199289,199263
 8.6000e+001 199338 -4.1160e+005 -4.4710e+006  1.2677e+006 173438 199211,199289,199237
 8.6000e+001 199315 -5.5168e+004 -6.5770e+006 -5.2190e+005 173438 199185,199289,199211
 8.6000e+001 199513 -8.5324e+005 -5.6204e+006  9.4663e+004 173190 199386,199438,199412
 8.6000e+001 199490 -1.5693e+006 -6.0365e+006  4.0308e+005 173190 199386,199464,199438
 8.6000e+001 199665 -4.5763e+005 -1.4973e+006  2.4620e+005 172750 199564,199616,199590
 8.6000e+001 199642 -8.7456e+005 -8.4138e+005 -2.1940e+004 172750 199538,199616,199564
 8.6000e+001 199817 -2.8851e+005 -3.2956e+006 -1.0953e+006 172524 199690,199742,199716
 8.6000e+001 199794 -1.6929e+006 -9.8031e+005 -5.7539e+005 172524 199690,199768,199742
 8.6000e+001 199969 -6.5870e+003 -6.1589e+006 -2.0911e+005 172348 199842,199894,199868
 8.6000e+001 199946  3.6037e+005 -6.0824e+006 -3.7995e+004 172348 199842,199920,199894
 8.6000e+001 200121  8.0804e+004 -1.7665e+006 -2.7804e+005 172008 199994,200046,200020
 8.6000e+001 200098 -1.5292e+005 -7.2710e+005 -8.6657e+004 172008 199994,200072,200046
 8.6000e+001 200273 -1.6982e+006 -4.8706e+006 -2.0234e+006 171668 200172,200224,200198
 8.6000e+001 200250 -1.1255e+006 -5.1848e+006 -9.7649e+005 171668 200146,200224,200172
 8.6000e+001 200474  2.1942e+005 -4.3348e+006 -6.8856e+005 171264 200350,200402,200376
 8.6000e+001 200451 -1.9806e+005 -4.7843e+006 -9.4985e+005 171264 200324,200402,200350
 8.6000e+001 200428 -3.2566e+005 -3.1894e+006  1.0189e+006 171264 200298,200402,200324
 8.6000e+001 200626 -9.9358e+005 -4.7265e+006 -7.8532e+005 170832 200525,200577,200551
 8.6000e+001 200603 -2.7214e+005 -2.8331e+006 -2.0844e+005 170832 200499,200577,200525
 8.6000e+001 200827 -7.0540e+004 -1.9207e+006  5.1301e+005 170492 200677,200729,200703
 8.6000e+001 200804 -1.0306e+006 -9.0064e+005 -3.0714e+005 170492 200651,200729,200677
 8.6000e+001 200781 -7.6095e+005 -1.0411e+006 -5.0524e+005 170492 200651,200755,200729
 8.6000e+001 201077 -7.8262e+005 -2.8736e+006 -2.3637e+005 170088 200878,200956,200904
 8.6000e+001 201054 -5.1643e+005 -1.3783e+006 -1.7762e+005 170088 200852,200956,200878
 8.6000e+001 201031 -9.7598e+005 -1.5099e+006  2.3665e+006 170088 200904,200956,200930
 8.6000e+001 201008  9.4731e+004 -1.8361e+006  1.3708e+005 170088 200852,200982,200956
 8.6000e+001 201278  4.8058e+004 -3.8549e+005 -3.0141e+004 169798 201102,201154,201128
 8.6000e+001 201255 -4.5375e+005 -2.3491e+006 -1.7434e+005 169798 201102,201206,201154
 8.6000e+001 201232 -7.2850e+005 -5.7774e+005  3.9184e+005 169798 201154,201206,201180
 8.6000e+001 201430 -2.3269e+005 -3.0407e+006 -5.0209e+005 169337 201303,201355,201329
 8.6000e+001 201407 -1.4186e+005 -1.0576e+006 -9.8655e+004 169337 201303,201381,201355
 8.6000e+001 201631 -1.5071e+005 -3.3703e+006  6.1497e+005 168883 201481,201559,201507
 8.6000e+001 201608 -3.6319e+005 -2.7338e+006  9.9487e+005 168883 201455,201559,201481
 8.6000e+001 201585 -1.1923e+005 -2.2573e+006  6.7874e+005 168883 201507,201559,201533
 8.6000e+001 201832  2.9679e+005 -6.4766e+006  4.0786e+005 168479 201682,201734,201708
 8.6000e+001 201809 -2.1184e+006 -4.7060e+006 -1.1546e+006 168479 201656,201734,201682
 8.6000e+001 201786 -1.8141e+006 -3.5095e+006  2.7227e+004 168479 201656,201760,201734
 8.6000e+001 202033 -3.7915e+005 -2.7523e+006  4.0358e+004 167825 201883,201935,201909
 8.6000e+001 202010 -1.8797e+006 -4.1214e+006 -2.4436e+006 167825 201857,201935,201883
 8.6000e+001 201987 -6.6148e+005 -1.0131e+007 -1.5120e+006 167825 201857,201961,201935
 8.6000e+001 202234 -1.9727e+005 -1.3013e+006 -4.1525e+005 167435 202058,202136,202084
 8.6000e+001 202211 -2.5298e+005 -2.5515e+006  8.5418e+005 167435 202058,202162,202136
 8.6000e+001 202188 -8.7381e+004 -6.9085e+005  7.8030e+004 167435 202084,202136,202110
 8.6000e+001 202386  5.8615e+004 -2.0912e+006  3.6904e+005 167002 202285,202337,202311
 8.6000e+001 202363 -3.9875e+005 -5.6658e+005  3.6726e+005 167002 202259,202337,202285
 8.6000e+001 202538 -1.8212e+006 -2.3389e+006 -1.6899e+006 166662 202411,202463,202437
 8.6000e+001 202515 -7.5418e+005 -3.1577e+006 -2.4053e+006 166662 202411,202489,202463
 8.6000e+001 202690  6.6622e+003 -1.6168e+006 -3.6706e+005 166322 202589,202641,202615
 8.6000e+001 202667  7.2092e+004 -1.4075e+006 -1.9657e+005 166322 202563,202641,202589
 8.6000e+001 202891 -1.1649e+005 -1.3414e+005 -3.3810e+004 165918 202715,202767,202741
 8.6000e+001 202868 -2.1049e+005 -7.0730e+005 -4.0363e+005 165918 202715,202793,202767
 8.6000e+001 202845 -1.5678e+005 -1.1091e+006 -2.1147e+005 165918 202715,202819,202793
 8.6000e+001 203092 -1.3454e+005 -1.6899e+006 -3.1196e+005 165628 202916,202968,202942
 8.6000e+001 203069 -4.9130e+004 -2.5674e+006 -2.1147e+005 165628 202916,202994,202968
 8.6000e+001 203046 -3.8604e+005 -2.1070e+006 -6.1939e+005 165628 202916,203020,202994
 8.6000e+001 203293 -3.4255e+006 -1.8491e+006 -2.4707e+006 165266 203143,203195,203169
 8.6000e+001 203270 -1.3596e+006 -4.8917e+006 -5.6256e+005 165266 203143,203221,203195
 8.6000e+001 203247 -9.0859e+005 -5.2080e+006 -9.3527e+005 165266 203117,203221,203143
 8.6000e+001 203445 -2.5918e+005 -1.4827e+006  5.7261e+005 164826 203318,203370,203344
 8.6000e+001 203422 -1.0184e+005 -9.3453e+005 -7.2080e+004 164826 203318,203396,203370
 8.6000e+001 203597 -8.9923e+005 -4.5691e+005 -1.5586e+005 164386 203470,203522,203496
 8.6000e+001 203574 -1.4987e+006 -2.2442e+006 -6.7939e+005 164386 203470,203548,203522
 8.6000e+001 203798 -3.4814e+005  8.3659e+002  4.9229e+003 163996 203622,203674,203648
 8.6000e+001 203775 -8.1511e+005 -4.7461e+003  1.5204e+005 163996 203622,203726,203674
 8.6000e+001 203752 -7.8186e+005 -3.0681e+003 -5.0063e+004 163996 203674,203726,203700
 8.6000e+001 203901 -3.9581e+005 -7.5729e+005  5.7118e+004 163770 203823,203875,203849
 8.6000e+001 204053 -1.5185e+006 -2.5364e+006 -8.6650e+005 163474 203952,204004,203978
 8.6000e+001 204030 -1.5332e+006 -2.6778e+006 -1.1020e+006 163474 203926,204004,203952
 8.6000e+001 204205 -1.0674e+005 -7.0464e+005 -3.6922e+005 163034 204104,204156,204130
 8.6000e+001 204182 -5.4133e+005 -1.3232e+006 -1.0369e+006 163034 204078,204156,204104
 8.6000e+001 204357 -4.7387e+004 -6.0376e+003  1.6785e+004 162624 204256,204308,204282
 8.6000e+001 204334 -4.7419e+004 -5.9192e+003  1.6708e+004 162624 204230,204308,204256
 8.6000e+001 204509 -1.2466e+002  2.7358e+002 -7.6302e+001 162200 204382,204434,204408
 8.6000e+001 204486 -9.5471e+001  2.6681e+002 -8.3303e+000 162200 204382,204460,204434
 8.6000e+001 204710 -2.2009e+006 -3.4568e+005  2.2752e+005 161810 204560,204638,204586
 8.6000e+001 204687 -1.5526e+006 -1.1878e+006 -9.4845e+005 161810 204534,204638,204560
 8.6000e+001 204664 -1.8836e+006 -2.8738e+005  6.1465e+005 161810 204586,204638,204612
 8.6000e+001 204862 -5.9733e+005 -5.7298e+005 -3.8661e+005 161406 204735,204787,204761
 8.6000e+001 204839 -3.5486e+005 -5.5204e+005 -4.4277e+005 161406 204735,204813,204787
 8.6000e+001 205014  2.2603e+002 -5.2249e+003  9.0172e+002 161180 204887,204939,204913
 8.6000e+001 204991 -5.8601e+002 -2.5889e+003 -5.1558e+002 161180 204887,204965,204939
 8.6000e+001 205215 -2.8732e+005 -1.2286e+006 -1.5451e+006 160726 205039,205091,205065
 8.6000e+001 205192 -5.8956e+005 -2.4515e+006 -1.5140e+006 160726 205039,205143,205091
 8.6000e+001 205169 -1.5550e+006 -3.5305e+006 -2.2227e+006 160726 205091,205143,205117
 8.6000e+001 205416  7.2655e+002 -2.1469e+002 -2.4594e+002 160272 205292,205344,205318
 8.6000e+001 205393  3.0932e+001 -4.7366e+002 -7.6641e+002 160272 205240,205344,205292
 8.6000e+001 205370 -9.7700e+001 -5.9271e+002 -3.0984e+002 160272 205240,205292,205266
 8.6000e+001 205568 -7.3209e+002 -8.3973e+003 -4.9107e+002 159932 205441,205493,205467
 8.6000e+001 205545 -1.3832e+003 -6.0902e+003  6.7301e+002 159932 205441,205519,205493
 8.6000e+001 205720  2.9084e+002  8.5179e+001 -9.4791e+001 159542 205593,205645,205619
 8.6000e+001 205697  2.8172e+002  4.0864e+000 -1.9355e+002 159542 205593,205671,205645
 8.6000e+001 205872  1.5064e+003 -3.3803e+003 -1.5182e+003 159252 205745,205797,205771
 8.6000e+001 205849  2.5069e+002 -8.3777e+003 -1.3435e+002 159252 205745,205823,205797
 8.6000e+001 206024 -1.1970e+005 -1.0604e+006  3.6545e+005 159004 205923,205975,205949
 8.6000e+001 206001 -7.2297e+004 -1.7983e+006  5.1202e+005 159004 205897,205975,205923
 8.6000e+001 206127 -4.4787e+006 -3.7788e+006  3.5242e+003 158364 206049,206101,206075
 8.6000e+001 206328 -1.8309e+003 -2.5073e+003  6.5246e+002 157960 206178,206256,206204
 8.6000e+001 206305 -6.4868e+002 -2.0886e+003  9.5447e+002 157960 206152,206256,206178
 8.6000e+001 206282  8.5445e+002 -8.9701e+003  1.7330e+003 157960 206204,206256,206230
 8.6000e+001 206529 -1.5601e+006 -4.0136e+006  1.0585e+006 157648 206405,206457,206431
 8.6000e+001 206506 -2.5339e+006 -1.0945e+006  9.1227e+005 157648 206379,206457,206405
 8.6000e+001 206483 -2.6012e+006 -7.9245e+005  1.2914e+006 157648 206353,206457,206379
 8.6000e+001 206730 -8.4115e+004 -2.5121e+004  4.1752e+004 157208 206554,206606,206580
 8.6000e+001 206707 -4.0734e+004 -1.5394e+004  2.1025e+004 157208 206554,206632,206606
 8.6000e+001 206684 -1.2261e+005 -3.1306e+004  5.3501e+004 157208 206554,206658,206632
 8.6000e+001 206882 -3.0248e+002 -2.0457e+003 -2.2493e+002 157010 206755,206807,206781
 8.6000e+001 206859 -2.5253e+002 -5.1746e+003  1.3469e+003 157010 206755,206833,206807
 8.6000e+001 207034 -3.2484e+003  3.4602e+003  4.9441e+002 156620 206907,206959,206933
 8.6000e+001 207011 -5.4065e+002 -1.6300e+004  9.0850e+002 156620 206907,206985,206959
 8.6000e+001 207186 -2.5682e+005 -1.4732e+006 -1.9028e+005 156330 207085,207137,207111
 8.6000e+001 207163 -7.2334e+005 -1.7036e+006 -1.5059e+006 156330 207059,207137,207085
 8.6000e+001 207387 -2.6023e+005 -1.0551e+006 -2.5996e+005 155890 207211,207289,207237
 8.6000e+001 207364 -1.2790e+006 -1.3358e+006 -7.5176e+005 155890 207211,207315,207289
 8.6000e+001 207341 -2.9406e+005 -6.5982e+005 -1.6696e+004 155890 207237,207289,207263
 8.6000e+001 207588 -7.5359e+005 -1.9320e+007  7.5354e+006 155436 207438,207490,207464
 8.6000e+001 207565 -1.3710e+006 -1.3324e+007 -9.1593e+005 155436 207412,207490,207438
 8.6000e+001 207542 -2.6680e+006 -6.2875e+006 -1.0904e+006 155436 207412,207516,207490
 8.6000e+001 207789  1.6491e+006 -2.8187e+007 -1.9143e+006 155260 207639,207691,207665
 8.6000e+001 207766 -3.6762e+006 -8.5006e+006  4.3081e+006 155260 207613,207691,207639
 8.6000e+001 207743 -1.4731e+006 -6.2257e+006 -7.5690e+004 155260 207613,207717,207691
 8.6000e+001 207990 -2.8115e+003 -8.1483e+003  3.3927e+003 154920 207840,207918,207892
 8.6000e+001 207967  1.2728e+002 -8.7527e+003 -6.8641e+003 154920 207814,207918,207840
 8.6000e+001 207944  5.7849e+003 -1.7118e+004  6.5167e+003 154920 207840,207892,207866
 8.6000e+001 208191  2.3314e+002 -1.2422e+004  2.1129e+003 154630 208015,208093,208041
 8.6000e+001 208168  6.1296e+002 -1.3386e+004  1.4280e+003 154630 208015,208119,208093
 8.6000e+001 208145 -9.9965e+002 -3.9217e+003 -1.7097e+003 154630 208041,208093,208067
 8.6000e+001 208343 -1.9346e+002 -1.0737e+004  2.3495e+002 154240 208216,208268,208242
 8.6000e+001 208320  8.3855e+001 -7.5564e+003 -6.3064e+002 154240 208216,208294,208268
 8.6000e+001 208495  3.1544e+005 -3.1582e+006 -1.2644e+006 153950 208394,208446,208420
 8.6000e+001 208472 -1.7730e+005 -8.4998e+005  2.8211e+005 153950 208368,208446,208394
 8.6000e+001 208647 -5.8835e+005 -2.6063e+005  9.4103e+005 153603 208520,208572,208546
 8.6000e+001 208624 -8.2918e+005 -9.5158e+005 -8.3488e+005 153603 208520,208598,208572
 8.6000e+001 208848 -1.1404e+006 -4.6784e+005  1.1132e+005 153149 208698,208776,208724
 8.6000e+001 208825 -2.7247e+006  1.0135e+005  2.1879e+005 153149 208672,208776,208698
 8.6000e+001 208802 -6.2035e+005 -2.8167e+005  4.1985e+005 153149 208724,208776,208750
 8.6000e+001 209000  6.3437e+004 -1.5492e+006 -1.3634e+005 152859 208873,208925,208899
 8.6000e+001 208977 -7.2597e+004 -8.7883e+005 -2.4671e+005 152859 208873,208951,208925
 8.6000e+001 209152 -9.7181e+003 -1.6145e+006 -2.5452e+005 152569 209051,209103,209077
 8.6000e+001 209129 -1.1479e+005 -1.0054e+006  6.8432e+004 152569 209025,209103,209051
 8.6000e+001 209304 -1.2098e+003 -6.6310e+003 -1.3722e+003 152065 209177,209229,209203
 8.6000e+001 209281  1.1307e+003 -1.8829e+004 -6.3277e+002 152065 209177,209255,209229
 8.6000e+001 209456 -2.9068e+006 -1.8287e+006 -4.5187e+005 151775 209355,209407,209381
 8.6000e+001 209433 -1.5791e+006 -1.3227e+006  3.8739e+005 151775 209329,209407,209355
 8.6000e+001 209608 -8.2445e+005 -3.1632e+006 -8.4574e+005 151371 209481,209533,209507
 8.6000e+001 209585  4.3718e+005 -4.9702e+006 -4.4375e+005 151371 209481,209559,209533
 8.6000e+001 209760 -7.5328e+003 -1.8717e+003  4.2999e+003 150981 209659,209711,209685
 8.6000e+001 209737 -1.1265e+003 -6.4772e+003 -4.0182e+003 150981 209633,209711,209659
 8.6000e+001 209912  2.1429e+006 -2.9132e+007 -2.5982e+006 150619 209811,209863,209837
 8.6000e+001 209889 -2.7166e+006 -1.1983e+007  3.2935e+006 150619 209785,209863,209811
 8.6000e+001 210064  3.0019e+003 -5.9976e+003  2.3211e+002 150279 209937,209989,209963
 8.6000e+001 210041 -2.8689e+002 -1.4194e+004  2.7641e+003 150279 209937,210015,209989
 8.6000e+001 210265 -2.7645e+006 -4.2608e+006 -2.9451e+005 149989 210115,210167,210141
 8.6000e+001 210242 -1.9818e+006 -5.5285e+006 -1.7561e+006 149989 210115,210193,210167
 8.6000e+001 210219 -7.8663e+005 -3.9933e+006 -8.8878e+005 149989 210089,210193,210115
 8.6000e+001 210417 -2.3343e+003 -2.9999e+003  2.8025e+003 149599 210316,210368,210342
 8.6000e+001 210394  3.2583e+003 -1.7909e+004 -2.8811e+002 149599 210290,210368,210316
 8.6000e+001 210618 -3.4667e+006 -1.3053e+007  3.8373e+006 149095 210468,210520,210494
 8.6000e+001 210595 -2.9027e+006 -1.2816e+007  2.8355e+006 149095 210442,210520,210468
 8.6000e+001 210572 -1.4346e+006 -1.4413e+007  2.4818e+006 149095 210442,210546,210520
 8.6000e+001 210819  1.8004e+001 -2.7378e+002  1.5724e+002 148748 210695,210747,210721
 8.6000e+001 210796  2.3389e+000  1.0202e+002 -9.0069e+001 148748 210669,210747,210695
 8.6000e+001 210773  2.8260e+002 -5.0525e+001 -1.4844e+002 148748 210643,210747,210669
 8.6000e+001 210971 -2.0634e+003  4.3429e+002 -2.6356e+002 148408 210870,210922,210896
 8.6000e+001 210948  5.0328e+002 -1.1036e+003  1.7824e+003 148408 210844,210922,210870
 8.6000e+001 211123 -1.0921e+005 -9.3239e+005  2.6019e+005 148118 210996,211048,211022
 8.6000e+001 211100 -3.8118e+005 -8.9319e+005  5.4932e+005 148118 210996,211074,211048
 8.6000e+001 211275 -2.3480e+005 -6.2914e+005  3.2107e+005 147778 211148,211200,211174
 8.6000e+001 211252 -4.1322e+005 -1.2909e+006  8.2395e+005 147778 211148,211226,211200
 8.6000e+001 211427 -1.2371e+004 -4.5430e+004  2.2451e+004 147324 211326,211378,211352
 8.6000e+001 211404 -1.9493e+003 -6.1111e+004  1.6507e+004 147324 211300,211378,211326
 8.6000e+001 211628 -2.3539e+006 -1.3607e+006  9.9344e+005 147012 211452,211504,211478
 8.6000e+001 211605 -2.3142e+006  9.0718e+005  1.3985e+006 147012 211452,211556,211504
 8.6000e+001 211582 -2.2610e+006 -4.2625e+005  1.8883e+006 147012 211504,211556,211530
 8.6000e+001 211829 -6.2397e+004 -7.1866e+005  3.9817e+005 146636 211679,211757,211731
 8.6000e+001 211806 -3.2917e+005 -5.2715e+005  3.9132e+005 146636 211653,211757,211679
 8.6000e+001 211783 -1.8058e+005 -5.8666e+005  1.7511e+005 146636 211679,211731,211705
 8.6000e+001 211981  1.8021e+002 -1.3890e+002  8.6787e+001 146246 211880,211932,211906
 8.6000e+001 211958  1.1245e+002 -6.5235e+001  3.2416e+001 146246 211854,211932,211880
 8.6000e+001 212133  1.7955e+002  8.5605e+002 -6.2910e+002 145956 212006,212058,212032
 8.6000e+001 212110  5.1170e+002  2.3018e+002 -4.4594e+002 145956 212006,212084,212058
 8.6000e+001 212285  5.9369e+002 -5.6345e+002  3.9850e+002 145544 212184,212236,212210
 8.6000e+001 212262  2.1764e+002  1.0278e+002 -2.9636e+000 145544 212158,212236,212184
 8.6000e+001 212486 -3.8705e+005 -1.6494e+007  3.8316e+006 144990 212362,212414,212388
 8.6000e+001 212463  2.7462e+005 -1.3305e+007  5.6302e+006 144990 212310,212414,212362
 8.6000e+001 212440 -5.1735e+006 -3.4371e+006  1.8392e+006 144990 212310,212362,212336
 8.6000e+001 212638  3.4055e+003 -1.9622e+004  6.0723e+003 144600 212537,212589,212563
 8.6000e+001 212615  2.3122e+003 -9.6666e+003  1.4559e+004 144600 212511,212589,212537
 8.6000e+001 212839 -3.4620e+005 -1.9134e+006  5.5455e+005 144210 212689,212741,212715
 8.6000e+001 212816 -5.4505e+005 -2.2325e+006  1.0436e+006 144210 212663,212741,212689
 8.6000e+001 212793 -5.5977e+005 -2.2924e+006  1.0363e+006 144210 212663,212767,212741
 8.6000e+001 212991 -1.6378e+002  2.4582e+002 -2.6450e+001 143920 212890,212942,212916
 8.6000e+001 212968 -3.9185e+002  1.5867e+002 -1.7493e+002 143920 212864,212942,212890
 8.6000e+001 213143  4.3768e+002 -4.2122e+002  2.9686e+002 143480 213016,213068,213042
 8.6000e+001 213120 -1.2356e+001 -1.3671e+002 -1.2538e+001 143480 213016,213094,213068
 8.6000e+001 213295 -1.9921e+004 -8.9417e+004  3.2960e+004 142990 213194,213246,213220
 8.6000e+001 213272 -1.6970e+004 -7.2561e+004  5.9721e+003 142990 213168,213246,213194
 8.6000e+001 213447  2.0232e+005 -6.1179e+005  3.9211e+005 142600 213320,213372,213346
 8.6000e+001 213424 -2.9338e+005 -9.1958e+005  6.3378e+005 142600 213320,213398,213372
 8.6000e+001 213599 -9.8445e+002 -3.2299e+004  5.9140e+003 142260 213472,213524,213498
 8.6000e+001 213576 -1.4984e+004 -3.5881e+004  9.6695e+003 142260 213472,213550,213524
 8.6000e+001 213751 -5.9980e+002 -1.5021e+002 -2.9331e+002 141870 213624,213676,213650
 8.6000e+001 213728  7.5219e+000 -1.7036e+002 -3.3509e+001 141870 213624,213702,213676
 8.6000e+001 213903 -1.8891e+006 -2.2254e+006 -2.0339e+006 141530 213776,213828,213802
 8.6000e+001 213880 -5.1633e+005 -2.5837e+006 -1.0163e+006 141530 213776,213854,213828
 8.6000e+001 214055 -5.3528e+006 -9.3003e+004  6.4819e+005 141218 213928,213980,213954
 8.6000e+001 214032 -3.2416e+006 -6.5145e+005  1.8726e+005 141218 213928,214006,213980
 8.6000e+001 214207  2.7060e+002  4.1420e+002  7.6600e+002 140928 214080,214132,214106
 8.6000e+001 214184  5.3030e+002  5.0819e+002  7.0941e+002 140928 214080,214158,214132
 8.6000e+001 214359 -2.8677e+003 -1.4382e+004 -1.2034e+003 140538 214232,214284,214258
 8.6000e+001 214336 -5.5546e+003 -4.7666e+004  2.8436e+004 140538 214232,214310,214284
 8.6000e+001 214560 -6.1843e+005 -5.4905e+006  1.4891e+006 140248 214384,214462,214410
 8.6000e+001 214537 -9.1254e+004 -2.7859e+006  6.4823e+005 140248 214384,214488,214462
 8.6000e+001 214514 -4.3481e+005 -3.4799e+006  5.2618e+004 140248 214410,214462,214436
 8.6000e+001 214712  1.0735e+003 -2.2433e+004  2.4466e+004 140000 214611,214663,214637
 8.6000e+001 214689 -4.4252e+003 -2.6921e+004  1.5829e+004 140000 214585,214663,214611
 8.6000e+001 214913 -3.2671e+005 -2.4573e+006 -5.7999e+005 139596 214737,214815,214763
 8.6000e+001 214890 -2.5708e+005 -1.3846e+006 -2.3062e+004 139596 214737,214841,214815
 8.6000e+001 214867  9.7346e+005 -8.2994e+006  9.5070e+005 139596 214763,214815,214789
 8.6000e+001 215016 -7.9795e+002 -1.1642e+002 -2.4285e+002 139420 214938,214990,214964
 8.6000e+001 215168 -3.7640e+006 -9.6691e+006  6.2288e+006 139130 215067,215119,215093
 8.6000e+001 215145 -2.3807e+006 -1.0827e+007  4.3160e+006 139130 215041,215119,215067
 8.6000e+001 215320 -2.5403e+006 -4.3083e+006  2.6702e+006 138790 215219,215271,215245
 8.6000e+001 215297 -2.2359e+006 -1.1480e+007  6.3411e+006 138790 215193,215271,215219
 8.6000e+001 215472 -7.8749e+004 -6.5827e+005  2.8189e+005 138514 215345,215397,215371
 8.6000e+001 215449 -7.0345e+004 -5.1845e+005  1.6584e+005 138514 215345,215423,215397
 8.6000e+001 215624 -3.6935e+005 -7.6725e+006  2.2486e+006 138174 215497,215549,215523
 8.6000e+001 215601 -4.3336e+005 -6.1478e+006  1.9537e+006 138174 215497,215575,215549
 8.6000e+001 215776 -1.4988e+004 -1.4442e+005 -5.1894e+004 137734 215649,215701,215675
 8.6000e+001 215753 -2.6305e+003 -1.5230e+005 -2.0557e+004 137734 215649,215727,215701
 8.6000e+001 215977  1.9931e+006 -8.0351e+006  4.9960e+005 137344 215801,215879,215827
 8.6000e+001 215954 -1.0838e+006 -1.4581e+006 -1.2160e+006 137344 215801,215905,215879
 8.6000e+001 215931  1.8993e+005 -1.1358e+007 -5.4000e+006 137344 215827,215879,215853
 8.6000e+001 216129 -3.8548e+005 -6.4167e+005  2.9160e+004 136940 216028,216080,216054
 8.6000e+001 216106 -2.7946e+005 -1.2930e+006  5.6663e+005 136940 216002,216080,216028
 8.6000e+001 216330 -5.5948e+005 -8.2199e+006  1.0704e+006 136600 216180,216232,216206
 8.6000e+001 216307 -1.4671e+006 -8.4913e+006  4.0195e+006 136600 216154,216232,216180
 8.6000e+001 216284 -8.7739e+005 -4.6904e+006  1.5705e+006 136600 216154,216258,216232
 8.6000e+001 216482  3.8826e+005 -5.1945e+006  1.3806e+006 136260 216381,216433,216407
 8.6000e+001 216459 -3.3938e+005 -2.9437e+006  1.2339e+006 136260 216355,216433,216381
 8.6000e+001 216634 -1.5914e+004 -2.8476e+004  1.3826e+004 135970 216533,216585,216559
 8.6000e+001 216611 -1.0892e+004 -4.9101e+004  2.5905e+004 135970 216507,216585,216533
 8.6000e+001 216835 -1.3663e+005 -3.8950e+006  3.3651e+005 135608 216685,216763,216711
 8.6000e+001 216812  1.2421e+005 -4.3700e+006 -4.1399e+005 135608 216659,216763,216685
 8.6000e+001 216789 -3.5674e+004 -1.3480e+006  1.1980e+004 135608 216711,216763,216737
 8.6000e+001 217036 -3.7529e+005 -2.4606e+005  1.6288e+005 135312 216912,216964,216938
 8.6000e+001 217013 -2.9529e+005 -9.8718e+005  6.7802e+005 135312 216886,216964,216912
 8.6000e+001 216990  1.6161e+005 -2.0158e+006  4.9025e+005 135312 216860,216964,216886
 8.6000e+001 217237 -2.1048e+005 -1.3513e+006  4.6285e+005 134908 217061,217139,217113
 8.6000e+001 217214 -4.1625e+005 -1.4681e+006  8.1246e+005 134908 217061,217165,217139
 8.6000e+001 217191 -4.0021e+005 -1.7552e+006  6.7419e+005 134908 217061,217113,217087
 8.6000e+001 217438 -5.3893e+005 -1.0548e+007 -2.3950e+006 134568 217288,217366,217314
 8.6000e+001 217415 -1.4267e+006 -1.0614e+007 -2.5541e+006 134568 217262,217366,217288
 8.6000e+001 217392 -1.1709e+006 -1.3666e+007 -3.2524e+006 134568 217314,217366,217340
 8.6000e+001 217590 -1.1059e+005 -7.5999e+005  3.6901e+005 134106 217463,217515,217489
 8.6000e+001 217567 -1.0916e+005 -6.7394e+005  2.2460e+005 134106 217463,217541,217515
 8.6000e+001 217791 -6.7082e+002 -3.6651e+003 -1.5680e+003 133816 217641,217693,217667
 8.6000e+001 217768 -1.4804e+006 -1.4913e+007 -4.6986e+006 133816 217641,217719,217693
 8.6000e+001 217745 -7.3563e+006 -1.4728e+006  3.2916e+006 133816 217615,217719,217641
 8.6000e+001 217992 -4.2270e+006 -5.2625e+006  5.3746e+006 133355 217842,217920,217894
 8.6000e+001 217969 -1.9637e+006 -9.2848e+006  4.0848e+006 133355 217816,217920,217842
 8.6000e+001 217946 -9.2543e+005 -2.9881e+006  5.6529e+005 133355 217842,217894,217868
 8.6000e+001 218193  3.8356e+005 -7.0284e+006  1.3426e+005 132851 218017,218095,218069
 8.6000e+001 218170 -6.0264e+006 -6.9635e+006  7.1199e+006 132851 218017,218121,218095
 8.6000e+001 218147 -1.8152e+006 -3.4697e+006 -9.9659e+005 132851 218017,218069,218043
 8.6000e+001 218345 -2.6344e+003 -3.9181e+004  9.0030e+003 132511 218244,218296,218270
 8.6000e+001 218322 -4.0458e+003 -1.4561e+005  3.5155e+004 132511 218218,218296,218244
 8.6000e+001 218497  2.4541e+006 -2.3071e+007  1.3365e+006 132235 218396,218448,218422
 8.6000e+001 218474  7.6792e+005 -1.0564e+007  1.7422e+006 132235 218370,218448,218396
 8.6000e+001 218698 -1.9800e+005 -7.8265e+006 -2.0091e+006 131945 218574,218626,218600
 8.6000e+001 218675 -1.2018e+006 -1.2551e+007 -1.8767e+006 131945 218522,218626,218574
 8.6000e+001 218652 -2.6106e+006 -5.8455e+006 -3.0938e+006 131945 218522,218574,218548
 8.6000e+001 218850 -6.4118e+005 -1.3570e+007  1.6177e+006 131655 218723,218775,218749
 8.6000e+001 218827  1.2964e+005 -1.2323e+007  1.0269e+006 131655 218723,218801,218775
 8.6000e+001 218953 -3.7256e+004 -7.4393e+004 -5.2431e+004 131215 218875,218927,218901
 8.6000e+001 219105 -1.3271e+005 -2.6357e+006  1.0220e+005 130875 218978,219030,219004
 8.6000e+001 219082  2.4053e+004 -1.3610e+006  1.2546e+005 130875 218978,219056,219030
 8.6000e+001 219306 -6.7654e+005 -1.5445e+006  3.3558e+005 130429 219156,219234,219208
 8.6000e+001 219283 -6.0455e+005 -1.4051e+006  3.9487e+005 130429 219130,219234,219156
 8.6000e+001 219260 -1.6186e+006 -1.8081e+006  1.3172e+006 130429 219156,219208,219182
 8.6000e+001 219507 -5.8315e+005 -1.8334e+006  8.7376e+005 130025 219383,219435,219409
 8.6000e+001 219484 -5.4458e+005 -2.2980e+006  1.0937e+006 130025 219331,219435,219383
 8.6000e+001 219461 -5.2591e+005 -1.5270e+006  7.2505e+005 130025 219331,219383,219357
 8.6000e+001 219659 -1.1204e-002 -8.0417e-001  9.4919e-002 129685 219558,219610,219584
 8.6000e+001 219636  2.5788e-002  1.8510e+000 -2.1848e-001 129685 219532,219610,219558
 8.6000e+001 219860 -3.8158e+005 -1.2717e+006  6.8833e+005 129395 219710,219788,219762
 8.6000e+001 219837 -2.0766e+005 -1.7629e+006  7.6999e+005 129395 219684,219788,219710
 8.6000e+001 219814 -2.9075e+005 -1.4220e+006  5.8544e+005 129395 219710,219762,219736
 8.6000e+001 220061 -3.6101e+004 -1.7556e+005 -1.2279e+004 128991 219937,219989,219963
 8.6000e+001 220038  1.0935e+003 -1.3817e+005  1.1606e+004 128991 219885,219989,219937
 8.6000e+001 220015 -3.1751e+004 -2.6766e+005 -1.4780e+003 128991 219885,219937,219911
 8.6000e+001 220262 -1.5006e+004 -8.0205e+004  5.3476e+003 128701 220086,220164,220112
 8.6000e+001 220239 -4.3142e+004 -1.0829e+005  2.3787e+004 128701 220086,220190,220164
 8.6000e+001 220216 -3.9200e+004 -1.7867e+005 -1.0889e+005 128701 220112,220164,220138
 8.6000e+001 220463 -3.7210e+006 -1.0189e+007  5.0047e+006 128297 220339,220391,220365
 8.6000e+001 220440 -2.5424e+006 -1.1154e+007  4.8382e+006 128297 220313,220391,220339
 8.6000e+001 220417 -1.2073e+006 -1.5721e+007 -6.1267e+006 128297 220287,220391,220313
 8.6000e+001 220615 -5.8776e-002 -2.1001e-002 -3.5133e-002 128007 220488,220540,220514
 8.6000e+001 220592  6.3940e-002  2.2846e-002  3.8220e-002 128007 220488,220566,220540
 8.6000e+001 220767 -1.9390e+005 -3.5337e+006  6.7574e+005 127567 220640,220692,220666
 8.6000e+001 220744 -2.6734e+005 -2.5070e+006  5.5208e+005 127567 220640,220718,220692
 8.6000e+001 220919 -6.5437e+005 -1.3181e+007 -1.3839e+006 127163 220792,220844,220818
 8.6000e+001 220896 -9.1841e+005 -1.6948e+007  3.5635e+006 127163 220792,220870,220844
 8.6000e+001 221071 -3.4208e+006 -3.3764e+006  3.3322e+006 126915 220970,221022,220996
 8.6000e+001 221048 -1.8206e+006 -6.7455e+006  2.8208e+006 126915 220944,221022,220970
 8.6000e+001 221272 -2.3844e+006 -6.0753e+006  4.3526e+006 126461 221122,221174,221148
 8.6000e+001 221249  1.5040e+005 -6.6768e+006  1.1278e+006 126461 221122,221200,221174
 8.6000e+001 221226 -1.7343e+006 -3.4635e+006  2.4501e+006 126461 221096,221200,221122
 8.6000e+001 221375 -3.9979e+000 -3.4236e-001  3.7471e+000 126213 221297,221349,221323
 8.6000e+001 221478 -1.3955e-005 -1.0879e-005  1.1361e-005 125766 221400,221452,221426
 8.6000e+001 221679 -2.7785e+004 -4.9944e+004  1.1557e+004 125212 221503,221555,221529
 8.6000e+001 221656 -1.8002e+004 -1.0808e+005 -2.9996e+004 125212 221503,221581,221555
 8.6000e+001 221633  7.4251e+004 -3.8960e+005  1.0783e+005 125212 221503,221607,221581
 8.6000e+001 221929  6.9027e+001  9.1415e+001 -1.1948e+003 124872 221782,221834,221808
 8.6000e+001 221906 -7.3253e+002 -1.9313e+002 -4.2105e+002 124872 221756,221834,221782
 8.6000e+001 221883  2.0851e+002 -1.0788e+003  1.2654e+003 124872 221704,221834,221756
 8.6000e+001 221860  1.4057e+003  3.2660e+003  6.4832e+002 124872 221704,221756,221730
 8.6000e+001 222130 -1.1551e+006 -5.8811e+006 -5.6299e+004 124582 221980,222058,222006
 8.6000e+001 222107 -2.5886e+006 -5.1095e+006  5.1929e+005 124582 221954,222058,221980
 8.6000e+001 222084 -2.1530e+006 -6.2030e+006 -5.6878e+005 124582 222006,222058,222032
 8.6000e+001 222282 -2.2435e+006 -4.9940e+006 -3.3621e+005 124192 222181,222233,222207
 8.6000e+001 222259 -3.4052e+005 -4.2112e+006  2.4306e+005 124192 222155,222233,222181
 8.6000e+001 222483 -5.7723e+002  4.4652e+002 -2.5371e+002 123702 222333,222385,222359
 8.6000e+001 222460 -1.6051e+003  1.4656e+002 -4.4348e+002 123702 222333,222411,222385
 8.6000e+001 222437 -1.3134e+003  2.6232e+002  1.4450e+001 123702 222307,222411,222333
 8.6000e+001 222635 -5.2065e+002  2.8621e+002  2.2189e+002 123312 222508,222560,222534
 8.6000e+001 222612  3.3586e+002 -4.7559e+002 -1.7706e+002 123312 222508,222586,222560
 8.6000e+001 222787  3.5316e+003 -1.1188e+005 -4.3851e+003 122858 222686,222738,222712
 8.6000e+001 222764 -2.9043e+004 -1.5856e+005 -6.7774e+004 122858 222660,222738,222686
 8.6000e+001 222939 -1.4671e+004 -3.5405e+005 -1.5694e+003 122568 222812,222864,222838
 8.6000e+001 222916  2.2453e+004 -2.0322e+005 -7.2478e+003 122568 222812,222890,222864
 8.6000e+001 223091  1.3221e+002  1.9632e+002 -2.1340e+002 122392 222964,223016,222990
 8.6000e+001 223068  1.0691e+002 -9.9448e+001  1.3999e+002 122392 222964,223042,223016
 8.6000e+001 223292 -4.7867e+005 -1.3248e+006  2.8618e+005 121852 223142,223220,223194
 8.6000e+001 223269 -2.1565e+006 -5.7181e+005  4.2952e+005 121852 223116,223220,223142
 8.6000e+001 223246 -1.6015e+006 -1.4122e+006 -7.5886e+005 121852 223142,223194,223168
 8.6000e+001 223493 -7.8865e+005 -4.7639e+005  6.0528e+005 121406 223343,223395,223369
 8.6000e+001 223470 -1.1575e+006 -6.7592e+005  8.1728e+005 121406 223343,223421,223395
 8.6000e+001 223447 -5.6692e+005 -8.6074e+005  6.1733e+005 121406 223317,223421,223343
 8.6000e+001 223645  2.6397e+005 -1.6287e+007  3.4950e+006 121002 223544,223596,223570
 8.6000e+001 223622 -1.4789e+006 -1.2901e+007  3.3341e+006 121002 223518,223596,223544
 8.6000e+001 223846 -3.0123e+004 -7.7732e+005  1.2313e+005 120662 223670,223748,223696
 8.6000e+001 223823  7.1931e+004 -4.5320e+005  5.9552e+004 120662 223670,223774,223748
 8.6000e+001 223800 -9.8618e+004 -2.8518e+005 -1.5231e+005 120662 223696,223748,223722
 8.6000e+001 224047 -1.0969e+005 -3.4315e+005  1.9396e+005 120222 223897,223949,223923
 8.6000e+001 224024  6.6469e+004 -6.1424e+005  2.7221e+004 120222 223871,223949,223897
 8.6000e+001 224001 -7.1970e+004 -3.8734e+005 -9.5904e+004 120222 223871,223975,223949
 8.6000e+001 224248 -7.7772e+003 -4.0541e+004 -2.1795e+004 119875 224124,224176,224150
 8.6000e+001 224225 -1.2077e+004 -4.3506e+004 -2.4139e+004 119875 224098,224176,224124
 8.6000e+001 224202 -3.0223e+003 -2.2221e+004  1.9939e+003 119875 224072,224176,224098
 8.6000e+001 224449  2.8153e+004 -3.7632e+005  4.1946e+004 119677 224325,224377,224351
 8.6000e+001 224426 -3.2743e+004 -6.2008e+005  4.5410e+004 119677 224299,224377,224325
 8.6000e+001 224403 -4.1740e+004 -1.4167e+005  2.9330e+004 119677 224273,224377,224299
 8.6000e+001 224552 -7.3051e+004 -2.0803e+005 -1.8567e+004 119273 224474,224526,224500
 8.6000e+001 224704 -8.1939e+004 -5.4824e+005  2.1125e+005 118983 224603,224655,224629
 8.6000e+001 224681 -8.7405e+004 -5.4210e+005  2.1524e+005 118983 224577,224655,224603
 8.6000e+001 224856 -7.6099e+005 -7.8712e+003 -2.6449e+004 118529 224755,224807,224781
 8.6000e+001 224833  6.5948e+004 -1.0254e+006  2.8370e+005 118529 224729,224807,224755
 8.6000e+001 225008 -2.9438e+004 -9.6559e+005 -4.8047e+002 118353 224881,224933,224907
 8.6000e+001 224985 -3.5185e+003 -2.0341e+005 -1.7343e+003 118353 224881,224959,224933
 8.6000e+001 225209 -1.3528e+006 -6.0556e+006 -1.5193e+006 117949 225059,225137,225111
 8.6000e+001 225186 -2.7037e+005 -4.1820e+006  1.0641e+006 117949 225033,225137,225059
 8.6000e+001 225163  9.4991e+005 -1.2704e+007  1.9866e+006 117949 225059,225111,225085
 8.6000e+001 225410  1.2055e+005 -9.2293e+006  6.1515e+005 117559 225260,225338,225312
 8.6000e+001 225387 -3.0410e+006 -1.0003e+007  4.8633e+005 117559 225234,225338,225260
 8.6000e+001 225364 -7.4222e+005 -6.9335e+006 -2.2683e+006 117559 225260,225312,225286
 8.6000e+001 225611 -2.1592e+006 -1.2448e+007 -3.8851e+006 117361 225461,225513,225487
 8.6000e+001 225588 -3.8045e+006 -1.3946e+007  2.5293e+006 117361 225461,225539,225513
 8.6000e+001 225565 -5.6762e+005 -1.6447e+007  1.0173e+006 117361 225435,225539,225461
 8.6000e+001 225812  3.2857e+005 -1.1171e+007 -3.5060e+005 116900 225636,225714,225662
 8.6000e+001 225789 -3.2823e+006 -3.5144e+006 -1.3315e+006 116900 225636,225740,225714
 8.6000e+001 225766  9.3423e+001 -1.1251e+007  3.1668e+004 116900 225662,225714,225688
 8.6000e+001 225964 -3.8114e+004 -8.3569e+006  7.0821e+004 116560 225837,225889,225863
 8.6000e+001 225941  3.5021e+005 -9.1318e+006  1.9031e+005 116560 225837,225915,225889
 8.6000e+001 226165  4.4472e+004 -7.5264e+005  3.0081e+005 116106 226015,226093,226041
 8.6000e+001 226142 -8.9467e+004 -3.3237e+005 -1.7470e+005 116106 225989,226093,226015
 8.6000e+001 226119 -2.1973e+004 -8.3755e+005  1.3376e+005 116106 226041,226093,226067
 8.6000e+001 226268 -1.6248e+006 -4.9584e+006  1.5019e+006 115716 226190,226242,226216
 8.6000e+001 226420 -1.5759e+005 -1.4501e+007  2.4981e+006 115376 226293,226345,226319
 8.6000e+001 226397 -7.8601e+005 -1.5996e+007  5.0623e+006 115376 226293,226371,226345
 8.6000e+001 226621 -1.0351e+006 -2.9846e+006  6.8743e+005 114972 226497,226549,226523
 8.6000e+001 226598 -6.0342e+005 -1.5625e+007 -3.3935e+005 114972 226445,226549,226497
 8.6000e+001 226575  4.9717e+005 -7.6611e+006  1.0804e+006 114972 226445,226497,226471
 8.6000e+001 226773 -1.1545e+006 -5.1936e+006 -1.7653e+006 114670 226646,226698,226672
 8.6000e+001 226750  7.4224e+005 -1.0961e+007  1.2398e+006 114670 226646,226724,226698
 8.6000e+001 226974  5.9932e+004 -4.1230e+006 -8.3491e+003 114082 226798,226850,226824
 8.6000e+001 226951  1.5566e+005 -4.4050e+006  7.6818e+004 114082 226798,226902,226850
 8.6000e+001 226928 -2.7712e+005 -6.7022e+006 -3.0685e+004 114082 226850,226902,226876
 8.6000e+001 227175 -8.2688e+005 -7.4809e+006 -3.2068e+006 113678 226999,227051,227025
 8.6000e+001 227152 -1.6379e+006 -1.0093e+007 -3.9902e+006 113678 226999,227077,227051
 8.6000e+001 227129 -3.0788e+006 -5.1320e+006 -3.2291e+006 113678 226999,227103,227077
 8.6000e+001 227425 -3.8213e+006 -7.4614e+006 -6.9962e+006 113274 227226,227278,227252
 8.6000e+001 227402  1.2504e+005 -7.1048e+006 -1.2592e+006 113274 227226,227330,227278
 8.6000e+001 227379 -2.4681e+006 -2.5164e+006 -6.4848e+005 113274 227200,227330,227226
 8.6000e+001 227356 -1.3083e+006 -4.4138e+005 -7.5992e+005 113274 227278,227330,227304
 8.6000e+001 227626 -1.7721e+006 -3.8755e+006 -3.4420e+006 112934 227502,227554,227528
 8.6000e+001 227603  8.7700e+005 -3.5409e+006 -4.7481e+005 112934 227450,227554,227502
 8.6000e+001 227580 -2.1177e+006 -8.8375e+005  1.2593e+006 112934 227450,227502,227476
 8.6000e+001 227876 -2.1237e+005 -1.5796e+006 -2.1560e+005 112437 227677,227755,227703
 8.6000e+001 227853 -1.2460e+006 -1.9224e+006  1.5573e+006 112437 227677,227781,227755
 8.6000e+001 227830 -2.5544e+005 -5.6866e+005  3.3260e+005 112437 227703,227755,227729
 8.6000e+001 227807  5.9020e+005 -9.3742e+006 -6.1613e+005 112437 227651,227781,227677
 8.6000e+001 228126 -2.6712e+005 -4.5157e+006 -5.7138e+005 112041 227927,228005,227953
 8.6000e+001 228103 -4.9134e+005 -4.5813e+006 -6.2911e+005 112041 227927,228031,228005
 8.6000e+001 228080 -5.2968e+004 -5.4781e+006 -4.4082e+005 112041 227953,228005,227979
 8.6000e+001 228057 -1.0334e+006 -3.6315e+006 -9.9326e+005 112041 227901,228031,227927
 8.6000e+001 228327 -3.0373e+006 -3.6186e+006  1.8671e+005 111693 228151,228203,228177
 8.6000e+001 228304 -5.3100e+005 -2.7941e+006 -1.3883e+006 111693 228151,228229,228203
 8.6000e+001 228281  5.2227e+005 -6.3074e+006  1.2031e+006 111693 228151,228255,228229
 8.6000e+001 228479  1.3991e+002  4.2150e+002 -7.8679e+001 111253 228352,228404,228378
 8.6000e+001 228456  6.4938e+001  2.1883e+002 -1.8892e+002 111253 228352,228430,228404
 8.6000e+001 228582 -1.4057e-042  1.5079e-041 -4.7243e-042 110906 228504,228556,228530
 8.6000e+001 228783  5.3571e+004 -6.3983e+005 -9.8053e+004 110416 228633,228711,228659
 8.6000e+001 228760 -2.9127e+004 -1.0436e+006 -6.4353e+004 110416 228607,228711,228633
 8.6000e+001 228737  7.1838e+004 -1.4645e+006 -1.0831e+005 110416 228659,228711,228685
 8.6000e+001 228935 -4.6472e+005 -3.9674e+006 -1.7867e+006 110012 228808,228860,228834
 8.6000e+001 228912 -1.9249e+006 -7.4348e+006 -2.9051e+006 110012 228808,228886,228860
 8.6000e+001 229087 -2.6089e+006 -2.8889e+006 -2.1807e+006 109672 228960,229012,228986
 8.6000e+001 229064  5.1953e+005 -6.8369e+006 -1.3289e+006 109672 228960,229038,229012
 8.6000e+001 229190  4.2047e-043 -5.1367e-042  1.5973e-042 109332 229112,229164,229138
 8.6000e+001 229391  1.4196e+002  2.9383e+002 -8.0432e+001 109156 229267,229319,229293
 8.6000e+001 229368  1.3957e+003 -1.5758e+002  1.5997e+003 109156 229215,229319,229267
 8.6000e+001 229345  1.4472e+003  5.8818e+002  1.8972e+003 109156 229215,229267,229241
 8.6000e+001 229543  8.1806e+005 -8.7799e+006  1.1667e+006 108752 229416,229468,229442
 8.6000e+001 229520 -4.6859e+005 -3.7506e+006 -5.2501e+005 108752 229416,229494,229468
 8.6000e+001 229744 -2.6955e+005 -5.0656e+006 -9.5451e+003 108198 229594,229646,229620
 8.6000e+001 229721  2.7143e+003 -4.9855e+006 -1.8298e+005 108198 229594,229672,229646
 8.6000e+001 229698 -4.7667e+005 -5.0209e+006 -2.4730e+005 108198 229568,229672,229594
 8.6000e+001 229847  6.7880e+002  8.4240e+002 -2.1220e+001 107758 229769,229821,229795
 8.6000e+001 230048 -7.9899e+005 -2.6070e+006 -6.1426e+005 107468 229898,229950,229924
 8.6000e+001 230025 -6.0908e+005 -1.9917e+006  5.5056e+005 107468 229872,229950,229898
 8.6000e+001 230002 -1.0141e+006 -1.3107e+006 -8.3932e+004 107468 229872,229976,229950
 8.6000e+001 230298  2.1163e+005 -1.1537e+006  7.2151e+005 107121 230099,230203,230177
 8.6000e+001 230275 -3.3209e+005 -6.5008e+005  3.1320e+005 107121 230073,230203,230099
 8.6000e+001 230252  7.4750e+005 -1.7640e+006 -6.3777e+005 107121 230099,230177,230151
 8.6000e+001 230229 -2.4001e+005 -1.8592e+006 -6.6811e+005 107121 230099,230151,230125
 8.6000e+001 230450 -4.0872e+005 -3.1129e+005  1.4317e+005 106823 230349,230401,230375
 8.6000e+001 230427 -1.0135e+005 -8.2645e+005  9.7258e+004 106823 230323,230401,230349
 8.6000e+001 230602 -5.3085e+006 -6.8223e+006 -8.3489e+006 106533 230501,230553,230527
 8.6000e+001 230579  2.8055e+006 -1.4367e+007  4.3017e+006 106533 230475,230553,230501
 8.6000e+001 230803 -6.7455e+004 -1.0798e+006 -9.8034e+004 106029 230679,230731,230705
 8.6000e+001 230780  4.7160e+004 -6.0277e+005 -5.3270e+004 106029 230653,230731,230679
 8.6000e+001 230757  1.5337e+004 -1.3225e+006 -1.5644e+005 106029 230627,230731,230653
 8.6000e+001 231004 -1.6447e+005 -3.0183e+006  2.5586e+005 105689 230854,230906,230880
 8.6000e+001 230981  2.1643e+005 -3.4536e+006 -2.5132e+005 105689 230828,230906,230854
 8.6000e+001 230958 -5.9702e+005 -2.3235e+006 -1.1569e+006 105689 230828,230932,230906
 8.6000e+001 231156  2.7494e+005 -6.8587e+006 -2.9660e+005 105377 231055,231107,231081
 8.6000e+001 231133 -3.4805e+005 -4.2816e+006  4.1339e+005 105377 231029,231107,231055
 8.6000e+001 231406 -1.1033e+006 -6.8501e+006 -1.2277e+006 104858 231207,231259,231233
 8.6000e+001 231383 -1.6266e+006 -6.5994e+006 -1.7167e+006 104858 231207,231311,231259
 8.6000e+001 231360 -1.0153e+006 -7.8699e+006 -2.2970e+006 104858 231259,231311,231285
 8.6000e+001 231337 -9.8540e+005 -7.7604e+006 -1.9303e+006 104858 231181,231311,231207
 8.6000e+001 231558 -5.4890e+005 -1.6889e+007  4.5137e+005 104418 231457,231509,231483
 8.6000e+001 231535 -5.7545e+006 -1.7327e+007 -9.9499e+006 104418 231431,231509,231457
 8.6000e+001 231710 -3.5133e+006 -3.2388e+005  1.4780e+005 103978 231583,231635,231609
 8.6000e+001 231687 -2.0102e+006 -5.1285e+005 -6.9034e+005 103978 231583,231661,231635
 8.6000e+001 231862 -1.2762e+006 -7.9115e+006 -9.2415e+005 103588 231761,231813,231787
 8.6000e+001 231839  1.8431e+005 -2.4496e+006 -3.2918e+005 103588 231735,231813,231761
 8.6000e+001 232014 -1.2061e+006 -7.1505e+006 -3.2236e+006 103248 231887,231939,231913
 8.6000e+001 231991 -2.5785e+006 -1.1918e+007 -5.1814e+006 103248 231887,231965,231939
 8.6000e+001 232215 -6.3975e+004 -2.6339e+004  4.0198e+004 102844 232039,232117,232065
 8.6000e+001 232192 -3.3297e+004 -2.0038e+003 -7.5260e+003 102844 232039,232143,232117
 8.6000e+001 232169 -5.8365e+004  4.8301e+003  1.8043e+004 102844 232065,232117,232091
 8.6000e+001 232416 -2.9266e+006 -7.1479e+006 -3.6540e+006 102554 232240,232318,232292
 8.6000e+001 232393  6.0861e+005 -1.2055e+007 -6.6652e+005 102554 232240,232344,232318
 8.6000e+001 232370 -4.2927e+006 -2.4785e+006 -6.0304e+005 102554 232240,232292,232266
 8.6000e+001 232568 -1.9337e+004 -2.9770e+006  2.1397e+005 102100 232441,232493,232467
 8.6000e+001 232545 -1.3313e+005 -3.0039e+006  2.1283e+005 102100 232441,232519,232493
 8.6000e+001 232769 -1.9750e+005 -2.3485e+006  3.9837e+005 101596 232645,232697,232671
 8.6000e+001 232746  6.0198e+004 -1.4046e+006  2.3309e+005 101596 232593,232697,232645
 8.6000e+001 232723 -6.8264e+004 -1.9845e+006  3.7553e+005 101596 232593,232645,232619
 8.6000e+001 232921 -5.0058e+005 -1.5009e+005  5.4892e+004 101420 232794,232846,232820
 8.6000e+001 232898 -5.4465e+005 -3.6945e+005  6.8688e+004 101420 232794,232872,232846
 8.6000e+001 233073 -9.4095e+005 -1.9712e+006 -6.1035e+005 101023 232946,232998,232972
 8.6000e+001 233050  4.7194e+005 -4.7969e+006  1.6296e+006 101023 232946,233024,232998
 8.6000e+001 233225 -1.8507e+003 -2.9508e+003  2.7875e+002 100661 233098,233150,233124
 8.6000e+001 233202 -4.7410e+003  9.5623e+002  1.0158e+003 100661 233098,233176,233150
 8.6000e+001 233426 -1.2780e+006 -6.4507e+006 -2.2343e+006 100265 233276,233328,233302
 8.6000e+001 233403 -1.0230e+006 -6.0249e+006 -1.2136e+006 100265 233276,233354,233328
 8.6000e+001 233380 -1.1290e+006 -5.9814e+006 -1.2469e+006 100265 233250,233354,233276
 8.6000e+001 233578 -9.6827e+003 -2.2503e+006  1.4900e+005 100032 233451,233503,233477
 8.6000e+001 233555 -1.3446e+005 -2.2237e+006  4.9558e+005 100032 233451,233529,233503
 8.6000e+001 233681 -2.5062e+006 -1.2956e+004 -1.1724e+005 99742 233603,233655,233629
 8.6000e+001 233784 -4.2799e+005 -9.4427e+005  6.0772e+005 99402 233706,233758,233732
 8.6000e+001 233936 -6.2013e+005 -1.0545e+006  6.5626e+005 99062 233835,233887,233861
 8.6000e+001 233913 -7.0452e+005 -1.3956e+006  6.6777e+005 99062 233809,233887,233835
 8.6000e+001 234088 -4.4982e+005 -8.4127e+005  3.0639e+005 98772 233987,234039,234013
 8.6000e+001 234065 -1.2990e+005 -7.8368e+005  2.8744e+005 98772 233961,234039,233987
 8.6000e+001 234240 -3.1362e+003 -9.3343e+004  2.3717e+004 98160 234139,234191,234165
 8.6000e+001 234217 -1.0003e+004 -1.1524e+005  2.9970e+004 98160 234113,234191,234139
 8.6000e+001 234441  1.1439e+002 -6.0337e+002 -2.2767e+002 97820 234317,234369,234343
 8.6000e+001 234418  1.1484e+002 -2.8127e+002  2.5851e+002 97820 234291,234369,234317
 8.6000e+001 234395  4.6938e+002 -1.3286e+003  3.3528e+002 97820 234265,234369,234291
 8.6000e+001 234593 -5.5284e+004 -3.2049e+005  6.6284e+004 97366 234466,234518,234492
 8.6000e+001 234570 -1.6824e+005 -3.0275e+005  1.2866e+005 97366 234466,234544,234518
 8.6000e+001 234794 -2.8899e+005 -2.8356e+005 -1.8827e+005 96976 234618,234670,234644
 8.6000e+001 234771 -9.4397e+004 -5.8632e+005 -1.6425e+005 96976 234618,234722,234670
 8.6000e+001 234748 -1.0378e+005 -6.6865e+005 -1.5275e+005 96976 234670,234722,234696
 8.6000e+001 234946 -5.3864e+005 -2.2146e+005  2.6117e+005 96568 234845,234897,234871
 8.6000e+001 234923 -4.7425e+005 -4.7680e+005  6.7761e+005 96568 234819,234897,234845
 8.6000e+001 235196 -7.3083e+004 -4.5063e+005 -1.0422e+004 96216 234997,235075,235049
 8.6000e+001 235173 -4.8082e+004 -9.4052e+005  1.9202e+005 96216 234997,235101,235075
 8.6000e+001 235150 -3.0217e+005 -9.2992e+005  2.3095e+005 96216 234997,235049,235023
 8.6000e+001 235127 -3.3537e+004 -9.4427e+005  1.7749e+005 96216 234971,235101,234997
 8.6000e+001 235348 -1.1333e+006 -1.6710e+006 -5.8790e+005 95863 235247,235299,235273
 8.6000e+001 235325 -1.1375e+006 -1.3812e+006 -6.7999e+005 95863 235221,235299,235247
 8.6000e+001 235500 -5.9007e+004 -4.8535e+005  9.0846e+004 95339 235373,235425,235399
 8.6000e+001 235477 -1.2804e+005 -6.3174e+005  7.9259e+005 95339 235373,235451,235425
 8.6000e+001 235701  3.9950e+004 -1.1691e+006  2.9329e+005 95023 235525,235577,235551
 8.6000e+001 235678 -5.3900e+003 -8.3655e+005  1.6775e+004 95023 235525,235629,235577
 8.6000e+001 235655  8.6835e+004 -9.8345e+005  1.3047e+004 95023 235577,235629,235603
 8.6000e+001 235853 -1.8663e+004 -1.2402e+007 -5.3670e+005 94671 235726,235778,235752
 8.6000e+001 235830  2.5322e+005 -1.3792e+007  5.0657e+005 94671 235726,235804,235778
 8.6000e+001 236005 -2.3847e+006 -6.1714e+006  1.3497e+006 94261 235904,235956,235930
 8.6000e+001 235982 -1.1843e+006 -1.1338e+007 -3.7868e+006 94261 235878,235956,235904
 8.6000e+001 236206 -2.2390e+006 -5.0465e+005  7.1642e+005 93853 236056,236134,236082
 8.6000e+001 236183 -2.4880e+006 -5.7190e+005  6.0949e+005 93853 236030,236134,236056
 8.6000e+001 236160 -1.5269e+006 -7.8220e+005  8.9959e+005 93853 236082,236134,236108
 8.6000e+001 236407 -1.4609e+006 -3.0956e+006  6.6073e+005 93557 236257,236309,236283
 8.6000e+001 236384 -2.5859e+006 -3.9914e+006 -2.3402e+006 93557 236231,236309,236257
 8.6000e+001 236361  1.5434e+006 -1.8062e+007  2.1531e+006 93557 236231,236335,236309
 8.6000e+001 236559 -1.7149e+003 -2.2669e+004  9.6377e+003 93149 236432,236484,236458
 8.6000e+001 236536 -1.2236e+003 -1.4807e+004  2.7530e+003 93149 236432,236510,236484
 8.6000e+001 236711 -8.1627e+004 -7.7680e+004  7.9973e+004 92853 236584,236636,236610
 8.6000e+001 236688 -8.3474e+004 -7.9533e+004  8.1101e+004 92853 236584,236662,236636
 8.6000e+001 236912 -1.8927e+005 -6.1852e+005  3.3930e+005 92501 236736,236788,236762
 8.6000e+001 236889 -3.3193e+005 -4.0947e+005  2.3490e+005 92501 236736,236840,236788
 8.6000e+001 236866 -3.1176e+005 -5.3458e+005  9.7032e+004 92501 236788,236840,236814
 8.6000e+001 237113 -6.0262e+004 -3.5093e+006  1.0615e+005 92291 236963,237041,237015
 8.6000e+001 237090  1.8983e+005 -2.0257e+006  1.0916e+005 92291 236937,237041,236963
 8.6000e+001 237067 -1.5998e+005 -3.1850e+006  7.1336e+005 92291 236963,237015,236989
 8.6000e+001 237265  4.0765e+004 -9.9802e+004 -2.3374e+005 91871 237138,237190,237164
 8.6000e+001 237242 -8.9929e+004 -6.2670e+005 -3.0031e+005 91871 237138,237216,237190
 8.6000e+001 237368 -6.2237e+004 -1.8150e+006 -1.9904e+005 91581 237290,237342,237316
 8.6000e+001 237520 -4.8729e+004 -8.8401e+004  6.5280e+004 91184 237419,237471,237445
 8.6000e+001 237497 -5.4221e+004 -9.2171e+003  1.3581e+005 91184 237393,237471,237419
 8.6000e+001 237672 -2.2460e+005 -4.9423e+005 -7.4263e+004 90894 237545,237597,237571
 8.6000e+001 237649 -1.6457e+004 -1.3080e+006  2.8658e+005 90894 237545,237623,237597
 8.6000e+001 237873 -2.2446e+005 -1.7371e+006  7.1944e+005 90490 237749,237801,237775
 8.6000e+001 237850 -1.1259e+005 -2.4764e+006  8.6557e+005 90490 237723,237801,237749
 8.6000e+001 237827 -5.2701e+005 -2.5758e+006  4.8621e+005 90490 237697,237801,237723
 8.6000e+001 238074 -5.1983e+005 -4.2285e+006  1.4470e+005 90100 237898,237976,237950
 8.6000e+001 238051 -1.9236e+006 -4.2214e+006 -2.6033e+005 90100 237898,238002,237976
 8.6000e+001 238028 -8.1998e+005 -1.6695e+006  4.2660e+005 90100 237898,237950,237924
 8.6000e+001 238275 -3.8959e+004 -3.4538e+005  1.1669e+005 89696 238125,238177,238151
 8.6000e+001 238252 -3.3512e+005 -1.9438e+005 -2.6035e+005 89696 238099,238177,238125
 8.6000e+001 238229 -3.3045e+005 -9.6203e+005 -2.1406e+005 89696 238099,238203,238177
 8.6000e+001 238427 -3.8636e+003 -1.0920e+003  2.4846e+003 89206 238326,238378,238352
 8.6000e+001 238404 -2.4632e+003 -1.6319e+003  3.3578e+003 89206 238300,238378,238326
 8.6000e+001 238579 -3.9809e+004 -7.2672e+005  1.2909e+004 88908 238452,238504,238478
 8.6000e+001 238556 -1.1727e+005 -7.3530e+005 -4.0112e+003 88908 238452,238530,238504
 8.6000e+001 238682 -3.3924e+002  3.9429e+001 -4.9868e+001 88568 238604,238656,238630
 8.6000e+001 238883 -3.5857e+005 -3.2768e+006  1.3941e+006 88278 238733,238811,238785
 8.6000e+001 238860 -5.6747e+005 -2.4921e+006  1.3766e+006 88278 238707,238811,238733
 8.6000e+001 238837 -1.1363e+005 -3.5645e+006  6.3837e+005 88278 238733,238785,238759
 8.6000e+001 239035 -2.5087e+006 -3.7483e+006 -7.6867e+005 87988 238908,238960,238934
 8.6000e+001 239012 -2.6137e+006 -1.9339e+006 -2.2039e+005 87988 238908,238986,238960
 8.6000e+001 239138 -4.7681e+005 -7.1120e+005 -3.0583e+005 87648 239060,239112,239086
 8.6000e+001 239339 -4.0856e+006 -3.2915e+006 -3.2029e+006 87358 239163,239215,239189
 8.6000e+001 239316 -4.0432e+006 -1.0147e+006 -4.6810e+005 87358 239163,239241,239215
 8.6000e+001 239293 -1.3538e+006 -1.2602e+006 -9.7658e+005 87358 239163,239267,239241
 8.6000e+001 239589  2.2167e+003 -1.6326e+005  2.7767e+004 86961 239390,239468,239416
 8.6000e+001 239566 -4.5981e+004 -9.4954e+004  1.5829e+005 86961 239390,239494,239468
 8.6000e+001 239543 -6.1739e+003 -1.9548e+004  1.7364e+004 86961 239416,239468,239442
 8.6000e+001 239520 -2.4173e+005 -1.6369e+004  1.2264e+005 86961 239364,239494,239390
 8.6000e+001 239741 -1.2251e+006 -8.8931e+005  4.8012e+004 86621 239640,239692,239666
 8.6000e+001 239718 -4.8097e+005 -2.6121e+006 -1.1484e+006 86621 239614,239692,239640
 8.6000e+001 239893 -6.7952e+005 -2.4995e+006  8.8897e+005 86217 239792,239844,239818
 8.6000e+001 239870 -5.5235e+005 -3.7581e+006  1.4664e+006 86217 239766,239844,239792
 8.6000e+001 240045 -8.4782e+005 -2.8056e+006  9.6533e+005 85827 239918,239970,239944
 8.6000e+001 240022 -2.7435e+005 -2.6318e+006  1.9962e+005 85827 239918,239996,239970
 8.6000e+001 240197 -1.0077e+006 -4.3604e+006  6.9215e+005 85437 240096,240148,240122
 8.6000e+001 240174 -9.0312e+005 -7.2091e+005  4.6552e+005 85437 240070,240148,240096
 8.6000e+001 240349  1.6634e+004 -2.2654e+005  5.4981e+004 85147 240222,240274,240248
 8.6000e+001 240326 -1.2830e+004 -1.5378e+005 -2.4612e+004 85147 240222,240300,240274
 8.6000e+001 240501 -5.1783e+004 -2.8857e+005 -3.4302e+004 84807 240374,240426,240400
 8.6000e+001 240478 -2.1642e+005 -8.0413e+005  5.0312e+005 84807 240374,240452,240426
 8.6000e+001 240653 -6.5328e+002 -4.9572e+001 -2.0537e+002 84303 240552,240604,240578
 8.6000e+001 240630 -4.8171e+002  4.9175e+002 -9.2093e+001 84303 240526,240604,240552
 8.6000e+001 240854 -1.1558e+006 -8.9178e+006 -4.9950e+006 83929 240704,240756,240730
 8.6000e+001 240831  1.3926e+006 -6.5992e+006  2.5264e+006 83929 240704,240782,240756
 8.6000e+001 240808 -3.1625e+006  2.4658e+006  2.6233e+006 83929 240678,240782,240704
 8.6000e+001 241055 -3.0890e+003 -1.3315e+003  3.8825e+003 83539 240879,240957,240931
 8.6000e+001 241032 -4.2023e+004 -2.8150e+004  3.4131e+004 83539 240879,240983,240957
 8.6000e+001 241009 -9.6904e+003 -6.5984e+003  7.7398e+003 83539 240879,240931,240905
 8.6000e+001 241207 -2.3163e+004 -1.8017e+005  2.0918e+004 83079 241106,241158,241132
 8.6000e+001 241184  1.6022e+004 -2.1232e+005  3.6838e+004 83079 241080,241158,241106
 8.6000e+001 241408 -4.9234e+005 -6.6481e+005 -1.0069e+006 82665 241232,241284,241258
 8.6000e+001 241385 -1.5644e+005  1.7509e+006 -2.7159e+006 82665 241232,241336,241284
 8.6000e+001 241362 -2.7557e+006 -1.1747e+007  4.6587e+006 82665 241284,241336,241310
 8.6000e+001 241658 -2.8410e+005 -3.9644e+006  5.0718e+005 82375 241485,241563,241511
 8.6000e+001 241635 -3.7116e+004 -2.3933e+006  3.0006e+005 82375 241433,241563,241485
 8.6000e+001 241612 -1.2808e+005 -2.7836e+006  2.9217e+005 82375 241433,241485,241459
 8.6000e+001 241589 -6.6767e+005 -4.4859e+006  7.7335e+005 82375 241511,241563,241537
 8.6000e+001 241810 -6.9398e+005 -8.0770e+005 -4.7493e+005 82035 241683,241735,241709
 8.6000e+001 241787 -3.4113e+005 -1.3958e+006  3.8008e+005 82035 241683,241761,241735
 8.6000e+001 241962 -7.5550e+005 -1.7749e+006  5.7451e+005 81695 241861,241913,241887
 8.6000e+001 241939 -4.3293e+005 -2.4618e+006 -6.8895e+005 81695 241835,241913,241861
 8.6000e+001 242114 -9.1241e+005 -4.1794e+006  1.1608e+006 81355 242013,242065,242039
 8.6000e+001 242091 -2.6410e+005 -1.9827e+006  5.9971e+005 81355 241987,242065,242013
 8.6000e+001 242266 -6.2370e+002 -2.2740e+005  1.4875e+004 80951 242139,242191,242165
 8.6000e+001 242243 -1.3762e+003 -2.3034e+005  1.4422e+004 80951 242139,242217,242191
 8.6000e+001 242467 -4.3801e+005 -5.0795e+006  6.4253e+005 80311 242291,242369,242343
 8.6000e+001 242444  1.7003e+005 -2.5835e+006  4.7312e+005 80311 242291,242395,242369
 8.6000e+001 242421 -2.0595e+005 -1.2574e+006  2.4505e+005 80311 242291,242343,242317
 8.6000e+001 242619 -1.5977e+006 -2.6020e+006  3.9647e+005 80021 242492,242544,242518
 8.6000e+001 242596 -1.5444e+006 -2.3948e+006  1.5941e+006 80021 242492,242570,242544
 8.6000e+001 242869 -2.9481e+004 -2.7528e+004 -2.1072e+004 79631 242644,242722,242696
 8.6000e+001 242846 -1.8485e+004 -2.6447e+005  4.7766e+004 79631 242644,242774,242722
 8.6000e+001 242823  3.0311e+004 -1.2593e+005 -4.2916e+003 79631 242722,242774,242748
 8.6000e+001 242800 -2.1541e+004 -2.4956e+004  1.9116e+004 79631 242644,242696,242670
 8.6000e+001 243070  5.0188e+005 -1.4882e+007  3.4227e+006 79341 242920,242972,242946
 8.6000e+001 243047 -6.1486e+005 -6.6860e+006 -8.4977e+005 79341 242920,242998,242972
 8.6000e+001 243024 -7.4408e+005 -3.7416e+006  1.6679e+006 79341 242894,242998,242920
 8.6000e+001 243222 -3.1835e+005 -2.3888e+006  1.0002e+006 78801 243121,243173,243147
 8.6000e+001 243199 -3.1491e+005 -2.4365e+006  9.3110e+005 78801 243095,243173,243121
 8.6000e+001 243423 -1.0343e+006 -1.7506e+006 -8.9292e+005 78511 243273,243325,243299
 8.6000e+001 243400  8.6162e+005 -4.5823e+006  4.5741e+005 78511 243273,243351,243325
 8.6000e+001 243377 -6.9348e+002 -4.8158e+006  9.6294e+004 78511 243247,243351,243273
 8.6000e+001 243624 -3.4543e+005 -2.8676e+006 -1.0163e+006 78107 243474,243552,243526
 8.6000e+001 243601 -4.9283e+005 -3.4640e+006 -1.0730e+006 78107 243448,243552,243474
 8.6000e+001 243578 -5.6562e+005 -1.9319e+006 -1.3964e+005 78107 243474,243526,243500
 8.6000e+001 243776 -8.2364e+005 -4.5209e+006 -8.1365e+005 77653 243649,243701,243675
 8.6000e+001 243753 -6.6424e+005 -4.6346e+006 -1.0871e+006 77653 243649,243727,243701
 8.6000e+001 243977 -4.5735e+005 -6.1269e+006  5.9399e+004 77093 243801,243853,243827
 8.6000e+001 243954 -9.8173e+004 -5.0075e+006  7.9252e+005 77093 243801,243879,243853
 8.6000e+001 243931 -4.0505e+005 -1.8407e+006 -1.8704e+005 77093 243801,243905,243879
 8.6000e+001 244080 -5.2728e+005 -5.7724e+006  3.0507e+005 76791 244002,244054,244028
 8.6000e+001 244232  1.0838e+005 -2.6038e+006 -2.5791e+005 76311 244131,244183,244157
 8.6000e+001 244209 -1.6477e+005 -3.8930e+006 -4.0892e+005 76311 244105,244183,244131
 8.6000e+001 244433  5.6403e+005 -1.5821e+007  4.1687e+006 75903 244283,244335,244309
 8.6000e+001 244410 -8.3752e+005 -9.8437e+006 -4.5436e+005 75903 244283,244361,244335
 8.6000e+001 244387 -1.3660e+006 -8.2622e+006  6.4181e+005 75903 244257,244361,244283
 8.6000e+001 244585  3.0249e+005 -1.5697e+007  1.6012e+006 75419 244458,244510,244484
 8.6000e+001 244562 -7.9589e+005 -8.1388e+006 -1.9256e+005 75419 244458,244536,244510
 8.6000e+001 244737 -3.9519e+005 -5.9483e+005 -1.7883e+005 75215 244636,244688,244662
 8.6000e+001 244714 -2.8306e+005 -2.8850e+006 -1.7032e+005 75215 244610,244688,244636
 8.6000e+001 244889 -9.5063e+005 -4.2576e+006 -7.3686e+005 74857 244788,244840,244814
 8.6000e+001 244866 -2.9616e+005 -1.9052e+006 -2.9741e+005 74857 244762,244840,244788
 8.6000e+001 245041 -3.6079e+005 -2.2293e+006 -1.1763e+006 74653 244940,244992,244966
 8.6000e+001 245018 -3.7786e+005 -5.3174e+005  1.0095e+006 74653 244914,244992,244940
 8.6000e+001 245144 -1.0073e+006 -5.3077e+006 -1.2261e+006 74359 245066,245118,245092
 8.6000e+001 245296 -1.3045e+004 -2.8179e+005 -9.0604e+004 74007 245169,245221,245195
 8.6000e+001 245273 -8.4836e+004 -4.8354e+005 -1.4075e+005 74007 245169,245247,245221
 8.6000e+001 245448 -2.7141e+006 -4.8673e+006 -1.1348e+006 73711 245321,245373,245347
 8.6000e+001 245425 -2.7558e+006 -4.8831e+006 -8.7454e+005 73711 245321,245399,245373
 8.6000e+001 245600  1.2309e+006 -1.3759e+007 -1.8804e+006 73301 245499,245551,245525
 8.6000e+001 245577 -1.7097e+006 -8.6140e+006  1.9926e+006 73301 245473,245551,245499
 8.6000e+001 245752 -2.9297e+006 -4.4157e+006 -2.6874e+006 72995 245625,245677,245651
 8.6000e+001 245729  9.1197e+005 -1.6375e+007 -2.3470e+006 72995 245625,245703,245677
 8.6000e+001 245953 -1.3802e+006 -1.4223e+007  8.6235e+005 72585 245777,245829,245803
 8.6000e+001 245930 -6.2320e+005 -1.3763e+007  1.7748e+006 72585 245777,245855,245829
 8.6000e+001 245907 -1.5194e+006 -9.9697e+006  7.5971e+005 72585 245777,245881,245855
 8.6000e+001 246154 -5.0020e+005 -7.4921e+006  1.4388e+006 72127 246030,246082,246056
 8.6000e+001 246131 -1.1043e+006 -8.4530e+006  5.7188e+005 72127 245978,246082,246030
 8.6000e+001 246108 -1.0901e+005 -1.0391e+007  2.8303e+005 72127 245978,246030,246004
 8.6000e+001 246257 -1.4970e+006 -2.4279e+005 -2.1039e+005 71737 246179,246231,246205
 8.6000e+001 246360  8.4631e+004 -3.1234e+006  5.4182e+005 71447 246282,246334,246308
 8.6000e+001 246512 -1.5362e+005 -1.8142e+006  8.2268e+005 71157 246385,246437,246411
 8.6000e+001 246489 -5.9212e+004 -1.3336e+006 -5.9984e+004 71157 246385,246463,246437
 8.6000e+001 246664 -1.8401e+005 -2.0422e+006 -6.2741e+005 70753 246537,246589,246563
 8.6000e+001 246641 -8.1584e+005 -6.3817e+005 -3.4434e+005 70753 246537,246615,246589
 8.6000e+001 246865 -1.5599e+006 -7.9699e+006  4.0270e+006 70249 246715,246767,246741
 8.6000e+001 246842 -3.5503e+006 -7.8936e+006  2.1539e+004 70249 246715,246793,246767
 8.6000e+001 246819 -1.9129e+005 -1.5588e+007 -4.5159e+006 70249 246689,246793,246715
 8.6000e+001 247066  2.7546e+004 -1.5271e+006  1.7903e+005 70023 246916,246994,246942
 8.6000e+001 247043 -1.2793e+005 -1.0782e+006  3.6633e+005 70023 246890,246994,246916
 8.6000e+001 247020  8.4494e+004 -1.4509e+006  3.3016e+005 70023 246942,246994,246968
 8.6000e+001 247267 -3.5628e+005 -3.4203e+006 -7.5750e+005 69633 247091,247143,247117
 8.6000e+001 247244 -1.4774e+005 -2.5733e+006 -6.2754e+005 69633 247091,247169,247143
 8.6000e+001 247221 -1.6574e+005 -2.1659e+006 -5.3190e+005 69633 247091,247195,247169
 8.6000e+001 247419 -1.0886e+006 -4.5394e+006  4.0174e+005 69457 247318,247370,247344
 8.6000e+001 247396 -1.2206e+006 -1.7614e+006  6.8700e+005 69457 247292,247370,247318
 8.6000e+001 247522 -1.6190e+002  5.4253e+001  5.0844e+000 69209 247444,247496,247470
 8.6000e+001 247625 -9.3091e+005 -9.7866e+005 -7.4799e+005 68919 247547,247599,247573
 8.6000e+001 247777  1.1036e+005 -3.3189e+006 -1.7269e+005 68579 247650,247702,247676
 8.6000e+001 247754  1.5474e+005 -7.0252e+005 -2.6712e+005 68579 247650,247728,247702
 8.6000e+001 247929 -1.4450e+005 -3.8435e+006  6.3739e+005 68289 247802,247854,247828
 8.6000e+001 247906 -4.3796e+005 -2.2403e+006 -8.0332e+005 68289 247802,247880,247854
 8.6000e+001 248081 -2.1075e+005 -2.2430e+006  7.0565e+005 67949 247980,248032,248006
 8.6000e+001 248058 -2.9672e+005 -3.5937e+005  2.3317e+004 67949 247954,248032,247980
 8.6000e+001 248233 -1.5459e+006 -5.2069e+006 -7.1686e+005 67616 248132,248184,248158
 8.6000e+001 248210 -7.4255e+005 -4.2559e+006 -1.9557e+005 67616 248106,248184,248132
 8.6000e+001 248434 -6.9425e+004 -2.2241e+006 -1.4859e+005 67212 248284,248336,248310
 8.6000e+001 248411 -3.3937e+005 -2.2537e+006 -3.0180e+004 67212 248258,248336,248284
 8.6000e+001 248388 -9.0675e+005 -6.8047e+005 -4.0982e+005 67212 248258,248362,248336
 8.6000e+001 248586 -3.3345e+005 -3.2884e+006 -4.4990e+005 66872 248485,248537,248511
 8.6000e+001 248563 -2.2997e+005 -1.5493e+006 -4.8215e+005 66872 248459,248537,248485
 8.6000e+001 248738 -4.6490e+005 -5.1120e+006  2.0263e+005 66510 248637,248689,248663
 8.6000e+001 248715 -6.0927e+005 -5.2075e+006  8.1510e+004 66510 248611,248689,248637
 8.6000e+001 248890 -2.8719e+004 -7.5375e+005  1.4664e+005 66220 248789,248841,248815
 8.6000e+001 248867 -4.4369e+004 -9.8920e+005 -3.2550e+005 66220 248763,248841,248789
 8.6000e+001 249091 -1.1408e+006 -7.7533e+006  1.4709e+006 65759 248915,248967,248941
 8.6000e+001 249068 -9.8513e+005 -4.7263e+006  1.9277e+006 65759 248915,248993,248967
 8.6000e+001 249045 -4.1986e+005 -3.5137e+006  3.1540e+005 65759 248915,249019,248993
 8.6000e+001 249243 -6.1380e+004 -7.0328e+006  1.4710e+006 65419 249142,249194,249168
 8.6000e+001 249220  2.1632e+005 -1.4073e+006  2.4730e+005 65419 249116,249194,249142
 8.6000e+001 249395 -2.4994e+005 -2.5137e+006 -6.5179e+005 65079 249268,249320,249294
 8.6000e+001 249372 -4.2615e+005 -3.2858e+006 -6.0513e+005 65079 249268,249346,249320
 8.6000e+001 249547 -1.6733e+006 -6.8515e+006  1.6532e+006 64739 249420,249472,249446
 8.6000e+001 249524 -6.3735e+005 -5.0558e+006 -1.9717e+006 64739 249420,249498,249472
 8.6000e+001 249650 -1.2410e+006 -4.1629e+006 -1.8654e+006 64342 249572,249624,249598
 8.6000e+001 249851  8.7693e+003 -3.3082e+006 -2.8505e+005 63938 249701,249779,249753
 8.6000e+001 249828 -1.1742e+005 -3.4530e+006  3.9393e+005 63938 249675,249779,249701
 8.6000e+001 249805 -3.6468e+005 -8.3367e+005 -2.1460e+005 63938 249701,249753,249727
 8.6000e+001 250052 -3.2663e+005 -3.4533e+006 -6.2534e+005 63341 249876,249954,249902
 8.6000e+001 250029 -6.4183e+005 -3.5748e+006 -2.9863e+005 63341 249876,249980,249954
 8.6000e+001 250006 -2.5223e+005 -4.1182e+006 -8.0375e+004 63341 249902,249954,249928
 8.6000e+001 250253 -7.0035e+005 -4.6787e+005 -2.8904e+004 63058 250077,250129,250103
 8.6000e+001 250230 -2.4254e+006 -2.6040e+006  1.3838e+006 63058 250077,250155,250129
 8.6000e+001 250207 -4.3786e+005 -1.6227e+006  3.8518e+005 63058 250077,250181,250155
 8.6000e+001 250454 -5.7037e+005 -5.4001e+006  4.9429e+005 62832 250304,250382,250330
 8.6000e+001 250431 -3.7674e+003 -6.5866e+006 -1.7971e+006 62832 250278,250382,250304
 8.6000e+001 250408 -1.1618e+006 -4.0517e+006  4.1055e+004 62832 250330,250382,250356
 8.6000e+001 250606 -1.1128e+006 -4.0261e+006 -1.3780e+006 62428 250479,250531,250505
 8.6000e+001 250583 -1.7672e+005 -9.6130e+006 -1.5307e+006 62428 250479,250557,250531
 8.6000e+001 250758 -1.4952e+005 -6.5463e+006  8.8334e+005 62202 250631,250683,250657
 8.6000e+001 250735 -3.9615e+005 -5.9054e+006 -1.3588e+005 62202 250631,250709,250683
 8.6000e+001 250861 -1.3619e+005 -2.2984e+006 -2.2528e+005 61954 250783,250835,250809
 8.6000e+001 251062 -2.7265e+006 -3.4724e+006  2.0243e+005 61557 250912,250990,250938
 8.6000e+001 251039  3.4333e+005 -1.0025e+007 -2.8319e+006 61557 250886,250990,250912
 8.6000e+001 251016 -2.3606e+006 -5.2116e+006 -3.8366e+006 61557 250938,250990,250964
 8.6000e+001 251263 -6.5067e+005 -5.2786e+006 -1.3857e+005 61167 251113,251165,251139
 8.6000e+001 251240 -7.5079e+005 -4.6149e+006 -1.9485e+005 61167 251113,251191,251165
 8.6000e+001 251217 -1.2426e+006 -4.6245e+006  4.1355e+005 61167 251087,251191,251113
 8.6000e+001 251415 -9.6170e+005 -3.6499e+006  1.5416e+006 60827 251288,251340,251314
 8.6000e+001 251392 -2.7981e+005 -1.4403e+006 -2.5957e+005 60827 251288,251366,251340
 8.6000e+001 251567 -1.6562e+005 -2.6945e+006 -7.0125e+004 60487 251466,251518,251492
 8.6000e+001 251544 -6.3523e+005 -3.2901e+006 -6.8928e+005 60487 251440,251518,251466
 8.6000e+001 251719 -4.4437e+003 -6.7163e+006 -1.1562e+005 59983 251592,251644,251618
 8.6000e+001 251696 -4.4733e+005 -4.6986e+006 -1.6093e+005 59983 251592,251670,251644
 8.6000e+001 251920 -1.1007e+005 -1.3530e+006 -2.2653e+004 59807 251770,251848,251796
 8.6000e+001 251897 -6.2363e+004 -9.0980e+005 -7.0467e+004 59807 251744,251848,251770
 8.6000e+001 251874 -8.7695e+004 -1.1294e+006  5.3877e+004 59807 251796,251848,251822
 8.6000e+001 252023  5.2320e+005 -3.9723e+006 -1.6108e+005 59517 251945,251997,251971
 8.6000e+001 252175  1.0721e+006 -9.1211e+006 -1.4780e+005 59269 252074,252126,252100
 8.6000e+001 252152 -2.8075e+004 -6.3757e+006  2.2862e+004 59269 252048,252126,252074
 8.6000e+001 252278 -1.0601e+006 -5.1972e+006  6.7537e+005 58979 252200,252252,252226
 8.6000e+001 252381 -2.4923e+006 -1.5484e+006  1.2365e+006 58689 252303,252355,252329
 8.6000e+001 252533 -4.8168e+005 -3.1404e+006 -6.1324e+005 58249 252432,252484,252458
 8.6000e+001 252510 -7.2162e+005 -4.3201e+006 -7.3134e+005 58249 252406,252484,252432
 8.6000e+001 252734  3.8217e+004 -2.3549e+006  6.0773e+004 57902 252584,252662,252610
 8.6000e+001 252711  1.1842e+005 -3.5042e+006 -5.1267e+005 57902 252558,252662,252584
 8.6000e+001 252688  2.3499e+005 -1.6682e+006  1.6900e+005 57902 252610,252662,252636
 8.6000e+001 252886  2.1484e+005 -5.3898e+006 -3.1040e+005 57540 252785,252837,252811
 8.6000e+001 252863  8.2663e+004 -3.6277e+006  1.7480e+005 57540 252759,252837,252785
 8.6000e+001 253038 -9.4073e+005 -6.0937e+006  1.6262e+006 57086 252937,252989,252963
 8.6000e+001 253015 -2.8513e+005 -1.0601e+006  3.5745e+005 57086 252911,252989,252937
 8.6000e+001 253239 -7.8455e+005 -5.0818e+006 -4.0731e+005 56796 253063,253141,253115
 8.6000e+001 253216 -1.2201e+005 -5.1132e+006  5.3062e+004 56796 253063,253167,253141
 8.6000e+001 253193 -5.6722e+006 -8.8465e+005  7.4650e+005 56796 253063,253115,253089
 8.6000e+001 253342 -6.4582e+005 -1.1834e+007 -1.4286e+005 56349 253264,253316,253290
 8.6000e+001 253543 -2.9126e+005 -2.6680e+006 -1.1861e+006 56009 253367,253419,253393
 8.6000e+001 253520 -5.8531e+005 -1.2862e+006 -6.2684e+005 56009 253367,253445,253419
 8.6000e+001 253497 -4.0407e+005 -1.2723e+006 -6.5600e+005 56009 253367,253471,253445
 8.6000e+001 253695 -2.2712e+005 -5.7402e+005  3.4735e+005 55733 253594,253646,253620
 8.6000e+001 253672 -4.3733e+005 -2.3949e+005  3.1762e+005 55733 253568,253646,253594
 8.6000e+001 253798 -6.9394e+005 -1.3763e+006 -2.4368e+005 55557 253720,253772,253746
 8.6000e+001 253950 -6.5887e+005 -2.8853e+006 -4.9421e+004 55153 253849,253901,253875
 8.6000e+001 253927 -2.7969e+005 -3.3189e+006 -5.5786e+005 55153 253823,253901,253849
 8.6000e+001 254151 -1.0640e+006 -3.7226e+006  3.1695e+005 54863 253975,254053,254001
 8.6000e+001 254128 -8.9502e+005 -3.3841e+006  1.7461e+005 54863 253975,254079,254053
 8.6000e+001 254105 -1.0700e+006 -5.0651e+006  9.3340e+005 54863 254001,254053,254027
 8.6000e+001 254303 -1.3649e+005 -2.6788e+005  1.9260e+005 54373 254176,254228,254202
 8.6000e+001 254280 -1.8862e+005 -3.3586e+005  2.2777e+005 54373 254176,254254,254228
 8.6000e+001 254455 -7.8666e+004 -4.2702e+006 -4.2413e+005 53975 254354,254406,254380
 8.6000e+001 254432 -2.8994e+005 -9.4128e+005  1.3584e+005 53975 254328,254406,254354
 8.6000e+001 254607 -1.4763e+005 -5.1096e+006 -5.2409e+004 53585 254480,254532,254506
 8.6000e+001 254584 -4.0002e+005 -4.2855e+006 -1.0930e+005 53585 254480,254558,254532
 8.6000e+001 254808 -7.4993e+005 -3.6104e+006  2.0966e+005 53245 254658,254736,254684
 8.6000e+001 254785 -9.3771e+005 -5.2026e+005 -4.1111e+005 53245 254632,254736,254658
 8.6000e+001 254762 -4.0764e+005 -1.5230e+006  3.1718e+005 53245 254684,254736,254710
 8.6000e+001 254911 -1.5457e+005 -1.4476e+006 -3.2505e+005 52955 254833,254885,254859
 8.6000e+001 255063 -4.6039e+005 -6.8218e+006  4.3293e+004 52551 254962,255014,254988
 8.6000e+001 255040 -6.2907e+005 -6.9666e+006 -5.0595e+004 52551 254936,255014,254962
 8.6000e+001 255264 -1.1163e+006 -1.0673e+006 -6.1340e+005 52261 255114,255166,255140
 8.6000e+001 255241 -1.1906e+006 -2.3620e+006 -1.7781e+005 52261 255114,255192,255166
 8.6000e+001 255218 -5.2865e+006 -1.1247e+006  9.2535e+005 52261 255088,255192,255114
 8.6000e+001 255416 -9.4542e+005 -5.5372e+006  2.1688e+006 51971 255289,255341,255315
 8.6000e+001 255393 -2.9687e+005 -4.8060e+006 -5.4406e+005 51971 255289,255367,255341
 8.6000e+001 255568  1.5774e+005 -1.5396e+006 -4.8125e+005 51681 255441,255493,255467
 8.6000e+001 255545 -1.3530e+005 -1.1110e+006 -4.9567e+005 51681 255441,255519,255493
 8.6000e+001 255769 -2.5308e+005 -2.6160e+006  7.5768e+004 51291 255619,255697,255671
 8.6000e+001 255746 -2.3293e+005 -2.2764e+006 -2.4302e+005 51291 255593,255697,255619
 8.6000e+001 255723 -3.0185e+005 -5.7251e+006 -6.8166e+005 51291 255619,255671,255645
 8.6000e+001 255921 -6.6809e+005 -3.0552e+006  8.4738e+005 50951 255820,255872,255846
 8.6000e+001 255898 -1.2881e+005 -1.2184e+006  4.6494e+004 50951 255794,255872,255820
 8.6000e+001 256171 -7.4204e+005 -5.3280e+006  7.2913e+005 50547 256024,256076,256050
 8.6000e+001 256148 -8.3525e+005 -4.1080e+006  2.6251e+005 50547 255972,256076,256024
 8.6000e+001 256125 -1.4657e+005 -3.9662e+006  3.7217e+005 50547 255946,256076,255972
 8.6000e+001 256102 -7.6450e+005 -4.8963e+006  4.9911e+005 50547 255972,256024,255998
 8.6000e+001 256323  1.2781e+005 -4.2003e+006  4.2892e+005 50093 256196,256248,256222
 8.6000e+001 256300 -1.0340e+006 -2.6083e+006 -8.4069e+005 50093 256196,256274,256248
 8.6000e+001 256426 -1.7374e+002 -1.7678e+002 -8.2440e+000 49845 256348,256400,256374
 8.6000e+001 256627  6.9276e+004 -5.7306e+006  8.9060e+004 49555 256477,256555,256503
 8.6000e+001 256604 -3.0248e+004 -2.8386e+006  2.3869e+005 49555 256451,256555,256477
 8.6000e+001 256581 -3.7632e+005 -5.0695e+006  3.5402e+005 49555 256503,256555,256529
 8.6000e+001 256828 -4.0596e+005 -2.4077e+006 -4.4930e+005 49056 256652,256730,256678
 8.6000e+001 256805 -7.1495e+005 -2.0520e+006 -2.5063e+005 49056 256652,256756,256730
 8.6000e+001 256782 -3.2843e+005 -3.7097e+006  4.8307e+005 49056 256678,256730,256704
 8.6000e+001 256931 -3.2310e+004 -1.1340e+004  4.0079e+004 48766 256853,256905,256879
 8.6000e+001 257083 -1.7456e+006 -5.0942e+006 -7.5154e+005 48568 256982,257034,257008
 8.6000e+001 257060 -6.7899e+005 -8.5633e+005 -1.8102e+005 48568 256956,257034,256982
 8.6000e+001 257186  5.1155e+002 -3.6065e+006 -3.5452e+002 48228 257108,257160,257134
 8.6000e+001 257338 -1.1925e+006 -5.2111e+005  2.9420e+005 47888 257237,257289,257263
 8.6000e+001 257315 -4.8071e+005 -3.6088e+006  1.8666e+006 47888 257211,257289,257237
 8.6000e+001 257539 -4.1305e+005 -3.3871e+006  1.3228e+005 47548 257363,257441,257415
 8.6000e+001 257516 -7.0121e+005 -3.1356e+006 -3.4075e+005 47548 257363,257467,257441
 8.6000e+001 257493 -8.0144e+005 -2.3956e+006 -7.4542e+004 47548 257363,257415,257389
 8.6000e+001 257740 -5.1751e+004 -5.3829e+006  4.8959e+005 46994 257564,257642,257616
 8.6000e+001 257717 -4.3786e+005 -3.7042e+006 -1.5114e+005 46994 257564,257668,257642
 8.6000e+001 257694 -8.8079e+005 -5.3596e+006 -1.9278e+005 46994 257564,257616,257590
 8.6000e+001 257843 -3.1342e+005 -9.7800e+005 -1.3085e+005 46654 257765,257817,257791
 8.6000e+001 257995 -5.6778e+005 -2.8287e+006  3.4211e+005 46364 257894,257946,257920
 8.6000e+001 257972 -6.8995e+005 -2.9019e+006  2.8885e+005 46364 257868,257946,257894
 8.6000e+001 258147 -4.3637e+004 -3.4204e+006  1.0842e+005 46024 258046,258098,258072
 8.6000e+001 258124 -4.0169e+005 -2.4100e+006  4.3576e+005 46024 258020,258098,258046
 8.6000e+001 258250 -4.6341e+005 -7.0526e+005  3.4299e+005 45741 258172,258224,258198
 8.6000e+001 258402 -8.9840e+005 -3.0696e+006  6.4575e+005 45401 258301,258353,258327
 8.6000e+001 258379 -3.7638e+005 -2.9009e+006  8.9489e+005 45401 258275,258353,258301
 8.6000e+001 258603 -6.8145e+005 -1.8253e+006  2.1450e+004 45071 258427,258505,258479
 8.6000e+001 258580 -2.5492e+005 -4.2500e+006  2.6604e+005 45071 258427,258531,258505
 8.6000e+001 258557 -3.0242e+005 -2.6541e+006  1.9169e+005 45071 258427,258479,258453
 8.6000e+001 258755 -2.0168e+005 -4.1620e+006 -3.8939e+005 44681 258654,258706,258680
 8.6000e+001 258732 -3.6513e+005 -3.1572e+006 -3.9676e+005 44681 258628,258706,258654
 8.6000e+001 258907 -2.1775e+005 -3.1757e+006 -2.5068e+005 44157 258806,258858,258832
 8.6000e+001 258884 -6.9430e+005 -2.4761e+006 -1.8536e+005 44157 258780,258858,258806
 8.6000e+001 259010 -5.6095e+005 -2.1593e+006 -6.3873e+004 43705 258932,258984,258958
 8.6000e+001 259113 -5.5660e+005 -2.5277e+006  7.9887e+004 43284 259035,259087,259061
 8.6000e+001 259216 -3.6105e+005 -4.5871e+006 -1.8749e+005 42954 259138,259190,259164
 8.6000e+001 259319 -6.5730e+005 -1.4221e+006 -2.2281e+004 42116 259241,259293,259267
 8.6000e+001 259422 -6.0315e+005 -7.0535e+006  1.1768e+006 41804 259344,259396,259370
 8.6000e+001 259525 -6.5050e+005 -6.2576e+006  9.7240e+005 41219 259447,259499,259473
 8.6000e+001 259628 -5.5807e+005 -2.8323e+006 -6.1551e+005 385 259550,259602,259576
 8.8000e+001 190120 -1.8545e+005 -2.3421e+006 -3.8642e+005 189630 189993,190045,190019
 8.8000e+001 190097 -6.8869e+005 -1.7695e+006 -2.4511e+005 189630 189993,190071,190045
 8.8000e+001 190319 -1.4666e+006 -4.1908e+006 -3.6374e+005 189312 190169,190221,190195
 8.8000e+001 190296 -6.3911e+005 -3.3909e+006 -1.0643e+006 189312 190169,190247,190221
 8.8000e+001 190273 -9.2018e+005 -2.6618e+006  3.2805e+005 189312 190143,190247,190169
 8.8000e+001 190518 -4.7755e+005  3.0410e+004  7.9709e+003 189124 190368,190446,190420
 8.8000e+001 190495 -5.6298e+005  1.4569e+004 -3.6506e+003 189124 190342,190446,190368
 8.8000e+001 190472 -9.8257e+005 -6.7804e+004 -6.3733e+004 189124 190368,190420,190394
 8.8000e+001 190619 -4.5037e+005 -4.6103e+004 -6.2165e+003 188926 190541,190593,190567
 8.8000e+001 190771 -4.8814e+005 -7.5309e+004  1.3435e+004 188614 190670,190722,190696
 8.8000e+001 190748 -5.5871e+005  1.6479e+005  5.4416e+004 188614 190644,190722,190670
 8.8000e+001 190972 -4.9262e+005 -4.6825e+005 -3.3155e+005 188324 190848,190900,190874
 8.8000e+001 190949 -5.0488e+005 -7.9874e+005 -5.1968e+005 188324 190796,190900,190848
 8.8000e+001 190926 -7.1675e+004 -3.0625e+005 -2.2765e+005 188324 190796,190848,190822
 8.8000e+001 191124 -6.7407e+005 -1.0415e+006 -1.6043e+005 188034 191023,191075,191049
 8.8000e+001 191101 -1.7013e+005 -1.1602e+006 -1.2263e+005 188034 190997,191075,191023
 8.8000e+001 191276 -2.2212e+005 -6.3768e+005 -5.6667e+004 187836 191149,191201,191175
 8.8000e+001 191253 -2.2033e+005 -3.3343e+005  1.1256e+005 187836 191149,191227,191201
 8.8000e+001 191379 -4.5960e+005 -3.3288e+005 -9.9394e+004 187546 191301,191353,191327
 8.8000e+001 191531 -2.3264e+005 -3.1510e+006  2.6741e+005 187256 191430,191482,191456
 8.8000e+001 191508 -1.1394e+006 -4.5594e+006 -1.4115e+006 187256 191404,191482,191430
 8.8000e+001 191634 -7.5102e+005 -2.4772e+003 -1.0924e+004 187058 191556,191608,191582
 8.8000e+001 191835 -5.2733e+005  4.6908e+003 -5.1087e+003 186860 191659,191711,191685
 8.8000e+001 191812 -3.0793e+005 -1.3611e+005  3.3515e+004 186860 191659,191737,191711
 8.8000e+001 191789 -2.5822e+005 -6.7049e+004 -5.8363e+004 186860 191659,191763,191737
 8.8000e+001 191987 -4.8428e+005 -6.7749e+004  6.9924e+004 186662 191886,191938,191912
 8.8000e+001 191964 -2.8584e+005 -1.4240e+005  1.1098e+005 186662 191860,191938,191886
 8.8000e+001 192090 -6.8606e+005 -5.0724e+005  7.4623e+004 186486 192012,192064,192038
 8.8000e+001 192242 -1.2878e+005 -6.4865e+006 -3.3031e+005 186288 192115,192167,192141
 8.8000e+001 192219 -7.9563e+005 -3.8032e+006  8.1656e+004 186288 192115,192193,192167
 8.8000e+001 192394 -2.1305e+004 -5.1305e+006 -3.0736e+005 185935 192293,192345,192319
 8.8000e+001 192371 -4.9142e+005 -3.6104e+006 -6.6247e+005 185935 192267,192345,192293
 8.8000e+001 192546 -4.6097e+005 -3.0254e+006 -5.7077e+005 185675 192419,192471,192445
 8.8000e+001 192523 -9.0648e+005 -1.4869e+006 -6.0580e+005 185675 192419,192497,192471
 8.8000e+001 192649 -7.9655e+005 -1.4205e+006  2.8788e+004 185499 192571,192623,192597
 8.8000e+001 192801 -2.0286e+005 -1.3879e+006  3.0029e+005 185301 192674,192726,192700
 8.8000e+001 192778 -2.2892e+005 -1.4034e+006  3.2579e+005 185301 192674,192752,192726
 8.8000e+001 193002 -8.0186e+004 -5.2535e+005 -3.6645e+005 185046 192852,192930,192878
 8.8000e+001 192979 -3.3800e+005 -1.3791e+006 -1.7590e+005 185046 192826,192930,192852
 8.8000e+001 192956  4.0295e+005 -1.7622e+006 -2.5819e+004 185046 192878,192930,192904
 8.8000e+001 193203  1.6797e+005 -4.3190e+006 -6.7781e+005 184798 193079,193131,193105
 8.8000e+001 193180 -1.0024e+006 -2.8780e+006 -9.3229e+004 184798 193027,193131,193079
 8.8000e+001 193157 -1.8619e+006 -3.1120e+006  1.8640e+005 184798 193027,193079,193053
 8.8000e+001 193404 -2.1492e+005 -4.5661e+006 -1.1000e+006 184600 193254,193306,193280
 8.8000e+001 193381 -4.3136e+005 -1.3624e+006 -1.7817e+005 184600 193254,193332,193306
 8.8000e+001 193358 -8.2820e+005 -3.6168e+005 -3.6066e+005 184600 193228,193332,193254
 8.8000e+001 193556 -5.9390e+005 -5.4950e+005 -5.8668e+005 184402 193429,193481,193455
 8.8000e+001 193533 -6.5220e+005 -5.5630e+005 -5.8159e+005 184402 193429,193507,193481
 8.8000e+001 193708  3.0297e+004 -1.5418e+006  1.6215e+005 184204 193607,193659,193633
 8.8000e+001 193685 -5.6532e+005 -5.3329e+006 -9.5728e+005 184204 193581,193659,193607
 8.8000e+001 193860 -4.7509e+005 -8.5552e+005  5.1667e+005 183908 193759,193811,193785
 8.8000e+001 193837 -9.8468e+004 -1.5103e+006  5.3544e+005 183908 193733,193811,193759
 8.8000e+001 194061 -6.7032e+005 -5.4776e+003  1.2647e+005 183710 193911,193989,193937
 8.8000e+001 194038 -5.3780e+005 -8.4732e+004 -9.9495e+004 183710 193885,193989,193911
 8.8000e+001 194015 -5.2050e+005 -9.8567e+003  5.9620e+004 183710 193937,193989,193963
 8.8000e+001 194262 -8.2215e+005 -2.5321e+006 -6.5523e+005 183420 194086,194164,194112
 8.8000e+001 194239 -7.9143e+005 -2.1370e+006 -2.1908e+005 183420 194086,194190,194164
 8.8000e+001 194216  4.3017e+005 -7.2056e+006  1.5665e+006 183420 194112,194164,194138
 8.8000e+001 194414 -6.3986e+005 -5.3217e+006 -8.3364e+004 183222 194287,194339,194313
 8.8000e+001 194391 -4.1141e+005 -1.0162e+006 -3.1699e+005 183222 194287,194365,194339
 8.8000e+001 194517 -9.2823e+005 -6.7619e+005  5.7935e+004 183024 194439,194491,194465
 8.8000e+001 194718  1.5744e+006 -1.4509e+007  1.5687e+006 182734 194568,194620,194594
 8.8000e+001 194695 -1.1213e+006 -4.0538e+006 -2.9239e+006 182734 194542,194620,194568
 8.8000e+001 194672 -3.0427e+006 -1.9646e+006 -1.4527e+006 182734 194542,194646,194620
 8.8000e+001 194870 -4.7205e+005 -5.6947e+005  3.1529e+005 182444 194769,194821,194795
 8.8000e+001 194847 -5.4136e+005 -1.5831e+006  9.1824e+005 182444 194743,194821,194769
 8.8000e+001 195071 -3.1603e+005 -1.4133e+006  8.6362e+005 182154 194895,194947,194921
 8.8000e+001 195048 -3.5527e+005 -4.5825e+005  2.0549e+005 182154 194895,194999,194947
 8.8000e+001 195025 -3.6586e+005 -1.4250e+005  2.2687e+005 182154 194947,194999,194973
 8.8000e+001 195223 -2.7034e+005 -1.3936e+005 -1.1011e+005 181814 195096,195148,195122
 8.8000e+001 195200 -4.9093e+005 -1.4726e+006 -1.0427e+006 181814 195096,195174,195148
 8.8000e+001 195375 -1.9054e+003 -3.2134e+003 -1.7041e+003 181524 195248,195300,195274
 8.8000e+001 195352  1.0023e+003 -1.5725e+004 -5.8604e+001 181524 195248,195326,195300
 8.8000e+001 195527 -2.0123e+005 -1.6961e+006 -4.6725e+005 181326 195426,195478,195452
 8.8000e+001 195504 -8.6339e+005 -1.2413e+006 -7.0482e+004 181326 195400,195478,195426
 8.8000e+001 195679  4.4343e+004 -9.3500e+006 -3.5670e+005 180936 195578,195630,195604
 8.8000e+001 195656 -6.1770e+005 -3.7354e+006 -2.1971e+005 180936 195552,195630,195578
 8.8000e+001 195831 -4.6034e+005 -3.7781e+005 -1.7912e+005 180646 195704,195756,195730
 8.8000e+001 195808 -7.3417e+005 -2.4683e+004  1.4831e+004 180646 195704,195782,195756
 8.8000e+001 196032 -3.3307e+005 -2.1333e+006  4.4984e+005 180306 195882,195960,195934
 8.8000e+001 196009 -4.6443e+005 -8.4250e+005 -3.3207e+005 180306 195856,195960,195882
 8.8000e+001 195986  3.2720e+004 -2.3465e+006  1.8151e+005 180306 195882,195934,195908
 8.8000e+001 196233 -2.5539e+005 -2.1486e+005 -9.2031e+005 179944 196057,196109,196083
 8.8000e+001 196210 -9.6048e+005 -3.5953e+006  4.5553e+005 179944 196057,196135,196109
 8.8000e+001 196187 -2.0387e+006  4.5667e+006 -1.5116e+006 179944 196057,196161,196135
 8.8000e+001 196385 -5.5825e+005 -6.4317e+005 -3.8947e+005 179604 196258,196310,196284
 8.8000e+001 196362 -8.6090e+005 -1.1059e+006 -1.0463e+006 179604 196258,196336,196310
 8.8000e+001 196586 -7.4976e+005 -4.8092e+005 -5.9848e+005 179114 196410,196488,196436
 8.8000e+001 196563 -6.1399e+005 -1.6306e+006 -5.5527e+005 179114 196410,196514,196488
 8.8000e+001 196540 -4.4542e+003 -4.4091e+005 -4.4119e+004 179114 196436,196488,196462
 8.8000e+001 196738 -7.0761e+005 -1.5796e+006 -6.6255e+005 178674 196611,196663,196637
 8.8000e+001 196715  2.4579e+004 -3.5732e+006 -1.4013e+005 178674 196611,196689,196663
 8.8000e+001 196939  1.7976e+006 -9.0219e+006 -1.2175e+006 178334 196789,196867,196841
 8.8000e+001 196916 -6.5675e+005 -9.5605e+006 -2.5034e+004 178334 196763,196867,196789
 8.8000e+001 196893 -2.1852e+006 -5.7057e+006 -3.8381e+006 178334 196789,196841,196815
 8.8000e+001 197091 -1.2478e+006 -3.9889e+006 -1.2197e+006 177930 196990,197042,197016
 8.8000e+001 197068 -1.6924e+006 -5.6713e+006 -9.8214e+005 177930 196964,197042,196990
 8.8000e+001 197194  3.5162e+002 -3.6172e+001  3.6900e+002 177732 197116,197168,197142
 8.8000e+001 197346 -4.1991e+005 -5.5393e+006  2.4568e+005 177534 197219,197271,197245
 8.8000e+001 197323 -1.8708e+005 -5.9321e+006  4.4463e+005 177534 197219,197297,197271
 8.8000e+001 197547 -1.0613e+006 -6.2843e+006 -2.5267e+006 177130 197397,197449,197423
 8.8000e+001 197524 -2.2456e+006 -7.1416e+006 -1.5209e+006 177130 197397,197475,197449
 8.8000e+001 197501 -1.3655e+006 -1.2041e+007 -2.5024e+006 177130 197371,197475,197397
 8.8000e+001 197748 -7.3577e+005 -5.4454e+006  4.7816e+005 176790 197598,197676,197624
 8.8000e+001 197725 -5.1735e+005 -4.0347e+006  7.0647e+005 176790 197572,197676,197598
 8.8000e+001 197702 -6.8493e+005 -4.5653e+006  5.6401e+005 176790 197624,197676,197650
 8.8000e+001 197900 -2.6647e+005 -2.9541e+006 -4.8336e+005 176300 197773,197825,197799
 8.8000e+001 197877 -3.7254e+004 -4.2988e+006 -3.7103e+005 176300 197773,197851,197825
 8.8000e+001 198052 -1.4548e+006 -4.3300e+006 -1.2593e+006 176010 197925,197977,197951
 8.8000e+001 198029 -5.2786e+005 -7.2266e+006 -2.1981e+006 176010 197925,198003,197977
 8.8000e+001 198204 -1.3414e+006 -6.4581e+006 -2.9292e+006 175670 198103,198155,198129
 8.8000e+001 198181 -1.6994e+006 -3.5709e+006 -6.7464e+005 175670 198077,198155,198103
 8.8000e+001 198405 -4.4148e+005 -3.7200e+006 -7.2278e+005 175266 198255,198307,198281
 8.8000e+001 198382 -1.7791e+005 -5.6931e+006 -2.3900e+006 175266 198229,198307,198255
 8.8000e+001 198359 -1.3323e+006 -5.3625e+006 -2.6281e+006 175266 198229,198333,198307
 8.8000e+001 198606  8.6506e+002 -6.4899e+004  8.8532e+003 174876 198430,198508,198482
 8.8000e+001 198583 -8.6259e+002 -6.3603e+004 -6.7301e+003 174876 198430,198534,198508
 8.8000e+001 198560 -7.2287e+002 -3.7407e+004 -1.0045e+003 174876 198430,198482,198456
 8.8000e+001 198758 -2.9583e+001 -3.5473e+002 -1.1684e+003 174536 198657,198709,198683
 8.8000e+001 198735 -2.5765e+002 -7.8114e+002 -2.6713e+002 174536 198631,198709,198657
 8.8000e+001 199008 -8.4370e+005 -4.9588e+006 -2.7031e+004 174132 198835,198913,198887
 8.8000e+001 198985 -5.2850e+005 -1.9716e+006  2.9229e+005 174132 198809,198913,198835
 8.8000e+001 198962 -4.9418e+005 -2.1798e+006 -1.1426e+006 174132 198783,198913,198809
 8.8000e+001 198939 -3.3056e+005 -5.3390e+006 -1.4174e+004 174132 198835,198887,198861
 8.8000e+001 199160 -1.0377e+006 -2.6533e+006 -5.9852e+005 173842 199059,199111,199085
 8.8000e+001 199137 -3.7925e+005 -1.1620e+006 -8.1954e+004 173842 199033,199111,199059
 8.8000e+001 199361 -6.1625e+005 -4.5002e+006  1.1794e+006 173438 199237,199289,199263
 8.8000e+001 199338 -4.1915e+005 -4.5521e+006  1.2438e+006 173438 199211,199289,199237
 8.8000e+001 199315 -6.1641e+004 -6.6425e+006 -5.3338e+005 173438 199185,199289,199211
 8.8000e+001 199513 -8.9617e+005 -5.8412e+006  1.3609e+005 173190 199386,199438,199412
 8.8000e+001 199490 -1.7476e+006 -6.0667e+006  3.1508e+005 173190 199386,199464,199438
 8.8000e+001 199665 -4.5872e+005 -1.5160e+006  2.4682e+005 172750 199564,199616,199590
 8.8000e+001 199642 -8.8018e+005 -8.4948e+005 -2.4130e+004 172750 199538,199616,199564
 8.8000e+001 199817 -2.9480e+005 -3.4403e+006 -1.1498e+006 172524 199690,199742,199716
 8.8000e+001 199794 -1.7201e+006 -1.0284e+006 -6.2863e+005 172524 199690,199768,199742
 8.8000e+001 199969 -6.8425e+003 -6.0891e+006 -2.1011e+005 172348 199842,199894,199868
 8.8000e+001 199946  3.9710e+005 -6.0057e+006 -1.5295e+004 172348 199842,199920,199894
 8.8000e+001 200121  9.0737e+004 -2.1486e+006 -3.5603e+005 172008 199994,200046,200020
 8.8000e+001 200098 -1.8419e+005 -8.8235e+005 -1.0696e+005 172008 199994,200072,200046
 8.8000e+001 200273 -1.7958e+006 -4.6488e+006 -2.1485e+006 171668 200172,200224,200198
 8.8000e+001 200250 -1.1276e+006 -4.5714e+006 -1.0682e+006 171668 200146,200224,200172
 8.8000e+001 200474  1.4716e+005 -4.2998e+006 -7.0297e+005 171264 200350,200402,200376
 8.8000e+001 200451 -2.2021e+005 -4.7199e+006 -9.4093e+005 171264 200324,200402,200350
 8.8000e+001 200428 -3.2112e+005 -3.1398e+006  1.0039e+006 171264 200298,200402,200324
 8.8000e+001 200626 -9.9964e+005 -4.7464e+006 -7.0622e+005 170832 200525,200577,200551
 8.8000e+001 200603 -2.8515e+005 -2.8165e+006 -1.3088e+005 170832 200499,200577,200525
 8.8000e+001 200827 -6.0108e+004 -2.3060e+006  5.9845e+005 170492 200677,200729,200703
 8.8000e+001 200804 -1.2414e+006 -1.0085e+006 -4.4521e+005 170492 200651,200729,200677
 8.8000e+001 200781 -9.6269e+005 -1.2648e+006 -6.4910e+005 170492 200651,200755,200729
 8.8000e+001 201077 -7.6952e+005 -3.0478e+006 -2.2963e+005 170088 200878,200956,200904
 8.8000e+001 201054 -5.1088e+005 -1.4524e+006 -1.9679e+005 170088 200852,200956,200878
 8.8000e+001 201031 -9.3695e+005 -1.5498e+006  2.4070e+006 170088 200904,200956,200930
 8.8000e+001 201008  1.6670e+005 -1.9730e+006  1.6137e+005 170088 200852,200982,200956
 8.8000e+001 201278  3.5231e+004 -2.0246e+005  4.9697e+004 169798 201102,201154,201128
 8.8000e+001 201255 -4.5045e+005 -2.0807e+006 -9.3302e+004 169798 201102,201206,201154
 8.8000e+001 201232 -2.9850e+005 -9.0160e+005  3.4131e+005 169798 201154,201206,201180
 8.8000e+001 201430 -3.1108e+005 -3.6867e+006 -6.7316e+005 169337 201303,201355,201329
 8.8000e+001 201407 -1.9952e+005 -1.2617e+006 -1.2969e+005 169337 201303,201381,201355
 8.8000e+001 201631 -1.5099e+005 -3.5099e+006  5.8062e+005 168883 201481,201559,201507
 8.8000e+001 201608 -3.8651e+005 -2.7854e+006  1.0137e+006 168883 201455,201559,201481
 8.8000e+001 201585 -9.9340e+004 -2.3048e+006  6.6161e+005 168883 201507,201559,201533
 8.8000e+001 201832  2.8858e+005 -6.5494e+006  4.2083e+005 168479 201682,201734,201708
 8.8000e+001 201809 -2.0587e+006 -4.7736e+006 -1.1437e+006 168479 201656,201734,201682
 8.8000e+001 201786 -1.7454e+006 -3.5409e+006  4.2063e+004 168479 201656,201760,201734
 8.8000e+001 202033 -3.6957e+005 -2.6562e+006  4.0872e+004 167825 201883,201935,201909
 8.8000e+001 202010 -1.8547e+006 -4.0086e+006 -2.4053e+006 167825 201857,201935,201883
 8.8000e+001 201987 -6.0502e+005 -9.9977e+006 -1.4872e+006 167825 201857,201961,201935
 8.8000e+001 202234 -1.7842e+005 -1.2743e+006 -4.2953e+005 167435 202058,202136,202084
 8.8000e+001 202211 -8.0778e+004 -2.2749e+006  6.1597e+005 167435 202058,202162,202136
 8.8000e+001 202188 -6.8913e+004 -6.7312e+005  5.1227e+004 167435 202084,202136,202110
 8.8000e+001 202386  7.7782e+004 -2.4488e+006  3.9423e+005 167002 202285,202337,202311
 8.8000e+001 202363 -4.3991e+005 -6.4131e+005  4.0330e+005 167002 202259,202337,202285
 8.8000e+001 202538 -1.5913e+006 -3.2430e+006 -1.8584e+006 166662 202411,202463,202437
 8.8000e+001 202515 -9.6391e+005 -3.0783e+006 -2.2965e+006 166662 202411,202489,202463
 8.8000e+001 202690  1.0144e+004 -1.9444e+006 -4.5218e+005 166322 202589,202641,202615
 8.8000e+001 202667  8.9377e+004 -1.7151e+006 -2.5965e+005 166322 202563,202641,202589
 8.8000e+001 202891 -8.5470e+004 -8.1140e+005 -2.9692e+004 165918 202715,202767,202741
 8.8000e+001 202868 -1.7215e+005 -1.3203e+006 -3.2635e+005 165918 202715,202793,202767
 8.8000e+001 202845 -5.6365e+005 -1.3310e+006 -2.6656e+005 165918 202715,202819,202793
 8.8000e+001 203092 -1.9047e+005 -2.0089e+006 -3.8762e+005 165628 202916,202968,202942
 8.8000e+001 203069 -4.0354e+004 -3.1270e+006 -2.9334e+005 165628 202916,202994,202968
 8.8000e+001 203046 -4.6853e+005 -2.5884e+006 -7.5063e+005 165628 202916,203020,202994
 8.8000e+001 203293 -3.4221e+006 -1.8598e+006 -2.4733e+006 165266 203143,203195,203169
 8.8000e+001 203270 -1.3539e+006 -4.9206e+006 -5.5324e+005 165266 203143,203221,203195
 8.8000e+001 203247 -8.9575e+005 -5.2498e+006 -9.3992e+005 165266 203117,203221,203143
 8.8000e+001 203445 -2.6565e+005 -1.7212e+006  6.3715e+005 164826 203318,203370,203344
 8.8000e+001 203422 -1.1641e+005 -1.1020e+006 -9.5470e+004 164826 203318,203396,203370
 8.8000e+001 203597 -1.0604e+006 -4.9714e+005 -1.0772e+005 164386 203470,203522,203496
 8.8000e+001 203574 -1.6215e+006 -2.4402e+006 -4.2248e+005 164386 203470,203548,203522
 8.8000e+001 203798 -3.1065e+005  6.0057e+003  8.1349e+002 163996 203622,203674,203648
 8.8000e+001 203775 -7.5176e+005 -5.1478e+003  1.4147e+005 163996 203622,203726,203674
 8.8000e+001 203752 -7.2066e+005 -3.0740e+003 -4.6751e+004 163996 203674,203726,203700
 8.8000e+001 203901 -4.2947e+005 -8.5956e+005  1.1376e+005 163770 203823,203875,203849
 8.8000e+001 204053 -1.5785e+006 -2.9336e+006 -1.1347e+006 163474 203952,204004,203978
 8.8000e+001 204030 -1.3592e+006 -2.8469e+006 -1.0615e+006 163474 203926,204004,203952
 8.8000e+001 204205  1.0391e+005 -8.4040e+005 -4.5408e+005 163034 204104,204156,204130
 8.8000e+001 204182 -5.1240e+005 -1.6315e+006 -1.2456e+006 163034 204078,204156,204104
 8.8000e+001 204357 -4.8587e+004 -6.1161e+003  1.7069e+004 162624 204256,204308,204282
 8.8000e+001 204334 -4.8525e+004 -6.1115e+003  1.7171e+004 162624 204230,204308,204256
 8.8000e+001 204509 -3.0321e+004 -5.7993e+003  1.2009e+004 162200 204382,204434,204408
 8.8000e+001 204486 -2.4354e+004 -1.6938e+004  2.4900e+004 162200 204382,204460,204434
 8.8000e+001 204710 -2.2488e+006 -3.8749e+005  3.1532e+005 161810 204560,204638,204586
 8.8000e+001 204687 -1.4997e+006 -1.3641e+006 -1.0463e+006 161810 204534,204638,204560
 8.8000e+001 204664 -1.9742e+006 -3.1185e+005  6.4571e+005 161810 204586,204638,204612
 8.8000e+001 204862 -6.6298e+005 -7.4608e+005 -3.0455e+005 161406 204735,204787,204761
 8.8000e+001 204839 -1.3416e+005 -1.2373e+006 -1.7804e+005 161406 204735,204813,204787
 8.8000e+001 205014  1.1548e+003 -3.2010e+000 -3.6616e+003 161180 204887,204939,204913
 8.8000e+001 204991  3.1120e+003 -5.2065e+003 -9.7449e+002 161180 204887,204965,204939
 8.8000e+001 205215 -3.1583e+005 -1.5510e+006 -1.6551e+006 160726 205039,205091,205065
 8.8000e+001 205192 -5.9590e+005 -2.7028e+006 -1.5655e+006 160726 205039,205143,205091
 8.8000e+001 205169 -1.6329e+006 -4.1418e+006 -2.3314e+006 160726 205091,205143,205117
 8.8000e+001 205416 -9.2546e+001 -5.2306e+001 -2.5562e+002 160272 205292,205344,205318
 8.8000e+001 205393 -9.6251e+000 -4.5596e+002 -1.9491e+002 160272 205240,205344,205292
 8.8000e+001 205370  5.4939e+000 -4.6250e+001  1.8937e+002 160272 205240,205292,205266
 8.8000e+001 205568  8.7326e+002 -2.5659e+002 -7.6384e+002 159932 205441,205493,205467
 8.8000e+001 205545  1.1233e+003  2.7547e+003 -5.3033e+002 159932 205441,205519,205493
 8.8000e+001 205720 -8.9014e+002  4.9826e+001  7.5503e+002 159542 205593,205645,205619
 8.8000e+001 205697 -1.0442e+003  2.8457e+001  7.9361e+002 159542 205593,205671,205645
 8.8000e+001 205872 -3.2026e+003 -2.0232e+003  3.1767e+003 159252 205745,205797,205771
 8.8000e+001 205849 -3.3987e+003 -2.8499e+003  1.1571e+003 159252 205745,205823,205797
 8.8000e+001 206024 -1.3079e+005 -1.2175e+006  4.1020e+005 159004 205923,205975,205949
 8.8000e+001 206001 -7.6341e+004 -2.0538e+006  5.7660e+005 159004 205897,205975,205923
 8.8000e+001 206127 -4.4686e+006 -3.7700e+006  3.6029e+003 158364 206049,206101,206075
 8.8000e+001 206328 -3.1848e+004 -5.5992e+003  8.9669e+003 157960 206178,206256,206204
 8.8000e+001 206305 -8.7734e+003 -6.9550e+003  4.7874e+003 157960 206152,206256,206178
 8.8000e+001 206282 -2.3775e+004 -7.8014e+003  1.3619e+004 157960 206204,206256,206230
 8.8000e+001 206529 -1.5563e+006 -4.0066e+006  1.0558e+006 157648 206405,206457,206431
 8.8000e+001 206506 -2.5280e+006 -1.0923e+006  9.1008e+005 157648 206379,206457,206405
 8.8000e+001 206483 -2.5952e+006 -7.9079e+005  1.2886e+006 157648 206353,206457,206379
 8.8000e+001 206730 -6.9252e+004 -3.0332e+004  3.8240e+004 157208 206554,206606,206580
 8.8000e+001 206707 -3.5612e+004 -1.8698e+004  2.1468e+004 157208 206554,206632,206606
 8.8000e+001 206684 -1.0122e+005 -3.2322e+004  4.0543e+004 157208 206554,206658,206632
 8.8000e+001 206882 -1.7632e+003  2.5387e+003  3.7818e+002 157010 206755,206807,206781
 8.8000e+001 206859  4.2070e+003 -2.3592e+003  1.9567e+003 157010 206755,206833,206807
 8.8000e+001 207034 -1.7873e+004  2.8684e+004 -4.3047e+002 156620 206907,206959,206933
 8.8000e+001 207011 -4.3876e+003 -1.3744e+005  8.2866e+003 156620 206907,206985,206959
 8.8000e+001 207186 -2.5509e+005 -1.6195e+006 -1.8792e+005 156330 207085,207137,207111
 8.8000e+001 207163 -6.5907e+005 -1.8341e+006 -1.5000e+006 156330 207059,207137,207085
 8.8000e+001 207387 -1.8872e+005 -1.1162e+006 -2.7525e+005 155890 207211,207289,207237
 8.8000e+001 207364 -1.2261e+006 -1.4016e+006 -7.6951e+005 155890 207211,207315,207289
 8.8000e+001 207341 -2.9767e+005 -6.8995e+005 -1.7688e+004 155890 207237,207289,207263
 8.8000e+001 207588 -7.2699e+005 -1.9261e+007  7.4745e+006 155436 207438,207490,207464
 8.8000e+001 207565 -1.3675e+006 -1.3289e+007 -9.4892e+005 155436 207412,207490,207438
 8.8000e+001 207542 -2.6321e+006 -6.3627e+006 -1.1268e+006 155436 207412,207516,207490
 8.8000e+001 207789  1.6762e+006 -2.8171e+007 -1.9435e+006 155260 207639,207691,207665
 8.8000e+001 207766 -3.6439e+006 -8.5130e+006  4.2689e+006 155260 207613,207691,207639
 8.8000e+001 207743 -1.4045e+006 -6.2442e+006 -8.0098e+004 155260 207613,207717,207691
 8.8000e+001 207990 -6.1532e+003 -3.2385e+003  4.6964e+002 154920 207840,207918,207892
 8.8000e+001 207967 -9.3520e+002 -1.9182e+003  7.9783e+002 154920 207814,207918,207840
 8.8000e+001 207944  5.2009e+003 -6.5796e+003  1.6824e+002 154920 207840,207892,207866
 8.8000e+001 208191 -3.0553e+003 -2.2235e+004  5.0001e+003 154630 208015,208093,208041
 8.8000e+001 208168  1.0750e+003 -2.3069e+004 -2.1429e+002 154630 208015,208119,208093
 8.8000e+001 208145 -1.9718e+003 -4.5565e+003 -3.7504e+003 154630 208041,208093,208067
 8.8000e+001 208343  2.1435e+002  2.8029e+003  7.9963e+002 154240 208216,208268,208242
 8.8000e+001 208320 -4.8331e+002  2.9373e+003 -5.3635e+002 154240 208216,208294,208268
 8.8000e+001 208495  2.2557e+005 -2.7333e+006 -1.1277e+006 153950 208394,208446,208420
 8.8000e+001 208472 -1.4419e+005 -6.6530e+005  2.1385e+005 153950 208368,208446,208394
 8.8000e+001 208647 -4.7596e+005 -2.0248e+005  7.7892e+005 153603 208520,208572,208546
 8.8000e+001 208624 -6.9000e+005 -8.0095e+005 -7.5161e+005 153603 208520,208598,208572
 8.8000e+001 208848 -1.1468e+006 -4.7758e+005  1.1373e+005 153149 208698,208776,208724
 8.8000e+001 208825 -2.7542e+006  7.8362e+004  2.1132e+005 153149 208672,208776,208698
 8.8000e+001 208802 -6.2868e+005 -2.8319e+005  4.2208e+005 153149 208724,208776,208750
 8.8000e+001 209000  4.9646e+004 -1.4446e+006 -1.7409e+005 152859 208873,208925,208899
 8.8000e+001 208977 -2.9689e+005 -5.2313e+005 -2.6788e+005 152859 208873,208951,208925
 8.8000e+001 209152 -2.4973e+004 -1.4013e+006 -2.6734e+005 152569 209051,209103,209077
 8.8000e+001 209129 -1.1406e+005 -7.5743e+005  7.5995e+004 152569 209025,209103,209051
 8.8000e+001 209304 -2.3541e+003 -2.4851e+003 -9.6977e+001 152065 209177,209229,209203
 8.8000e+001 209281 -2.5051e+003 -1.8848e+003 -1.0440e+002 152065 209177,209255,209229
 8.8000e+001 209456 -3.4410e+006 -1.6506e+006 -5.0512e+005 151775 209355,209407,209381
 8.8000e+001 209433 -1.7011e+006 -1.0077e+006  5.9372e+005 151775 209329,209407,209355
 8.8000e+001 209608 -8.0747e+005 -3.2023e+006 -7.9921e+005 151371 209481,209533,209507
 8.8000e+001 209585  4.1021e+005 -4.8854e+006 -4.3384e+005 151371 209481,209559,209533
 8.8000e+001 209760 -4.0995e+004  1.0052e+003 -1.7401e+003 150981 209659,209711,209685
 8.8000e+001 209737 -4.2494e+004 -4.2682e+001 -2.8780e+003 150981 209633,209711,209659
 8.8000e+001 209912  2.1437e+006 -2.9148e+007 -2.5988e+006 150619 209811,209863,209837
 8.8000e+001 209889 -2.7183e+006 -1.1992e+007  3.2955e+006 150619 209785,209863,209811
 8.8000e+001 210064 -1.2620e+002 -1.9609e+003  1.0043e+003 150279 209937,209989,209963
 8.8000e+001 210041 -4.8533e+002 -3.0276e+003  1.2819e+003 150279 209937,210015,209989
 8.8000e+001 210265 -2.6291e+006 -4.2643e+006 -2.7615e+005 149989 210115,210167,210141
 8.8000e+001 210242 -1.9451e+006 -5.5537e+006 -1.7483e+006 149989 210115,210193,210167
 8.8000e+001 210219 -7.4067e+005 -3.9393e+006 -8.7222e+005 149989 210089,210193,210115
 8.8000e+001 210417  4.5162e+002 -3.4400e+002 -2.5851e+002 149599 210316,210368,210342
 8.8000e+001 210394  7.0023e+002 -4.3339e+003 -1.4104e+003 149599 210290,210368,210316
 8.8000e+001 210618 -3.3083e+006 -1.2934e+007  3.8411e+006 149095 210468,210520,210494
 8.8000e+001 210595 -2.8318e+006 -1.2713e+007  2.7855e+006 149095 210442,210520,210468
 8.8000e+001 210572 -1.4066e+006 -1.4381e+007  2.4632e+006 149095 210442,210546,210520
 8.8000e+001 210819  1.6339e+002 -5.0026e+002  1.8541e+002 148748 210695,210747,210721
 8.8000e+001 210796  1.2810e+002 -3.7452e+002  2.6699e+001 148748 210669,210747,210695
 8.8000e+001 210773 -3.8730e+002  2.0155e+001  2.2651e+002 148748 210643,210747,210669
 8.8000e+001 210971  3.1429e+002  7.5201e+002 -7.7595e+002 148408 210870,210922,210896
 8.8000e+001 210948  5.9554e+002 -1.1895e+002 -5.3658e+002 148408 210844,210922,210870
 8.8000e+001 211123 -8.5880e+004 -7.7725e+005  2.1659e+005 148118 210996,211048,211022
 8.8000e+001 211100 -2.6746e+005 -7.3853e+005  4.4448e+005 148118 210996,211074,211048
 8.8000e+001 211275 -1.6785e+005 -5.0256e+005  2.2608e+005 147778 211148,211200,211174
 8.8000e+001 211252 -2.9690e+005 -1.0767e+006  6.7215e+005 147778 211148,211226,211200
 8.8000e+001 211427 -2.6777e+004 -1.2199e+005  5.3622e+004 147324 211326,211378,211352
 8.8000e+001 211404 -1.5083e+003 -1.5982e+005  3.5220e+004 147324 211300,211378,211326
 8.8000e+001 211628 -2.3812e+006 -1.3668e+006  1.0025e+006 147012 211452,211504,211478
 8.8000e+001 211605 -2.3386e+006  9.1830e+005  1.4072e+006 147012 211452,211556,211504
 8.8000e+001 211582 -2.2849e+006 -4.2462e+005  1.9006e+006 147012 211504,211556,211530
 8.8000e+001 211829 -1.1972e+005 -5.2256e+005  2.9902e+005 146636 211679,211757,211731
 8.8000e+001 211806 -1.7494e+005 -5.6195e+005  2.7101e+005 146636 211653,211757,211679
 8.8000e+001 211783 -2.8673e+004 -4.4198e+005  2.0295e+005 146636 211679,211731,211705
 8.8000e+001 211981 -1.0062e+003  7.7748e+002 -1.5024e+002 146246 211880,211932,211906
 8.8000e+001 211958 -3.7270e+002 -5.0572e+002  3.3573e+002 146246 211854,211932,211880
 8.8000e+001 212133  4.4270e+002 -1.0609e+002 -4.0964e+002 145956 212006,212058,212032
 8.8000e+001 212110  5.2888e+002 -4.3225e+002 -2.9300e+002 145956 212006,212084,212058
 8.8000e+001 212285 -2.4635e+003  2.9107e+003  1.9296e+002 145544 212184,212236,212210
 8.8000e+001 212262 -2.0954e+003 -2.5090e+002  7.6789e+002 145544 212158,212236,212184
 8.8000e+001 212486 -4.2202e+005 -1.6167e+007  3.7548e+006 144990 212362,212414,212388
 8.8000e+001 212463  2.7197e+005 -1.3120e+007  5.4808e+006 144990 212310,212414,212362
 8.8000e+001 212440 -5.0989e+006 -3.5567e+006  1.7423e+006 144990 212310,212362,212336
 8.8000e+001 212638 -2.8892e+004 -3.7562e+004  1.2747e+004 144600 212537,212589,212563
 8.8000e+001 212615 -1.9738e+004 -1.5821e+004  2.1188e+003 144600 212511,212589,212537
 8.8000e+001 212839 -5.8080e+005 -2.3010e+006  8.6177e+005 144210 212689,212741,212715
 8.8000e+001 212816 -7.5993e+005 -2.5838e+006  1.3049e+006 144210 212663,212741,212689
 8.8000e+001 212793 -7.9717e+005 -2.7200e+006  1.3743e+006 144210 212663,212767,212741
 8.8000e+001 212991 -7.3357e-002 -2.5103e-002  4.2912e-002 143920 212890,212942,212916
 8.8000e+001 212968  1.6366e-001  5.6004e-002 -9.5738e-002 143920 212864,212942,212890
 8.8000e+001 213143 -4.1381e+002  3.3399e+002 -4.9692e+001 143480 213016,213068,213042
 8.8000e+001 213120  9.6030e+001  2.1005e+002  1.1783e+002 143480 213016,213094,213068
 8.8000e+001 213295 -2.1435e+004 -2.2954e+005  7.2423e+004 142990 213194,213246,213220
 8.8000e+001 213272 -1.5187e+003 -1.4995e+005  7.0275e+004 142990 213168,213246,213194
 8.8000e+001 213447  1.5172e+005 -4.0942e+005  2.8390e+005 142600 213320,213372,213346
 8.8000e+001 213424 -2.7422e+005 -5.8676e+005  4.1543e+005 142600 213320,213398,213372
 8.8000e+001 213599 -3.6766e+003 -7.5771e+004  3.0936e+004 142260 213472,213524,213498
 8.8000e+001 213576 -5.2730e+003 -7.5852e+004  1.2735e+004 142260 213472,213550,213524
 8.8000e+001 213751 -9.1243e+001 -7.9284e+002 -3.9880e+002 141870 213624,213676,213650
 8.8000e+001 213728  1.8552e+002 -1.0015e+003  8.4407e+001 141870 213624,213702,213676
 8.8000e+001 213903 -1.7879e+006 -2.0453e+006 -1.9674e+006 141530 213776,213828,213802
 8.8000e+001 213880 -4.8917e+005 -2.4185e+006 -9.5716e+005 141530 213776,213854,213828
 8.8000e+001 214055 -5.4076e+006 -9.0767e+004  6.5561e+005 141218 213928,213980,213954
 8.8000e+001 214032 -3.2736e+006 -6.5575e+005  1.8986e+005 141218 213928,214006,213980
 8.8000e+001 214207 -6.1561e+002 -9.3574e+001 -6.5510e+002 140928 214080,214132,214106
 8.8000e+001 214184 -1.4881e+002 -3.6660e+002  3.0515e+002 140928 214080,214158,214132
 8.8000e+001 214359 -5.2223e+003 -5.0445e+004 -5.9203e+003 140538 214232,214284,214258
 8.8000e+001 214336 -1.1488e+004 -1.0610e+005  5.3107e+004 140538 214232,214310,214284
 8.8000e+001 214560 -7.8324e+005 -5.9786e+006  1.8333e+006 140248 214384,214462,214410
 8.8000e+001 214537 -2.5912e+005 -3.3136e+006  9.3707e+005 140248 214384,214488,214462
 8.8000e+001 214514 -4.9827e+005 -3.6645e+006  1.5169e+005 140248 214410,214462,214436
 8.8000e+001 214712 -4.9879e+004 -8.4247e+004  1.5282e+004 140000 214611,214663,214637
 8.8000e+001 214689 -3.3185e+004 -8.9551e+004  5.3298e+004 140000 214585,214663,214611
 8.8000e+001 214913 -2.6554e+005 -1.9737e+006 -6.4518e+005 139596 214737,214815,214763
 8.8000e+001 214890 -1.5828e+005 -8.7067e+005 -1.8181e+005 139596 214737,214841,214815
 8.8000e+001 214867  9.8688e+005 -7.0134e+006  6.3888e+005 139596 214763,214815,214789
 8.8000e+001 215016  5.0418e+002 -8.9662e+002  5.9960e+002 139420 214938,214990,214964
 8.8000e+001 215168 -3.7262e+006 -9.3205e+006  6.0282e+006 139130 215067,215119,215093
 8.8000e+001 215145 -2.4245e+006 -1.0416e+007  4.2702e+006 139130 215041,215119,215067
 8.8000e+001 215320 -2.4933e+006 -4.0909e+006  2.6170e+006 138790 215219,215271,215245
 8.8000e+001 215297 -2.2553e+006 -1.1059e+007  6.2268e+006 138790 215193,215271,215219
 8.8000e+001 215472 -5.2797e+004 -3.3133e+005  1.5514e+005 138514 215345,215397,215371
 8.8000e+001 215449 -2.1085e+004 -2.7777e+005  1.1090e+005 138514 215345,215423,215397
 8.8000e+001 215624 -3.7462e+005 -6.7130e+006  2.0769e+006 138174 215497,215549,215523
 8.8000e+001 215601 -5.2036e+005 -6.1197e+006  2.0104e+006 138174 215497,215575,215549
 8.8000e+001 215776 -8.8079e+001 -8.1673e+001 -1.3013e+002 137734 215649,215701,215675
 8.8000e+001 215753  1.4671e+001 -7.8531e+001 -7.3746e+001 137734 215649,215727,215701
 8.8000e+001 215977  1.9544e+006 -7.7881e+006  3.3467e+005 137344 215801,215879,215827
 8.8000e+001 215954 -1.0768e+006 -1.4274e+006 -1.1506e+006 137344 215801,215905,215879
 8.8000e+001 215931  7.7824e+004 -1.0762e+007 -5.3070e+006 137344 215827,215879,215853
 8.8000e+001 216129 -2.7304e+005 -4.6020e+005 -2.0696e+003 136940 216028,216080,216054
 8.8000e+001 216106 -2.0076e+005 -8.8178e+005  3.7600e+005 136940 216002,216080,216028
 8.8000e+001 216330 -5.8409e+005 -7.7609e+006  4.2656e+005 136600 216180,216232,216206
 8.8000e+001 216307 -1.7232e+006 -8.1063e+006  4.1787e+006 136600 216154,216232,216180
 8.8000e+001 216284 -7.5897e+005 -4.6602e+006  1.9356e+006 136600 216154,216258,216232
 8.8000e+001 216482  3.7510e+005 -4.4855e+006  1.1775e+006 136260 216381,216433,216407
 8.8000e+001 216459 -4.2021e+005 -2.1719e+006  9.9980e+005 136260 216355,216433,216381
 8.8000e+001 216634 -5.3520e+004 -5.4115e+004  4.5594e+004 135970 216533,216585,216559
 8.8000e+001 216611 -4.0022e+004 -1.3114e+005  8.8303e+004 135970 216507,216585,216533
 8.8000e+001 216835 -2.8273e+005 -3.4861e+006 -8.2043e+004 135608 216685,216763,216711
 8.8000e+001 216812 -1.7032e+005 -3.4434e+006 -4.9571e+004 135608 216659,216763,216685
 8.8000e+001 216789 -1.0653e+004 -2.1289e+006  4.6033e+003 135608 216711,216763,216737
 8.8000e+001 217036 -2.5382e+005 -1.6394e+005  1.1106e+005 135312 216912,216964,216938
 8.8000e+001 217013 -1.8561e+005 -6.8383e+005  4.5436e+005 135312 216886,216964,216912
 8.8000e+001 216990  1.1760e+005 -1.3703e+006  3.1018e+005 135312 216860,216964,216886
 8.8000e+001 217237 -1.8714e+005 -9.5489e+005  3.9115e+005 134908 217061,217139,217113
 8.8000e+001 217214 -3.8915e+005 -1.0510e+006  6.6617e+005 134908 217061,217165,217139
 8.8000e+001 217191 -3.5356e+005 -1.3547e+006  5.9939e+005 134908 217061,217113,217087
 8.8000e+001 217438 -6.2487e+005 -1.0031e+007 -2.3973e+006 134568 217288,217366,217314
 8.8000e+001 217415 -1.4643e+006 -1.0253e+007 -2.6195e+006 134568 217262,217366,217288
 8.8000e+001 217392 -1.2718e+006 -1.3094e+007 -3.3557e+006 134568 217314,217366,217340
 8.8000e+001 217590 -9.4702e+004 -4.0455e+005  2.4426e+005 134106 217463,217515,217489
 8.8000e+001 217567 -7.0494e+004 -3.2753e+005  1.1792e+005 134106 217463,217541,217515
 8.8000e+001 217791 -1.4017e+003 -5.6086e+003 -2.8038e+003 133816 217641,217693,217667
 8.8000e+001 217768 -1.5448e+006 -1.4240e+007 -4.6902e+006 133816 217641,217719,217693
 8.8000e+001 217745 -7.2585e+006 -1.4796e+006  3.2772e+006 133816 217615,217719,217641
 8.8000e+001 217992 -3.8740e+006 -5.0825e+006  5.2402e+006 133355 217842,217920,217894
 8.8000e+001 217969 -2.6656e+006 -7.7782e+006  4.3177e+006 133355 217816,217920,217842
 8.8000e+001 217946 -5.9892e+005 -2.8241e+006  4.5993e+005 133355 217842,217894,217868
 8.8000e+001 218193  7.8917e+004 -6.2988e+006  5.6368e+005 132851 218017,218095,218069
 8.8000e+001 218170 -5.8378e+006 -6.2775e+006  6.3989e+006 132851 218017,218121,218095
 8.8000e+001 218147 -1.5093e+006 -2.8209e+006 -6.8254e+005 132851 218017,218069,218043
 8.8000e+001 218345 -9.2596e+004 -9.8975e+004  7.6682e+004 132511 218244,218296,218270
 8.8000e+001 218322 -7.2986e+004 -2.5306e+005  1.4513e+005 132511 218218,218296,218244
 8.8000e+001 218497  2.5359e+006 -2.2343e+007  1.3648e+006 132235 218396,218448,218422
 8.8000e+001 218474  8.8468e+005 -1.0359e+007  1.7498e+006 132235 218370,218448,218396
 8.8000e+001 218698 -1.0043e+005 -7.7345e+006 -1.8965e+006 131945 218574,218626,218600
 8.8000e+001 218675 -1.0870e+006 -1.1861e+007 -2.0235e+006 131945 218522,218626,218574
 8.8000e+001 218652 -2.5862e+006 -5.7450e+006 -3.1276e+006 131945 218522,218574,218548
 8.8000e+001 218850 -7.0250e+005 -1.3059e+007  1.6478e+006 131655 218723,218775,218749
 8.8000e+001 218827  7.3891e+004 -1.2103e+007  1.0436e+006 131655 218723,218801,218775
 8.8000e+001 218953 -6.3537e+004 -1.2935e+005 -9.1023e+004 131215 218875,218927,218901
 8.8000e+001 219105 -8.2350e+004 -1.7826e+006  1.8682e+004 130875 218978,219030,219004
 8.8000e+001 219082 -4.0657e+003 -8.8513e+005  6.3508e+004 130875 218978,219056,219030
 8.8000e+001 219306 -5.1046e+005 -1.4231e+006  1.8194e+005 130429 219156,219234,219208
 8.8000e+001 219283 -4.0224e+005 -1.0933e+006  2.9738e+005 130429 219130,219234,219156
 8.8000e+001 219260 -1.4410e+006 -1.6654e+006  1.5999e+006 130429 219156,219208,219182
 8.8000e+001 219507 -5.5309e+005 -1.5196e+006  7.4344e+005 130025 219383,219435,219409
 8.8000e+001 219484 -5.2198e+005 -1.8765e+006  9.2421e+005 130025 219331,219435,219383
 8.8000e+001 219461 -5.1134e+005 -1.3208e+006  6.5291e+005 130025 219331,219383,219357
 8.8000e+001 219659 -1.1204e-002 -8.0417e-001  9.4919e-002 129685 219558,219610,219584
 8.8000e+001 219636  2.5788e-002  1.8510e+000 -2.1848e-001 129685 219532,219610,219558
 8.8000e+001 219860 -2.8807e+005 -1.2681e+006  6.7785e+005 129395 219710,219788,219762
 8.8000e+001 219837 -2.8223e+005 -1.4227e+006  6.7387e+005 129395 219684,219788,219710
 8.8000e+001 219814 -2.0616e+005 -1.5658e+006  4.7723e+005 129395 219710,219762,219736
 8.8000e+001 220061 -4.3742e+004 -3.6934e+005 -1.1405e+004 128991 219937,219989,219963
 8.8000e+001 220038 -2.3828e+004 -3.5225e+005  9.6442e+002 128991 219885,219989,219937
 8.8000e+001 220015 -6.9795e+004 -5.4203e+005  3.3043e+004 128991 219885,219937,219911
 8.8000e+001 220262 -9.1233e+004 -1.9936e+005  2.2116e+004 128701 220086,220164,220112
 8.8000e+001 220239 -1.0192e+005 -2.7819e+005  6.6294e+004 128701 220086,220190,220164
 8.8000e+001 220216 -2.3576e+005 -3.5542e+005 -1.4110e+005 128701 220112,220164,220138
 8.8000e+001 220463 -3.6643e+006 -9.7834e+006  4.8511e+006 128297 220339,220391,220365
 8.8000e+001 220440 -2.5230e+006 -1.0820e+007  4.6679e+006 128297 220313,220391,220339
 8.8000e+001 220417 -1.0574e+006 -1.5449e+007 -5.9163e+006 128297 220287,220391,220313
 8.8000e+001 220615 -5.8776e-002 -2.1001e-002 -3.5133e-002 128007 220488,220540,220514
 8.8000e+001 220592  6.3940e-002  2.2846e-002  3.8220e-002 128007 220488,220566,220540
 8.8000e+001 220767 -1.8402e+005 -3.5783e+006  6.3441e+005 127567 220640,220692,220666
 8.8000e+001 220744 -2.9207e+005 -2.4488e+006  5.1178e+005 127567 220640,220718,220692
 8.8000e+001 220919 -6.4157e+005 -1.2811e+007 -1.3285e+006 127163 220792,220844,220818
 8.8000e+001 220896 -1.0143e+006 -1.6499e+007  3.4649e+006 127163 220792,220870,220844
 8.8000e+001 221071 -3.9172e+006 -3.3641e+006  3.3952e+006 126915 220970,221022,220996
 8.8000e+001 221048 -1.9944e+006 -6.7825e+006  2.9645e+006 126915 220944,221022,220970
 8.8000e+001 221272 -2.4549e+006 -5.8808e+006  4.1101e+006 126461 221122,221174,221148
 8.8000e+001 221249  1.0996e+005 -6.3954e+006  1.0871e+006 126461 221122,221200,221174
 8.8000e+001 221226 -1.6638e+006 -3.3327e+006  2.3545e+006 126461 221096,221200,221122
 8.8000e+001 221375  9.1052e+000 -1.5044e+001 -2.2797e-002 126213 221297,221349,221323
 8.8000e+001 221478  2.4102e-070  3.5212e-069  1.6280e-069 125766 221400,221452,221426
 8.8000e+001 221679 -3.7289e+004 -1.2247e+005  2.1712e+004 125212 221503,221555,221529
 8.8000e+001 221656 -2.5956e+004 -2.2004e+005 -3.5140e+004 125212 221503,221581,221555
 8.8000e+001 221633  1.0850e+005 -7.7155e+005  2.4846e+005 125212 221503,221607,221581
 8.8000e+001 221929 -2.9967e+002 -4.6817e+002 -4.6768e+002 124872 221782,221834,221808
 8.8000e+001 221906 -3.1458e+002  8.8419e+001 -3.9305e+002 124872 221756,221834,221782
 8.8000e+001 221883 -1.9837e+002  9.0624e+001 -2.0843e+002 124872 221704,221834,221756
 8.8000e+001 221860  3.4517e+002  1.0504e+003 -7.3874e+002 124872 221704,221756,221730
 8.8000e+001 222130 -8.8238e+005 -5.6260e+006 -1.3553e+005 124582 221980,222058,222006
 8.8000e+001 222107 -2.3993e+006 -4.8176e+006  4.6945e+005 124582 221954,222058,221980
 8.8000e+001 222084 -2.0029e+006 -5.9986e+006 -7.1223e+005 124582 222006,222058,222032
 8.8000e+001 222282 -2.4092e+006 -5.1012e+006 -4.6575e+005 124192 222181,222233,222207
 8.8000e+001 222259 -4.3132e+005 -4.2986e+006  1.2636e+005 124192 222155,222233,222181
 8.8000e+001 222483 -1.1415e+002 -6.5505e+001  2.9554e+001 123702 222333,222385,222359
 8.8000e+001 222460 -2.0637e+002 -1.7667e+002 -7.8987e+001 123702 222333,222411,222385
 8.8000e+001 222437 -1.0291e+002 -9.7753e+001  7.1001e+001 123702 222307,222411,222333
 8.8000e+001 222635  5.7426e+002 -3.9853e+002 -1.4691e+002 123312 222508,222560,222534
 8.8000e+001 222612  1.3151e+002 -1.4114e+002  5.3725e+001 123312 222508,222586,222560
 8.8000e+001 222787 -4.9936e+004 -3.5666e+005  5.6949e+003 122858 222686,222738,222712
 8.8000e+001 222764 -5.2854e+004 -2.9196e+005 -6.0605e+004 122858 222660,222738,222686
 8.8000e+001 222939 -1.5259e+004 -3.5508e+005 -2.0833e+003 122568 222812,222864,222838
 8.8000e+001 222916  2.2172e+004 -2.0193e+005 -7.1192e+003 122568 222812,222890,222864
 8.8000e+001 223091 -4.5547e+000  2.6034e+000  3.6769e+002 122392 222964,223016,222990
 8.8000e+001 223068 -2.1548e+002  9.1899e+001  2.2649e+002 122392 222964,223042,223016
 8.8000e+001 223292 -3.8763e+005 -1.6902e+006  2.1682e+005 121852 223142,223220,223194
 8.8000e+001 223269 -2.4871e+006 -5.9507e+005  4.7450e+005 121852 223116,223220,223142
 8.8000e+001 223246 -1.8603e+006 -1.8785e+006 -7.3505e+005 121852 223142,223194,223168
 8.8000e+001 223493 -4.0501e+005 -5.4469e+005  3.6596e+005 121406 223343,223395,223369
 8.8000e+001 223470 -8.9337e+005 -9.7553e+005  9.2438e+005 121406 223343,223421,223395
 8.8000e+001 223447 -6.0580e+005 -1.1143e+006  7.8344e+005 121406 223317,223421,223343
 8.8000e+001 223645  2.8347e+005 -1.7019e+007  3.2795e+006 121002 223544,223596,223570
 8.8000e+001 223622 -1.6409e+006 -1.2642e+007  3.2134e+006 121002 223518,223596,223544
 8.8000e+001 223846 -9.7130e+004 -2.0046e+006  3.7721e+005 120662 223670,223748,223696
 8.8000e+001 223823  1.8146e+005 -1.1645e+006  1.9287e+005 120662 223670,223774,223748
 8.8000e+001 223800 -2.3567e+005 -7.5849e+005 -3.8987e+005 120662 223696,223748,223722
 8.8000e+001 224047 -3.2012e+005 -8.6315e+005  5.2554e+005 120222 223897,223949,223923
 8.8000e+001 224024  1.6691e+005 -1.5971e+006  1.2706e+005 120222 223871,223949,223897
 8.8000e+001 224001 -1.7520e+005 -1.0075e+006 -2.3480e+005 120222 223871,223975,223949
 8.8000e+001 224248 -6.3703e+003 -5.7988e+004 -3.0546e+004 119875 224124,224176,224150
 8.8000e+001 224225 -1.8316e+004 -6.2305e+004 -3.6132e+004 119875 224098,224176,224124
 8.8000e+001 224202 -1.9573e+003 -3.1750e+004  1.7148e+003 119875 224072,224176,224098
 8.8000e+001 224449  7.8489e+004 -9.2472e+005  1.5134e+005 119677 224325,224377,224351
 8.8000e+001 224426 -9.2933e+004 -1.6113e+006  1.7393e+005 119677 224299,224377,224325
 8.8000e+001 224403 -1.4522e+005 -3.7100e+005  1.0848e+005 119677 224273,224377,224299
 8.8000e+001 224552 -3.9655e+005 -5.6477e+005 -2.4496e+005 119273 224474,224526,224500
 8.8000e+001 224704 -1.3441e+005 -9.3097e+005  3.5270e+005 118983 224603,224655,224629
 8.8000e+001 224681 -1.3821e+005 -9.2325e+005  3.5796e+005 118983 224577,224655,224603
 8.8000e+001 224856 -9.3456e+005 -3.3595e+004  5.2636e+004 118529 224755,224807,224781
 8.8000e+001 224833  1.7637e+005 -1.7130e+006  4.2840e+005 118529 224729,224807,224755
 8.8000e+001 225008 -6.3811e+004 -2.6266e+006 -6.9440e+003 118353 224881,224933,224907
 8.8000e+001 224985  4.9579e+003 -1.0394e+005  2.6150e+003 118353 224881,224959,224933
 8.8000e+001 225209 -1.5102e+006 -6.1839e+006 -1.7882e+006 117949 225059,225137,225111
 8.8000e+001 225186 -2.6750e+005 -4.1115e+006  1.0491e+006 117949 225033,225137,225059
 8.8000e+001 225163  1.0578e+006 -1.3787e+007  2.2364e+006 117949 225059,225111,225085
 8.8000e+001 225410  1.4132e+005 -9.8364e+006  5.7934e+005 117559 225260,225338,225312
 8.8000e+001 225387 -2.8397e+006 -1.0508e+007  6.1676e+005 117559 225234,225338,225260
 8.8000e+001 225364 -7.9869e+005 -7.4355e+006 -2.4364e+006 117559 225260,225312,225286
 8.8000e+001 225611 -2.1086e+006 -1.2705e+007 -4.0957e+006 117361 225461,225513,225487
 8.8000e+001 225588 -3.5381e+006 -1.4208e+007  2.6561e+006 117361 225461,225539,225513
 8.8000e+001 225565 -6.2701e+005 -1.6719e+007  1.1238e+006 117361 225435,225539,225461
 8.8000e+001 225812  6.3966e+005 -1.1987e+007 -1.4311e+005 116900 225636,225714,225662
 8.8000e+001 225789 -3.1649e+006 -3.5439e+006 -1.2808e+006 116900 225636,225740,225714
 8.8000e+001 225766 -5.8832e+002 -1.2145e+007  3.4441e+004 116900 225662,225714,225688
 8.8000e+001 225964  1.9893e+004 -9.0183e+006  7.1300e+004 116560 225837,225889,225863
 8.8000e+001 225941  4.1110e+005 -9.4343e+006  8.2093e+004 116560 225837,225915,225889
 8.8000e+001 226165  9.5022e+004 -1.9928e+006  8.1373e+005 116106 226015,226093,226041
 8.8000e+001 226142 -1.7787e+005 -8.8904e+005 -4.0260e+005 116106 225989,226093,226015
 8.8000e+001 226119 -5.5213e+004 -2.2155e+006  3.4895e+005 116106 226041,226093,226067
 8.8000e+001 226268 -1.8756e+006 -5.3792e+006  1.8004e+006 115716 226190,226242,226216
 8.8000e+001 226420 -1.6737e+005 -1.4832e+007  2.4377e+006 115376 226293,226345,226319
 8.8000e+001 226397 -6.2190e+005 -1.6234e+007  4.9041e+006 115376 226293,226371,226345
 8.8000e+001 226621 -1.0212e+006 -3.1137e+006  6.5933e+005 114972 226497,226549,226523
 8.8000e+001 226598 -6.3578e+005 -1.6602e+007 -4.2816e+005 114972 226445,226549,226497
 8.8000e+001 226575  5.5093e+005 -7.9498e+006  1.0728e+006 114972 226445,226497,226471
 8.8000e+001 226773 -1.2275e+006 -5.5594e+006 -1.8959e+006 114670 226646,226698,226672
 8.8000e+001 226750  7.7990e+005 -1.1568e+007  1.2445e+006 114670 226646,226724,226698
 8.8000e+001 226974  6.1072e+004 -4.3818e+006  7.9939e+004 114082 226798,226850,226824
 8.8000e+001 226951  1.5396e+005 -4.5259e+006  1.1340e+005 114082 226798,226902,226850
 8.8000e+001 226928 -3.3794e+005 -6.9865e+006  5.3847e+004 114082 226850,226902,226876
 8.8000e+001 227175 -8.2081e+005 -7.7515e+006 -3.2938e+006 113678 226999,227051,227025
 8.8000e+001 227152 -1.7375e+006 -1.0765e+007 -4.1125e+006 113678 226999,227077,227051
 8.8000e+001 227129 -3.2624e+006 -5.3109e+006 -3.3129e+006 113678 226999,227103,227077
 8.8000e+001 227425 -3.9314e+006 -7.7321e+006 -7.2433e+006 113274 227226,227278,227252
 8.8000e+001 227402  8.2728e+004 -7.4137e+006 -1.2677e+006 113274 227226,227330,227278
 8.8000e+001 227379 -2.8106e+006 -2.5316e+006 -6.4314e+005 113274 227200,227330,227226
 8.8000e+001 227356 -1.3402e+006 -4.4930e+005 -7.7619e+005 113274 227278,227330,227304
 8.8000e+001 227626 -1.8230e+006 -4.6649e+006 -3.3592e+006 112934 227502,227554,227528
 8.8000e+001 227603  8.7884e+005 -4.3607e+006 -4.3194e+005 112934 227450,227554,227502
 8.8000e+001 227580 -1.7810e+006 -1.6153e+006  1.4224e+006 112934 227450,227502,227476
 8.8000e+001 227876 -2.7212e+005 -1.5925e+006 -2.7880e+005 112437 227677,227755,227703
 8.8000e+001 227853 -1.2416e+006 -1.9043e+006  1.5312e+006 112437 227677,227781,227755
 8.8000e+001 227830 -2.5607e+005 -5.3488e+005  2.9556e+005 112437 227703,227755,227729
 8.8000e+001 227807  7.9203e+005 -9.7368e+006 -6.8884e+005 112437 227651,227781,227677
 8.8000e+001 228126 -2.7319e+005 -4.6605e+006 -5.6520e+005 112041 227927,228005,227953
 8.8000e+001 228103 -4.9817e+005 -4.7195e+006 -6.1913e+005 112041 227927,228031,228005
 8.8000e+001 228080 -5.3812e+004 -5.6273e+006 -4.3121e+005 112041 227953,228005,227979
 8.8000e+001 228057 -1.0590e+006 -3.7101e+006 -9.9512e+005 112041 227901,228031,227927
 8.8000e+001 228327 -2.9445e+006 -4.0102e+006  1.2158e+005 111693 228151,228203,228177
 8.8000e+001 228304 -6.1297e+005 -3.0301e+006 -1.3598e+006 111693 228151,228229,228203
 8.8000e+001 228281  4.7041e+005 -6.4829e+006  1.1860e+006 111693 228151,228255,228229
 8.8000e+001 228479 -1.6526e+002  3.4908e+002  1.4669e+002 111253 228352,228404,228378
 8.8000e+001 228456 -2.5159e+002 -2.8635e+002  4.3614e+002 111253 228352,228430,228404
 8.8000e+001 228582 -2.2089e-106  4.3603e-106 -9.9846e-106 110906 228504,228556,228530
 8.8000e+001 228783  6.1553e+004 -8.0389e+005 -1.0245e+005 110416 228633,228711,228659
 8.8000e+001 228760 -3.4042e+004 -1.2689e+006 -6.3746e+004 110416 228607,228711,228633
 8.8000e+001 228737  7.7876e+004 -1.8012e+006 -1.0909e+005 110416 228659,228711,228685
 8.8000e+001 228935 -5.0543e+005 -3.9840e+006 -1.8375e+006 110012 228808,228860,228834
 8.8000e+001 228912 -2.0300e+006 -7.5174e+006 -3.0124e+006 110012 228808,228886,228860
 8.8000e+001 229087 -2.7422e+006 -2.9875e+006 -2.1898e+006 109672 228960,229012,228986
 8.8000e+001 229064  5.1398e+005 -6.9671e+006 -1.3544e+006 109672 228960,229038,229012
 8.8000e+001 229190  1.1928e-107  1.9785e-106  7.0500e-106 109332 229112,229164,229138
 8.8000e+001 229391 -1.1376e+002  4.4068e+001  3.0329e+001 109156 229267,229319,229293
 8.8000e+001 229368 -1.6762e+002  1.8807e+002 -6.2697e+001 109156 229215,229319,229267
 8.8000e+001 229345 -2.5423e+002  5.6729e+001  8.6864e+001 109156 229215,229267,229241
 8.8000e+001 229543  8.3374e+005 -8.9431e+006  1.1485e+006 108752 229416,229468,229442
 8.8000e+001 229520 -4.5182e+005 -3.9949e+006 -5.1151e+005 108752 229416,229494,229468
 8.8000e+001 229744 -2.7050e+005 -5.2168e+006 -9.6988e+003 108198 229594,229646,229620
 8.8000e+001 229721 -5.0830e+002 -5.1417e+006 -1.1910e+005 108198 229594,229672,229646
 8.8000e+001 229698 -4.8569e+005 -5.2454e+006 -2.2312e+005 108198 229568,229672,229594
 8.8000e+001 229847 -2.3826e+002  8.3686e+002 -1.2095e+001 107758 229769,229821,229795
 8.8000e+001 230048 -8.5838e+005 -2.8854e+006 -7.9127e+005 107468 229898,229950,229924
 8.8000e+001 230025 -5.2894e+005 -2.1766e+006  5.0496e+005 107468 229872,229950,229898
 8.8000e+001 230002 -8.8482e+005 -1.4019e+006 -2.0938e+005 107468 229872,229976,229950
 8.8000e+001 230298  2.3353e+005 -1.3576e+006  8.7313e+005 107121 230099,230203,230177
 8.8000e+001 230275 -4.5880e+005 -7.9496e+005  3.5038e+005 107121 230073,230203,230099
 8.8000e+001 230252  8.2351e+005 -2.0931e+006 -7.3109e+005 107121 230099,230177,230151
 8.8000e+001 230229 -2.7966e+005 -2.1853e+006 -7.8193e+005 107121 230099,230151,230125
 8.8000e+001 230450 -3.8338e+005 -3.9676e+005  1.5289e+005 106823 230349,230401,230375
 8.8000e+001 230427 -7.1197e+004 -1.0559e+006  6.8159e+004 106823 230323,230401,230349
 8.8000e+001 230602 -5.6031e+006 -7.1003e+006 -8.8812e+006 106533 230501,230553,230527
 8.8000e+001 230579  3.3256e+006 -1.5693e+007  5.0584e+006 106533 230475,230553,230501
 8.8000e+001 230803 -7.1662e+004 -1.3544e+006 -1.2426e+005 106029 230679,230731,230705
 8.8000e+001 230780  7.3449e+004 -7.4381e+005 -4.9520e+004 106029 230653,230731,230679
 8.8000e+001 230757  3.8477e+004 -1.6493e+006 -1.7658e+005 106029 230627,230731,230653
 8.8000e+001 231004 -1.8609e+005 -3.6319e+006  3.1505e+005 105689 230854,230906,230880
 8.8000e+001 230981  2.4434e+005 -4.0696e+006 -2.0245e+005 105689 230828,230906,230854
 8.8000e+001 230958 -7.1336e+005 -2.6488e+006 -1.3369e+006 105689 230828,230932,230906
 8.8000e+001 231156  2.5117e+005 -6.9292e+006 -2.7061e+005 105377 231055,231107,231081
 8.8000e+001 231133 -3.2465e+005 -4.5630e+006  3.8030e+005 105377 231029,231107,231055
 8.8000e+001 231406 -1.1190e+006 -6.9692e+006 -1.2012e+006 104858 231207,231259,231233
 8.8000e+001 231383 -1.6845e+006 -6.7000e+006 -1.7269e+006 104858 231207,231311,231259
 8.8000e+001 231360 -1.0460e+006 -8.0834e+006 -2.3361e+006 104858 231259,231311,231285
 8.8000e+001 231337 -9.9923e+005 -8.0216e+006 -1.9825e+006 104858 231181,231311,231207
 8.8000e+001 231558 -7.4013e+005 -1.8323e+007  7.0509e+005 104418 231457,231509,231483
 8.8000e+001 231535 -5.9903e+006 -1.8677e+007 -1.0377e+007 104418 231431,231509,231457
 8.8000e+001 231710 -3.3763e+006 -3.9599e+005  1.0924e+005 103978 231583,231635,231609
 8.8000e+001 231687 -1.9126e+006 -7.4641e+005 -6.9138e+005 103978 231583,231661,231635
 8.8000e+001 231862 -1.5446e+006 -8.7418e+006 -1.0316e+006 103588 231761,231813,231787
 8.8000e+001 231839  8.6576e+004 -2.6665e+006 -3.3704e+005 103588 231735,231813,231761
 8.8000e+001 232014 -1.0891e+006 -7.5613e+006 -3.3127e+006 103248 231887,231939,231913
 8.8000e+001 231991 -2.4174e+006 -1.2157e+007 -4.9999e+006 103248 231887,231965,231939
 8.8000e+001 232215 -2.1139e+004 -2.0985e+004 -3.6002e+003 102844 232039,232117,232065
 8.8000e+001 232192 -1.7133e+004 -3.5413e+003 -4.3268e+003 102844 232039,232143,232117
 8.8000e+001 232169 -5.2730e+004 -2.2669e+004 -1.7474e+003 102844 232065,232117,232091
 8.8000e+001 232416 -2.8691e+006 -7.2726e+006 -3.6745e+006 102554 232240,232318,232292
 8.8000e+001 232393  5.8150e+005 -1.2356e+007 -5.7225e+005 102554 232240,232344,232318
 8.8000e+001 232370 -4.1913e+006 -2.3802e+006 -6.2559e+005 102554 232240,232292,232266
 8.8000e+001 232568 -2.6754e+004 -3.5233e+006  2.6953e+005 102100 232441,232493,232467
 8.8000e+001 232545 -9.8426e+004 -3.5483e+006  2.9869e+005 102100 232441,232519,232493
 8.8000e+001 232769 -2.3231e+005 -2.7170e+006  4.8042e+005 101596 232645,232697,232671
 8.8000e+001 232746  7.1473e+004 -1.6067e+006  2.8427e+005 101596 232593,232697,232645
 8.8000e+001 232723 -1.2341e+004 -2.3283e+006  4.2349e+005 101596 232593,232645,232619
 8.8000e+001 232921 -4.2453e+005 -1.8567e+005  4.1469e+004 101420 232794,232846,232820
 8.8000e+001 232898 -4.6929e+005 -4.0904e+005  5.5372e+004 101420 232794,232872,232846
 8.8000e+001 233073 -1.0749e+006 -2.3479e+006 -7.0554e+005 101023 232946,232998,232972
 8.8000e+001 233050  5.3376e+005 -5.6713e+006  1.9552e+006 101023 232946,233024,232998
 8.8000e+001 233225  1.3861e+003 -3.6011e+004  1.2723e+003 100661 233098,233150,233124
 8.8000e+001 233202 -4.8524e+003  1.2606e+004 -3.4999e+003 100661 233098,233176,233150
 8.8000e+001 233426 -1.3130e+006 -6.5354e+006 -2.2850e+006 100265 233276,233328,233302
 8.8000e+001 233403 -1.0691e+006 -6.0885e+006 -1.1980e+006 100265 233276,233354,233328
 8.8000e+001 233380 -1.1625e+006 -6.1712e+006 -1.2528e+006 100265 233250,233354,233276
 8.8000e+001 233578 -1.2101e+004 -2.5845e+006  1.7489e+005 100032 233451,233503,233477
 8.8000e+001 233555 -1.0383e+005 -2.5253e+006  6.5833e+005 100032 233451,233529,233503
 8.8000e+001 233681 -2.3875e+006 -6.7762e+004 -1.1466e+005 99742 233603,233655,233629
 8.8000e+001 233784 -4.4550e+005 -1.2335e+006  7.2178e+005 99402 233706,233758,233732
 8.8000e+001 233936 -6.4131e+005 -1.2396e+006  7.5540e+005 99062 233835,233887,233861
 8.8000e+001 233913 -6.7691e+005 -1.3522e+006  6.3165e+005 99062 233809,233887,233835
 8.8000e+001 234088 -5.4266e+005 -1.0443e+006  4.8275e+005 98772 233987,234039,234013
 8.8000e+001 234065 -1.7763e+005 -1.0208e+006  3.8412e+005 98772 233961,234039,233987
 8.8000e+001 234240 -4.5263e+003 -9.2761e+004  2.5109e+004 98160 234139,234191,234165
 8.8000e+001 234217 -1.0813e+004 -1.1357e+005  3.0078e+004 98160 234113,234191,234139
 8.8000e+001 234441  1.4836e+002  1.0287e+003  4.0936e+002 97820 234317,234369,234343
 8.8000e+001 234418  5.7884e+001  4.9595e+002  1.9401e+002 97820 234291,234369,234317
 8.8000e+001 234395  3.5898e+002  8.9101e+002  4.0496e+002 97820 234265,234369,234291
 8.8000e+001 234593 -6.4390e+004 -2.3125e+005  7.2732e+004 97366 234466,234518,234492
 8.8000e+001 234570 -1.6134e+005 -3.2950e+005  1.3715e+005 97366 234466,234544,234518
 8.8000e+001 234794 -3.4827e+005 -3.3902e+005 -2.0113e+005 96976 234618,234670,234644
 8.8000e+001 234771 -1.0481e+005 -6.5827e+005 -1.8766e+005 96976 234618,234722,234670
 8.8000e+001 234748 -1.1574e+005 -7.3615e+005 -1.8018e+005 96976 234670,234722,234696
 8.8000e+001 234946 -5.1473e+005 -2.5819e+005  2.9903e+005 96568 234845,234897,234871
 8.8000e+001 234923 -4.5445e+005 -4.3129e+005  6.3659e+005 96568 234819,234897,234845
 8.8000e+001 235196 -7.0158e+004 -5.1872e+005 -3.0541e+003 96216 234997,235075,235049
 8.8000e+001 235173 -3.2644e+004 -1.1729e+006  2.6592e+005 96216 234997,235101,235075
 8.8000e+001 235150 -3.1936e+005 -1.0876e+006  2.4174e+005 96216 234997,235049,235023
 8.8000e+001 235127 -4.1993e+004 -1.1946e+006  2.2426e+005 96216 234971,235101,234997
 8.8000e+001 235348 -1.1720e+006 -1.7205e+006 -5.5655e+005 95863 235247,235299,235273
 8.8000e+001 235325 -1.1364e+006 -1.3339e+006 -6.1500e+005 95863 235221,235299,235247
 8.8000e+001 235500 -7.9744e+004 -6.4472e+005  1.1809e+005 95339 235373,235425,235399
 8.8000e+001 235477 -2.6208e+005 -8.3469e+005  9.7512e+005 95339 235373,235451,235425
 8.8000e+001 235701  3.2178e+004 -1.4299e+006  3.7556e+005 95023 235525,235577,235551
 8.8000e+001 235678 -1.5360e+004 -1.0199e+006  3.5933e+004 95023 235525,235629,235577
 8.8000e+001 235655  2.5554e+004 -1.2517e+006  7.0568e+004 95023 235577,235629,235603
 8.8000e+001 235853 -6.4903e+003 -1.2496e+007 -5.2553e+005 94671 235726,235778,235752
 8.8000e+001 235830  2.5105e+005 -1.3865e+007  5.0178e+005 94671 235726,235804,235778
 8.8000e+001 236005 -2.3587e+006 -6.2135e+006  1.3399e+006 94261 235904,235956,235930
 8.8000e+001 235982 -1.1451e+006 -1.1417e+007 -3.8356e+006 94261 235878,235956,235904
 8.8000e+001 236206 -2.1751e+006 -6.0902e+005  8.0407e+005 93853 236056,236134,236082
 8.8000e+001 236183 -2.3713e+006 -6.6841e+005  5.8420e+005 93853 236030,236134,236056
 8.8000e+001 236160 -1.5696e+006 -8.2712e+005  9.6430e+005 93853 236082,236134,236108
 8.8000e+001 236407 -1.4769e+006 -3.1355e+006  6.7971e+005 93557 236257,236309,236283
 8.8000e+001 236384 -2.6089e+006 -4.0434e+006 -2.3723e+006 93557 236231,236309,236257
 8.8000e+001 236361  1.5292e+006 -1.8182e+007  2.1448e+006 93557 236231,236335,236309
 8.8000e+001 236559 -2.4798e+003 -1.8084e+004  5.6259e+003 93149 236432,236484,236458
 8.8000e+001 236536 -2.0355e+003 -1.5174e+004  4.2662e+003 93149 236432,236510,236484
 8.8000e+001 236711 -8.5694e+004 -1.0584e+005  8.7101e+004 92853 236584,236636,236610
 8.8000e+001 236688 -9.0312e+004 -8.6694e+004  8.4740e+004 92853 236584,236662,236636
 8.8000e+001 236912 -2.0171e+005 -6.4405e+005  3.2373e+005 92501 236736,236788,236762
 8.8000e+001 236889 -3.1298e+005 -4.0686e+005  2.0040e+005 92501 236736,236840,236788
 8.8000e+001 236866 -3.1173e+005 -5.6066e+005  9.6992e+004 92501 236788,236840,236814
 8.8000e+001 237113 -6.1353e+004 -3.4915e+006  1.1939e+005 92291 236963,237041,237015
 8.8000e+001 237090  1.7932e+005 -1.9936e+006  1.0700e+005 92291 236937,237041,236963
 8.8000e+001 237067 -1.6165e+005 -3.1758e+006  7.1236e+005 92291 236963,237015,236989
 8.8000e+001 237265  4.4370e+004 -1.4658e+005 -2.4832e+005 91871 237138,237190,237164
 8.8000e+001 237242 -1.0678e+005 -7.1873e+005 -3.3096e+005 91871 237138,237216,237190
 8.8000e+001 237368 -5.2950e+004 -1.7822e+006 -1.6330e+005 91581 237290,237342,237316
 8.8000e+001 237520 -4.9448e+004 -1.1890e+005  7.9716e+004 91184 237419,237471,237445
 8.8000e+001 237497 -1.6801e+004 -6.5536e+004  1.2503e+005 91184 237393,237471,237419
 8.8000e+001 237672 -2.2802e+005 -6.2892e+005 -5.4583e+004 90894 237545,237597,237571
 8.8000e+001 237649 -2.5889e+004 -1.5711e+006  3.6774e+005 90894 237545,237623,237597
 8.8000e+001 237873 -2.3635e+005 -1.7777e+006  7.2717e+005 90490 237749,237801,237775
 8.8000e+001 237850 -1.1115e+005 -2.5012e+006  8.8404e+005 90490 237723,237801,237749
 8.8000e+001 237827 -4.7901e+005 -2.5885e+006  4.8141e+005 90490 237697,237801,237723
 8.8000e+001 238074 -5.2197e+005 -4.2100e+006  1.8871e+005 90100 237898,237976,237950
 8.8000e+001 238051 -1.9180e+006 -4.1704e+006 -2.6280e+005 90100 237898,238002,237976
 8.8000e+001 238028 -7.9065e+005 -1.7099e+006  4.4531e+005 90100 237898,237950,237924
 8.8000e+001 238275 -4.7063e+004 -3.5022e+005  1.0060e+005 89696 238125,238177,238151
 8.8000e+001 238252 -4.2705e+005 -1.9976e+005 -3.0399e+005 89696 238099,238177,238125
 8.8000e+001 238229 -3.6519e+005 -1.0707e+006 -2.8753e+005 89696 238099,238203,238177
 8.8000e+001 238427 -6.8329e+003 -2.2224e+003  3.9678e+003 89206 238326,238378,238352
 8.8000e+001 238404 -4.7148e+003 -4.5466e+003  5.2273e+003 89206 238300,238378,238326
 8.8000e+001 238579 -6.4346e+004 -7.4399e+005 -1.3888e+004 88908 238452,238504,238478
 8.8000e+001 238556 -6.5948e+004 -7.5036e+005 -1.2469e+003 88908 238452,238530,238504
 8.8000e+001 238682 -1.3351e+002  6.4856e+001 -3.9927e+001 88568 238604,238656,238630
 8.8000e+001 238883 -3.4865e+005 -3.3246e+006  1.3991e+006 88278 238733,238811,238785
 8.8000e+001 238860 -5.7793e+005 -2.4733e+006  1.3789e+006 88278 238707,238811,238733
 8.8000e+001 238837 -1.1676e+005 -3.6129e+006  6.4804e+005 88278 238733,238785,238759
 8.8000e+001 239035 -2.4302e+006 -3.8693e+006 -7.3924e+005 87988 238908,238960,238934
 8.8000e+001 239012 -2.6011e+006 -1.9451e+006 -7.8179e+004 87988 238908,238986,238960
 8.8000e+001 239138 -6.9959e+005 -8.0479e+005 -3.9896e+005 87648 239060,239112,239086
 8.8000e+001 239339 -3.9758e+006 -3.3084e+006 -3.2157e+006 87358 239163,239215,239189
 8.8000e+001 239316 -3.9550e+006 -1.0348e+006 -3.6224e+005 87358 239163,239241,239215
 8.8000e+001 239293 -1.2654e+006 -1.2027e+006 -9.0108e+005 87358 239163,239267,239241
 8.8000e+001 239589  4.4832e+003 -2.1695e+005  3.2684e+004 86961 239390,239468,239416
 8.8000e+001 239566 -3.5608e+003 -1.3107e+005  1.7968e+005 86961 239390,239494,239468
 8.8000e+001 239543  6.9786e+002 -3.4011e+004  2.5080e+004 86961 239416,239468,239442
 8.8000e+001 239520 -2.6826e+005 -5.4314e+003  1.3741e+005 86961 239364,239494,239390
 8.8000e+001 239741 -1.2205e+006 -8.9944e+005  4.2032e+004 86621 239640,239692,239666
 8.8000e+001 239718 -4.5691e+005 -2.6030e+006 -1.1407e+006 86621 239614,239692,239640
 8.8000e+001 239893 -6.8480e+005 -2.5512e+006  8.9580e+005 86217 239792,239844,239818
 8.8000e+001 239870 -5.5732e+005 -3.7507e+006  1.4555e+006 86217 239766,239844,239792
 8.8000e+001 240045 -8.4445e+005 -2.8013e+006  9.7305e+005 85827 239918,239970,239944
 8.8000e+001 240022 -2.7049e+005 -2.6270e+006  2.0034e+005 85827 239918,239996,239970
 8.8000e+001 240197 -9.9298e+005 -4.3754e+006  6.6001e+005 85437 240096,240148,240122
 8.8000e+001 240174 -8.9503e+005 -7.3838e+005  4.2752e+005 85437 240070,240148,240096
 8.8000e+001 240349  1.7222e+004 -2.1264e+005  4.8542e+004 85147 240222,240274,240248
 8.8000e+001 240326 -1.2104e+004 -1.4690e+005 -2.3927e+004 85147 240222,240300,240274
 8.8000e+001 240501 -6.6697e+004 -3.9245e+005 -5.1964e+004 84807 240374,240426,240400
 8.8000e+001 240478 -2.8157e+005 -1.0400e+006  6.1995e+005 84807 240374,240452,240426
 8.8000e+001 240653  2.2324e+002  3.0242e+002 -2.2820e+002 84303 240552,240604,240578
 8.8000e+001 240630  3.5521e+002  3.2589e+002  3.3888e+001 84303 240526,240604,240552
 8.8000e+001 240854 -1.1497e+006 -9.1393e+006 -5.1157e+006 83929 240704,240756,240730
 8.8000e+001 240831  1.4255e+006 -6.7758e+006  2.5761e+006 83929 240704,240782,240756
 8.8000e+001 240808 -3.2288e+006  2.5022e+006  2.6785e+006 83929 240678,240782,240704
 8.8000e+001 241055 -5.1765e+003 -3.4137e+003  5.1438e+003 83539 240879,240957,240931
 8.8000e+001 241032 -7.3294e+004 -5.2709e+004  6.1749e+004 83539 240879,240983,240957
 8.8000e+001 241009 -1.8019e+004 -1.2702e+004  1.2482e+004 83539 240879,240931,240905
 8.8000e+001 241207 -2.4115e+004 -1.6333e+005  1.7617e+004 83079 241106,241158,241132
 8.8000e+001 241184  2.2489e+004 -2.1094e+005  3.5425e+004 83079 241080,241158,241106
 8.8000e+001 241408 -4.7556e+005 -6.8428e+005 -9.9552e+005 82665 241232,241284,241258
 8.8000e+001 241385 -1.7079e+005  1.6385e+006 -2.7584e+006 82665 241232,241336,241284
 8.8000e+001 241362 -2.8001e+006 -1.1664e+007  4.7349e+006 82665 241284,241336,241310
 8.8000e+001 241658 -2.7633e+005 -3.9979e+006  5.2375e+005 82375 241485,241563,241511
 8.8000e+001 241635 -3.3444e+004 -2.4065e+006  2.9837e+005 82375 241433,241563,241485
 8.8000e+001 241612 -1.2596e+005 -2.8020e+006  2.9155e+005 82375 241433,241485,241459
 8.8000e+001 241589 -6.7648e+005 -4.5015e+006  7.9118e+005 82375 241511,241563,241537
 8.8000e+001 241810 -6.9699e+005 -8.0898e+005 -4.7966e+005 82035 241683,241735,241709
 8.8000e+001 241787 -3.8810e+005 -1.5518e+006  5.7113e+005 82035 241683,241761,241735
 8.8000e+001 241962 -7.4216e+005 -1.8051e+006  5.8436e+005 81695 241861,241913,241887
 8.8000e+001 241939 -4.1179e+005 -2.4892e+006 -6.7734e+005 81695 241835,241913,241861
 8.8000e+001 242114 -9.4473e+005 -4.1472e+006  1.1225e+006 81355 242013,242065,242039
 8.8000e+001 242091 -3.0517e+005 -1.9537e+006  6.0278e+005 81355 241987,242065,242013
 8.8000e+001 242266 -7.2649e+002 -2.2473e+005  1.4805e+004 80951 242139,242191,242165
 8.8000e+001 242243 -1.2645e+003 -2.2690e+005  1.4926e+004 80951 242139,242217,242191
 8.8000e+001 242467 -4.4268e+005 -5.1243e+006  6.4346e+005 80311 242291,242369,242343
 8.8000e+001 242444  1.6954e+005 -2.6025e+006  4.7629e+005 80311 242291,242395,242369
 8.8000e+001 242421 -2.0611e+005 -1.2678e+006  2.4553e+005 80311 242291,242343,242317
 8.8000e+001 242619 -1.6347e+006 -2.6152e+006  3.9738e+005 80021 242492,242544,242518
 8.8000e+001 242596 -1.5837e+006 -2.4186e+006  1.6278e+006 80021 242492,242570,242544
 8.8000e+001 242869 -2.9217e+004 -1.5568e+004 -2.3537e+004 79631 242644,242722,242696
 8.8000e+001 242846 -2.1121e+004 -2.5731e+005  4.7822e+004 79631 242644,242774,242722
 8.8000e+001 242823  3.1848e+004 -1.1025e+005 -1.0911e+004 79631 242722,242774,242748
 8.8000e+001 242800 -2.1389e+004 -1.3603e+004  1.7313e+004 79631 242644,242696,242670
 8.8000e+001 243070  5.6047e+005 -1.5229e+007  3.5210e+006 79341 242920,242972,242946
 8.8000e+001 243047 -6.2505e+005 -6.7261e+006 -9.1379e+005 79341 242920,242998,242972
 8.8000e+001 243024 -7.3947e+005 -3.7143e+006  1.6573e+006 79341 242894,242998,242920
 8.8000e+001 243222 -3.4598e+005 -2.3621e+006  1.0167e+006 78801 243121,243173,243147
 8.8000e+001 243199 -3.2789e+005 -2.3758e+006  9.1868e+005 78801 243095,243173,243121
 8.8000e+001 243423 -1.0922e+006 -2.0009e+006 -7.6305e+005 78511 243273,243325,243299
 8.8000e+001 243400  8.4483e+005 -4.8757e+006  6.0484e+005 78511 243273,243351,243325
 8.8000e+001 243377 -2.2696e+003 -5.1122e+006  1.0204e+005 78511 243247,243351,243273
 8.8000e+001 243624 -3.4538e+005 -2.8762e+006 -1.0183e+006 78107 243474,243552,243526
 8.8000e+001 243601 -4.9325e+005 -3.4704e+006 -1.0761e+006 78107 243448,243552,243474
 8.8000e+001 243578 -5.6586e+005 -1.9382e+006 -1.4166e+005 78107 243474,243526,243500
 8.8000e+001 243776 -7.1838e+005 -4.6268e+006 -7.8102e+005 77653 243649,243701,243675
 8.8000e+001 243753 -5.5799e+005 -4.6926e+006 -1.0428e+006 77653 243649,243727,243701
 8.8000e+001 243977 -4.6184e+005 -6.2089e+006  4.9377e+004 77093 243801,243853,243827
 8.8000e+001 243954 -9.1628e+004 -5.0515e+006  7.9512e+005 77093 243801,243879,243853
 8.8000e+001 243931 -4.0930e+005 -1.8583e+006 -1.8998e+005 77093 243801,243905,243879
 8.8000e+001 244080 -5.2976e+005 -5.7814e+006  3.0156e+005 76791 244002,244054,244028
 8.8000e+001 244232 -8.0729e+002 -2.6909e+006 -2.4065e+005 76311 244131,244183,244157
 8.8000e+001 244209 -2.0066e+005 -4.3028e+006 -2.9608e+005 76311 244105,244183,244131
 8.8000e+001 244433  5.5617e+005 -1.6141e+007  4.2929e+006 75903 244283,244335,244309
 8.8000e+001 244410 -8.5056e+005 -9.9540e+006 -5.0366e+005 75903 244283,244361,244335
 8.8000e+001 244387 -1.3693e+006 -8.2930e+006  6.4548e+005 75903 244257,244361,244283
 8.8000e+001 244585  3.1560e+005 -1.6017e+007  1.6512e+006 75419 244458,244510,244484
 8.8000e+001 244562 -8.2671e+005 -8.1331e+006 -2.2700e+005 75419 244458,244536,244510
 8.8000e+001 244737 -3.9125e+005 -5.8836e+005 -1.7711e+005 75215 244636,244688,244662
 8.8000e+001 244714 -2.7851e+005 -2.8913e+006 -1.6857e+005 75215 244610,244688,244636
 8.8000e+001 244889 -9.4174e+005 -4.2623e+006 -7.2302e+005 74857 244788,244840,244814
 8.8000e+001 244866 -2.9070e+005 -1.9177e+006 -2.9259e+005 74857 244762,244840,244788
 8.8000e+001 245041 -2.9327e+005 -2.2851e+006 -1.2437e+006 74653 244940,244992,244966
 8.8000e+001 245018 -3.7542e+005 -5.4023e+005  1.0163e+006 74653 244914,244992,244940
 8.8000e+001 245144 -1.1040e+006 -5.0735e+006 -1.2040e+006 74359 245066,245118,245092
 8.8000e+001 245296 -1.2091e+004 -2.8126e+005 -9.2980e+004 74007 245169,245221,245195
 8.8000e+001 245273 -8.3774e+004 -4.8538e+005 -1.4266e+005 74007 245169,245247,245221
 8.8000e+001 245448 -2.7840e+006 -4.9335e+006 -1.1467e+006 73711 245321,245373,245347
 8.8000e+001 245425 -2.7276e+006 -4.9270e+006 -7.9598e+005 73711 245321,245399,245373
 8.8000e+001 245600  1.2807e+006 -1.4148e+007 -1.9993e+006 73301 245499,245551,245525
 8.8000e+001 245577 -1.7686e+006 -8.7637e+006  2.0493e+006 73301 245473,245551,245499
 8.8000e+001 245752 -2.9528e+006 -4.4644e+006 -2.7164e+006 72995 245625,245677,245651
 8.8000e+001 245729  9.0356e+005 -1.6446e+007 -2.3535e+006 72995 245625,245703,245677
 8.8000e+001 245953 -1.4308e+006 -1.4239e+007  8.7827e+005 72585 245777,245829,245803
 8.8000e+001 245930 -6.3892e+005 -1.3930e+007  1.8767e+006 72585 245777,245855,245829
 8.8000e+001 245907 -1.4304e+006 -1.0005e+007  7.8337e+005 72585 245777,245881,245855
 8.8000e+001 246154 -5.2135e+005 -7.6203e+006  1.4632e+006 72127 246030,246082,246056
 8.8000e+001 246131 -1.1478e+006 -8.5782e+006  5.4558e+005 72127 245978,246082,246030
 8.8000e+001 246108 -1.1034e+005 -1.0793e+007  2.6809e+005 72127 245978,246030,246004
 8.8000e+001 246257 -1.5089e+006 -2.4300e+005 -2.1111e+005 71737 246179,246231,246205
 8.8000e+001 246360  8.9179e+004 -3.1548e+006  5.4364e+005 71447 246282,246334,246308
 8.8000e+001 246512 -1.5402e+005 -1.8287e+006  8.2822e+005 71157 246385,246437,246411
 8.8000e+001 246489 -5.9609e+004 -1.3447e+006 -6.0743e+004 71157 246385,246463,246437
 8.8000e+001 246664 -1.8370e+005 -2.0973e+006 -6.3295e+005 70753 246537,246589,246563
 8.8000e+001 246641 -8.1676e+005 -6.7600e+005 -3.5021e+005 70753 246537,246615,246589
 8.8000e+001 246865 -1.6226e+006 -8.1254e+006  4.1262e+006 70249 246715,246767,246741
 8.8000e+001 246842 -3.5391e+006 -8.0302e+006 -3.2634e+003 70249 246715,246793,246767
 8.8000e+001 246819 -2.0050e+005 -1.5673e+007 -4.4852e+006 70249 246689,246793,246715
 8.8000e+001 247066  2.5740e+004 -1.5588e+006  1.7369e+005 70023 246916,246994,246942
 8.8000e+001 247043 -1.2764e+005 -1.1139e+006  3.5946e+005 70023 246890,246994,246916
 8.8000e+001 247020  7.9743e+004 -1.4917e+006  3.2172e+005 70023 246942,246994,246968
 8.8000e+001 247267 -3.7990e+005 -3.5667e+006 -8.2467e+005 69633 247091,247143,247117
 8.8000e+001 247244 -1.6117e+005 -2.7149e+006 -6.8576e+005 69633 247091,247169,247143
 8.8000e+001 247221 -1.8534e+005 -2.2269e+006 -5.6806e+005 69633 247091,247195,247169
 8.8000e+001 247419 -1.0669e+006 -4.4771e+006  3.9253e+005 69457 247318,247370,247344
 8.8000e+001 247396 -1.2023e+006 -1.7234e+006  6.7293e+005 69457 247292,247370,247318
 8.8000e+001 247522 -3.8576e+001 -1.6446e+002 -1.1498e+002 69209 247444,247496,247470
 8.8000e+001 247625 -9.0397e+005 -9.6315e+005 -7.4005e+005 68919 247547,247599,247573
 8.8000e+001 247777  1.0855e+005 -3.2624e+006 -1.6917e+005 68579 247650,247702,247676
 8.8000e+001 247754  1.4414e+005 -6.9041e+005 -2.5784e+005 68579 247650,247728,247702
 8.8000e+001 247929 -1.3420e+005 -4.0478e+006  6.8710e+005 68289 247802,247854,247828
 8.8000e+001 247906 -4.4577e+005 -2.3492e+006 -8.3897e+005 68289 247802,247880,247854
 8.8000e+001 248081 -2.0181e+005 -2.1886e+006  6.9189e+005 67949 247980,248032,248006
 8.8000e+001 248058 -2.8296e+005 -3.4266e+005  3.0153e+004 67949 247954,248032,247980
 8.8000e+001 248233 -1.5497e+006 -5.1315e+006 -7.0541e+005 67616 248132,248184,248158
 8.8000e+001 248210 -7.4009e+005 -4.2028e+006 -1.8732e+005 67616 248106,248184,248132
 8.8000e+001 248434 -6.7568e+004 -2.1843e+006 -1.4803e+005 67212 248284,248336,248310
 8.8000e+001 248411 -3.2367e+005 -2.2108e+006 -3.1415e+004 67212 248258,248336,248284
 8.8000e+001 248388 -8.8293e+005 -6.6594e+005 -4.0503e+005 67212 248258,248362,248336
 8.8000e+001 248586 -3.0657e+005 -3.1529e+006 -3.7209e+005 66872 248485,248537,248511
 8.8000e+001 248563 -2.3647e+005 -1.4297e+006 -4.3597e+005 66872 248459,248537,248485
 8.8000e+001 248738 -4.5968e+005 -5.0399e+006  1.9953e+005 66510 248637,248689,248663
 8.8000e+001 248715 -6.0244e+005 -5.1390e+006  8.0019e+004 66510 248611,248689,248637
 8.8000e+001 248890 -2.9067e+004 -7.5587e+005  1.4740e+005 66220 248789,248841,248815
 8.8000e+001 248867 -4.5703e+004 -9.9264e+005 -3.2732e+005 66220 248763,248841,248789
 8.8000e+001 249091 -1.1730e+006 -7.8450e+006  1.5375e+006 65759 248915,248967,248941
 8.8000e+001 249068 -1.0208e+006 -4.8103e+006  1.9900e+006 65759 248915,248993,248967
 8.8000e+001 249045 -4.3275e+005 -3.5741e+006  3.3406e+005 65759 248915,249019,248993
 8.8000e+001 249243 -5.7369e+004 -6.9337e+006  1.4458e+006 65419 249142,249194,249168
 8.8000e+001 249220  2.2619e+005 -1.3668e+006  2.4875e+005 65419 249116,249194,249142
 8.8000e+001 249395 -2.7113e+005 -2.6856e+006 -7.1658e+005 65079 249268,249320,249294
 8.8000e+001 249372 -4.4893e+005 -3.3490e+006 -6.3524e+005 65079 249268,249346,249320
 8.8000e+001 249547 -1.6694e+006 -7.1372e+006  1.7070e+006 64739 249420,249472,249446
 8.8000e+001 249524 -5.3667e+005 -5.2693e+006 -2.0272e+006 64739 249420,249498,249472
 8.8000e+001 249650 -1.2590e+006 -4.2295e+006 -1.9354e+006 64342 249572,249624,249598
 8.8000e+001 249851 -4.0361e+003 -3.5077e+006 -2.4686e+005 63938 249701,249779,249753
 8.8000e+001 249828 -5.0012e+004 -3.6305e+006  4.1866e+005 63938 249675,249779,249701
 8.8000e+001 249805 -3.4754e+005 -8.9316e+005 -2.0415e+005 63938 249701,249753,249727
 8.8000e+001 250052 -3.1162e+005 -3.0870e+006 -6.7198e+005 63341 249876,249954,249902
 8.8000e+001 250029 -6.8408e+005 -3.3252e+006 -2.9907e+005 63341 249876,249980,249954
 8.8000e+001 250006 -3.2824e+005 -3.9185e+006  6.2374e+003 63341 249902,249954,249928
 8.8000e+001 250253 -6.5519e+005 -4.4289e+005 -2.8071e+004 63058 250077,250129,250103
 8.8000e+001 250230 -2.4031e+006 -2.7055e+006  1.3961e+006 63058 250077,250155,250129
 8.8000e+001 250207 -4.3871e+005 -1.7267e+006  3.9300e+005 63058 250077,250181,250155
 8.8000e+001 250454 -5.4884e+005 -5.3077e+006  4.6561e+005 62832 250304,250382,250330
 8.8000e+001 250431 -9.4369e+003 -6.4762e+006 -1.7842e+006 62832 250278,250382,250304
 8.8000e+001 250408 -1.1357e+006 -3.9742e+006  1.5912e+004 62832 250330,250382,250356
 8.8000e+001 250606 -1.1497e+006 -3.5765e+006 -1.3063e+006 62428 250479,250531,250505
 8.8000e+001 250583 -1.8316e+005 -9.4485e+006 -1.4945e+006 62428 250479,250557,250531
 8.8000e+001 250758 -1.5946e+005 -6.4582e+006  8.5978e+005 62202 250631,250683,250657
 8.8000e+001 250735 -4.2524e+005 -5.8016e+006 -1.8770e+005 62202 250631,250709,250683
 8.8000e+001 250861 -2.0245e+005 -1.9994e+006 -2.0529e+005 61954 250783,250835,250809
 8.8000e+001 251062 -2.7603e+006 -3.1139e+006  3.4104e+005 61557 250912,250990,250938
 8.8000e+001 251039  3.8450e+005 -9.8788e+006 -2.8613e+006 61557 250886,250990,250912
 8.8000e+001 251016 -2.3371e+006 -4.5426e+006 -3.9014e+006 61557 250938,250990,250964
 8.8000e+001 251263 -6.8050e+005 -5.0512e+006 -1.6337e+005 61167 251113,251165,251139
 8.8000e+001 251240 -8.0930e+005 -4.4657e+006 -1.9380e+005 61167 251113,251191,251165
 8.8000e+001 251217 -1.2548e+006 -4.4831e+006  3.1025e+005 61167 251087,251191,251113
 8.8000e+001 251415 -9.2076e+005 -3.3301e+006  1.4209e+006 60827 251288,251340,251314
 8.8000e+001 251392 -2.5775e+005 -1.2983e+006 -2.3115e+005 60827 251288,251366,251340
 8.8000e+001 251567 -1.5656e+005 -2.5629e+006 -4.0327e+004 60487 251466,251518,251492
 8.8000e+001 251544 -5.7114e+005 -2.9169e+006 -6.4972e+005 60487 251440,251518,251466
 8.8000e+001 251719  1.5514e+003 -6.3284e+006 -8.5839e+004 59983 251592,251644,251618
 8.8000e+001 251696 -3.9606e+005 -4.3674e+006 -1.4652e+005 59983 251592,251670,251644
 8.8000e+001 251920 -1.0439e+005 -1.3015e+006 -3.4054e+004 59807 251770,251848,251796
 8.8000e+001 251897 -5.7030e+004 -8.9491e+005 -7.2649e+004 59807 251744,251848,251770
 8.8000e+001 251874 -8.7743e+004 -1.0982e+006  4.5435e+004 59807 251796,251848,251822
 8.8000e+001 252023  5.1689e+005 -3.9201e+006 -1.5771e+005 59517 251945,251997,251971
 8.8000e+001 252175  1.0402e+006 -8.8340e+006 -1.4046e+005 59269 252074,252126,252100
 8.8000e+001 252152 -2.3358e+004 -6.2010e+006  1.9902e+004 59269 252048,252126,252074
 8.8000e+001 252278 -1.0145e+006 -4.7540e+006  6.0218e+005 58979 252200,252252,252226
 8.8000e+001 252381 -2.4667e+006 -1.5180e+006  1.2396e+006 58689 252303,252355,252329
 8.8000e+001 252533 -5.8236e+005 -3.1437e+006 -6.6522e+005 58249 252432,252484,252458
 8.8000e+001 252510 -7.5491e+005 -4.1410e+006 -8.5986e+005 58249 252406,252484,252432
 8.8000e+001 252734  1.2977e+005 -2.3063e+006 -1.2711e+004 57902 252584,252662,252610
 8.8000e+001 252711  1.0567e+005 -3.0883e+006 -4.1303e+005 57902 252558,252662,252584
 8.8000e+001 252688  3.6818e+005 -1.6811e+006  2.5849e+005 57902 252610,252662,252636
 8.8000e+001 252886  2.1501e+005 -5.3175e+006 -3.0131e+005 57540 252785,252837,252811
 8.8000e+001 252863  8.1805e+004 -3.5858e+006  1.7451e+005 57540 252759,252837,252785
 8.8000e+001 253038 -9.4672e+005 -6.0204e+006  1.6114e+006 57086 252937,252989,252963
 8.8000e+001 253015 -2.9084e+005 -1.0205e+006  3.6377e+005 57086 252911,252989,252937
 8.8000e+001 253239 -8.0973e+005 -4.6672e+006 -3.9824e+005 56796 253063,253141,253115
 8.8000e+001 253216 -1.2589e+005 -4.6662e+006 -1.0192e+004 56796 253063,253167,253141
 8.8000e+001 253193 -5.6514e+006 -7.4898e+005  7.9980e+005 56796 253063,253115,253089
 8.8000e+001 253342 -6.3259e+005 -1.1465e+007 -1.3734e+005 56349 253264,253316,253290
 8.8000e+001 253543 -2.8804e+005 -2.5154e+006 -1.1366e+006 56009 253367,253419,253393
 8.8000e+001 253520 -5.7692e+005 -1.1843e+006 -5.9470e+005 56009 253367,253445,253419
 8.8000e+001 253497 -3.8069e+005 -1.1896e+006 -6.1529e+005 56009 253367,253471,253445
 8.8000e+001 253695 -2.7437e+005 -5.0707e+005  3.5676e+005 55733 253594,253646,253620
 8.8000e+001 253672 -4.5487e+005 -2.4124e+005  3.2766e+005 55733 253568,253646,253594
 8.8000e+001 253798 -7.0395e+005 -1.3437e+006 -2.3816e+005 55557 253720,253772,253746
 8.8000e+001 253950 -6.5074e+005 -2.7922e+006 -6.1225e+004 55153 253849,253901,253875
 8.8000e+001 253927 -3.0438e+005 -3.2330e+006 -5.7329e+005 55153 253823,253901,253849
 8.8000e+001 254151 -1.0588e+006 -3.6235e+006  3.1703e+005 54863 253975,254053,254001
 8.8000e+001 254128 -8.9729e+005 -3.3148e+006  1.7840e+005 54863 253975,254079,254053
 8.8000e+001 254105 -1.0855e+006 -4.9847e+006  9.4539e+005 54863 254001,254053,254027
 8.8000e+001 254303 -1.0877e+005 -2.0721e+005  1.5912e+005 54373 254176,254228,254202
 8.8000e+001 254280 -1.2547e+005 -2.6888e+005  1.7748e+005 54373 254176,254254,254228
 8.8000e+001 254455 -7.8503e+004 -4.1522e+006 -4.2001e+005 53975 254354,254406,254380
 8.8000e+001 254432 -2.7348e+005 -9.1339e+005  1.2925e+005 53975 254328,254406,254354
 8.8000e+001 254607 -1.6322e+005 -5.0104e+006 -5.2605e+004 53585 254480,254532,254506
 8.8000e+001 254584 -3.8890e+005 -4.2144e+006 -1.1504e+005 53585 254480,254558,254532
 8.8000e+001 254808 -7.2229e+005 -3.5593e+006  2.3503e+005 53245 254658,254736,254684
 8.8000e+001 254785 -9.2489e+005 -5.0747e+005 -3.9646e+005 53245 254632,254736,254658
 8.8000e+001 254762 -4.0178e+005 -1.4660e+006  3.8028e+005 53245 254684,254736,254710
 8.8000e+001 254911 -1.4997e+005 -1.3202e+006 -2.8991e+005 52955 254833,254885,254859
 8.8000e+001 255063 -4.5962e+005 -6.7361e+006  4.9544e+004 52551 254962,255014,254988
 8.8000e+001 255040 -6.3646e+005 -6.8882e+006 -4.8966e+004 52551 254936,255014,254962
 8.8000e+001 255264 -1.1189e+006 -1.0762e+006 -6.1481e+005 52261 255114,255166,255140
 8.8000e+001 255241 -1.1892e+006 -2.3992e+006 -1.6932e+005 52261 255114,255192,255166
 8.8000e+001 255218 -5.3432e+006 -1.1235e+006  9.5532e+005 52261 255088,255192,255114
 8.8000e+001 255416 -9.6302e+005 -5.4807e+006  2.1611e+006 51971 255289,255341,255315
 8.8000e+001 255393 -3.1063e+005 -4.7492e+006 -5.4721e+005 51971 255289,255367,255341
 8.8000e+001 255568  1.5697e+005 -1.5540e+006 -4.7583e+005 51681 255441,255493,255467
 8.8000e+001 255545 -1.3716e+005 -1.1291e+006 -4.9000e+005 51681 255441,255519,255493
 8.8000e+001 255769 -2.5122e+005 -2.5684e+006  7.6364e+004 51291 255619,255697,255671
 8.8000e+001 255746 -2.3246e+005 -2.2357e+006 -2.4113e+005 51291 255593,255697,255619
 8.8000e+001 255723 -3.0402e+005 -5.6761e+006 -6.8207e+005 51291 255619,255671,255645
 8.8000e+001 255921 -6.7093e+005 -3.0078e+006  8.6078e+005 50951 255820,255872,255846
 8.8000e+001 255898 -1.3375e+005 -1.1849e+006  4.7824e+004 50951 255794,255872,255820
 8.8000e+001 256171 -7.3561e+005 -5.2572e+006  7.4568e+005 50547 256024,256076,256050
 8.8000e+001 256148 -8.3543e+005 -4.0073e+006  2.6129e+005 50547 255972,256076,256024
 8.8000e+001 256125 -1.6230e+005 -3.8514e+006  3.8119e+005 50547 255946,256076,255972
 8.8000e+001 256102 -7.5981e+005 -4.8349e+006  5.0930e+005 50547 255972,256024,255998
 8.8000e+001 256323  1.2642e+005 -4.0804e+006  3.9845e+005 50093 256196,256248,256222
 8.8000e+001 256300 -1.0230e+006 -2.5592e+006 -8.1526e+005 50093 256196,256274,256248
 8.8000e+001 256426 -4.6222e+002  6.0681e+001 -9.1189e+001 49845 256348,256400,256374
 8.8000e+001 256627  7.0276e+004 -5.6791e+006  8.9782e+004 49555 256477,256555,256503
 8.8000e+001 256604 -2.7895e+004 -2.7823e+006  2.4045e+005 49555 256451,256555,256477
 8.8000e+001 256581 -3.7913e+005 -5.0229e+006  3.5741e+005 49555 256503,256555,256529
 8.8000e+001 256828 -3.8592e+005 -2.3998e+006 -4.3391e+005 49056 256652,256730,256678
 8.8000e+001 256805 -7.1747e+005 -2.0160e+006 -2.2186e+005 49056 256652,256756,256730
 8.8000e+001 256782 -3.2297e+005 -3.7018e+006  5.0156e+005 49056 256678,256730,256704
 8.8000e+001 256931 -3.2088e+004  1.3850e+004  4.3753e+004 48766 256853,256905,256879
 8.8000e+001 257083 -1.7543e+006 -5.0478e+006 -7.5445e+005 48568 256982,257034,257008
 8.8000e+001 257060 -6.9656e+005 -8.4507e+005 -1.8172e+005 48568 256956,257034,256982
 8.8000e+001 257186 -1.9543e+003 -3.7004e+006  1.0905e+003 48228 257108,257160,257134
 8.8000e+001 257338 -1.1983e+006 -5.3072e+005  3.0426e+005 47888 257237,257289,257263
 8.8000e+001 257315 -4.6674e+005 -3.6536e+006  1.8814e+006 47888 257211,257289,257237
 8.8000e+001 257539 -4.1761e+005 -3.2863e+006  1.2081e+005 47548 257363,257441,257415
 8.8000e+001 257516 -7.1090e+005 -3.0422e+006 -3.4195e+005 47548 257363,257467,257441
 8.8000e+001 257493 -8.1193e+005 -2.3037e+006 -8.1399e+004 47548 257363,257415,257389
 8.8000e+001 257740 -3.9090e+004 -5.3273e+006  4.8898e+005 46994 257564,257642,257616
 8.8000e+001 257717 -4.3923e+005 -3.6297e+006 -1.5714e+005 46994 257564,257668,257642
 8.8000e+001 257694 -8.8553e+005 -5.3017e+006 -2.0781e+005 46994 257564,257616,257590
 8.8000e+001 257843 -3.0792e+005 -1.0039e+006 -1.3187e+005 46654 257765,257817,257791
 8.8000e+001 257995 -5.6715e+005 -2.7357e+006  3.4498e+005 46364 257894,257946,257920
 8.8000e+001 257972 -6.8793e+005 -2.8061e+006  2.9342e+005 46364 257868,257946,257894
 8.8000e+001 258147 -4.5259e+004 -3.3374e+006  1.0894e+005 46024 258046,258098,258072
 8.8000e+001 258124 -3.9986e+005 -2.3349e+006  4.3390e+005 46024 258020,258098,258046
 8.8000e+001 258250 -4.8187e+005 -6.8664e+005  3.3854e+005 45741 258172,258224,258198
 8.8000e+001 258402 -8.8681e+005 -3.1193e+006  6.3917e+005 45401 258301,258353,258327
 8.8000e+001 258379 -3.7699e+005 -2.9249e+006  8.8704e+005 45401 258275,258353,258301
 8.8000e+001 258603 -6.7730e+005 -1.7748e+006  2.0395e+004 45071 258427,258505,258479
 8.8000e+001 258580 -2.6091e+005 -4.1344e+006  2.5746e+005 45071 258427,258531,258505
 8.8000e+001 258557 -3.0648e+005 -2.5931e+006  1.8621e+005 45071 258427,258479,258453
 8.8000e+001 258755 -2.0315e+005 -4.0765e+006 -3.9025e+005 44681 258654,258706,258680
 8.8000e+001 258732 -3.6730e+005 -3.0599e+006 -3.9695e+005 44681 258628,258706,258654
 8.8000e+001 258907 -2.2534e+005 -3.1696e+006 -2.4011e+005 44157 258806,258858,258832
 8.8000e+001 258884 -6.8389e+005 -2.4804e+006 -1.7423e+005 44157 258780,258858,258806
 8.8000e+001 259010 -5.6394e+005 -2.1630e+006 -6.3038e+004 43705 258932,258984,258958
 8.8000e+001 259113 -5.6881e+005 -2.4538e+006  6.7847e+004 43284 259035,259087,259061
 8.8000e+001 259216 -3.6155e+005 -4.5422e+006 -1.7641e+005 42954 259138,259190,259164
 8.8000e+001 259319 -6.4176e+005 -1.3681e+006 -3.0250e+004 42116 259241,259293,259267
 8.8000e+001 259422 -5.9644e+005 -7.1337e+006  1.1578e+006 41804 259344,259396,259370
 8.8000e+001 259525 -6.4610e+005 -6.1777e+006  9.6647e+005 41219 259447,259499,259473
 8.8000e+001 259628 -5.5308e+005 -2.7462e+006 -6.1936e+005 385 259550,259602,259576
 9.0000e+001 190120 -2.0237e+005 -2.2446e+006 -3.6635e+005 189630 189993,190045,190019
 9.0000e+001 190097 -6.7698e+005 -1.7025e+006 -2.3304e+005 189630 189993,190071,190045
 9.0000e+001 190319 -1.3854e+006 -3.8865e+006 -2.8166e+005 189312 190169,190221,190195
 9.0000e+001 190296 -6.8173e+005 -3.0251e+006 -1.0530e+006 189312 190169,190247,190221
 9.0000e+001 190273 -9.0645e+005 -2.3046e+006  3.0728e+005 189312 190143,190247,190169
 9.0000e+001 190518 -4.7799e+005  4.9020e+004  1.6177e+004 189124 190368,190446,190420
 9.0000e+001 190495 -5.6264e+005  2.1605e+004 -4.2537e+003 189124 190342,190446,190368
 9.0000e+001 190472 -9.9005e+005 -5.2833e+004 -4.8903e+004 189124 190368,190420,190394
 9.0000e+001 190619 -4.5061e+005 -4.5946e+004 -6.1313e+003 188926 190541,190593,190567
 9.0000e+001 190771 -4.8627e+005 -7.6860e+004  1.6601e+004 188614 190670,190722,190696
 9.0000e+001 190748 -5.6117e+005  1.6334e+005  5.6170e+004 188614 190644,190722,190670
 9.0000e+001 190972 -4.9020e+005 -4.6708e+005 -3.4966e+005 188324 190848,190900,190874
 9.0000e+001 190949 -4.9029e+005 -7.4157e+005 -5.0462e+005 188324 190796,190900,190848
 9.0000e+001 190926 -9.3330e+004 -2.7702e+005 -2.3556e+005 188324 190796,190848,190822
 9.0000e+001 191124 -6.7941e+005 -9.8226e+005 -1.5666e+005 188034 191023,191075,191049
 9.0000e+001 191101 -1.6521e+005 -1.1052e+006 -1.1649e+005 188034 190997,191075,191023
 9.0000e+001 191276 -2.3068e+005 -5.0769e+005 -3.6234e+004 187836 191149,191201,191175
 9.0000e+001 191253 -2.0590e+005 -2.7714e+005  9.4578e+004 187836 191149,191227,191201
 9.0000e+001 191379 -4.5934e+005 -3.3158e+005 -9.9100e+004 187546 191301,191353,191327
 9.0000e+001 191531 -2.1443e+005 -2.8091e+006  2.4114e+005 187256 191430,191482,191456
 9.0000e+001 191508 -1.1526e+006 -4.0707e+006 -1.2367e+006 187256 191404,191482,191430
 9.0000e+001 191634 -7.5235e+005 -4.4359e+004  1.9250e+004 187058 191556,191608,191582
 9.0000e+001 191835 -5.2393e+005  7.6820e+003 -8.2496e+003 186860 191659,191711,191685
 9.0000e+001 191812 -3.6137e+005 -1.2466e+005  1.3057e+004 186860 191659,191737,191711
 9.0000e+001 191789 -3.5363e+005 -5.9539e+004  3.2676e+004 186860 191659,191763,191737
 9.0000e+001 191987 -5.8600e+005 -4.5887e+004  8.3907e+004 186662 191886,191938,191912
 9.0000e+001 191964 -3.0962e+005 -8.6962e+004  9.9157e+004 186662 191860,191938,191886
 9.0000e+001 192090 -6.6978e+005 -4.2938e+005  7.5715e+004 186486 192012,192064,192038
 9.0000e+001 192242 -1.0847e+005 -5.8130e+006 -3.4840e+005 186288 192115,192167,192141
 9.0000e+001 192219 -7.9190e+005 -3.2772e+006  2.1703e+004 186288 192115,192193,192167
 9.0000e+001 192394 -8.3212e+004 -4.4965e+006 -3.3302e+005 185935 192293,192345,192319
 9.0000e+001 192371 -4.6277e+005 -3.2148e+006 -6.3672e+005 185935 192267,192345,192293
 9.0000e+001 192546 -4.5015e+005 -2.9756e+006 -6.0101e+005 185675 192419,192471,192445
 9.0000e+001 192523 -9.2360e+005 -1.4258e+006 -6.5013e+005 185675 192419,192497,192471
 9.0000e+001 192649 -7.9146e+005 -1.3498e+006  5.8901e+004 185499 192571,192623,192597
 9.0000e+001 192801 -1.7998e+005 -1.4413e+006  3.0703e+005 185301 192674,192726,192700
 9.0000e+001 192778 -2.5520e+005 -1.4514e+006  2.8783e+005 185301 192674,192752,192726
 9.0000e+001 193002 -7.4076e+004 -4.6772e+005 -3.4560e+005 185046 192852,192930,192878
 9.0000e+001 192979 -3.1973e+005 -1.2390e+006 -1.2960e+005 185046 192826,192930,192852
 9.0000e+001 192956  3.7622e+005 -1.5995e+006 -3.5591e+004 185046 192878,192930,192904
 9.0000e+001 193203  1.7598e+005 -3.7820e+006 -6.2050e+005 184798 193079,193131,193105
 9.0000e+001 193180 -1.0271e+006 -2.5606e+006  2.3822e+003 184798 193027,193131,193079
 9.0000e+001 193157 -2.0208e+006 -2.8194e+006  1.5701e+005 184798 193027,193079,193053
 9.0000e+001 193404 -2.3276e+005 -4.2608e+006 -9.9401e+005 184600 193254,193306,193280
 9.0000e+001 193381 -4.0927e+005 -1.2662e+006 -1.6242e+005 184600 193254,193332,193306
 9.0000e+001 193358 -7.9641e+005 -3.2849e+005 -3.2821e+005 184600 193228,193332,193254
 9.0000e+001 193556 -6.4624e+005 -4.8375e+005 -5.6089e+005 184402 193429,193481,193455
 9.0000e+001 193533 -6.2645e+005 -5.1072e+005 -5.4060e+005 184402 193429,193507,193481
 9.0000e+001 193708  1.0719e+004 -1.4239e+006  1.6945e+005 184204 193607,193659,193633
 9.0000e+001 193685 -5.9170e+005 -4.7487e+006 -8.4268e+005 184204 193581,193659,193607
 9.0000e+001 193860 -4.9134e+005 -7.4446e+005  4.8640e+005 183908 193759,193811,193785
 9.0000e+001 193837 -4.3361e+004 -1.4808e+006  5.1805e+005 183908 193733,193811,193759
 9.0000e+001 194061 -6.1192e+005  9.4523e+003  8.9907e+004 183710 193911,193989,193937
 9.0000e+001 194038 -4.9110e+005 -2.9704e+004 -1.0316e+005 183710 193885,193989,193911
 9.0000e+001 194015 -4.4941e+005  1.2168e+004  1.6909e+004 183710 193937,193989,193963
 9.0000e+001 194262 -8.4871e+005 -2.4121e+006 -5.5777e+005 183420 194086,194164,194112
 9.0000e+001 194239 -7.8262e+005 -1.9265e+006 -2.0345e+005 183420 194086,194190,194164
 9.0000e+001 194216  4.2299e+005 -6.9504e+006  1.5883e+006 183420 194112,194164,194138
 9.0000e+001 194414 -6.8206e+005 -5.0459e+006 -3.6647e+004 183222 194287,194339,194313
 9.0000e+001 194391 -4.5140e+005 -7.8933e+005 -2.5996e+005 183222 194287,194365,194339
 9.0000e+001 194517 -8.3197e+005 -5.7080e+005  9.6516e+004 183024 194439,194491,194465
 9.0000e+001 194718  1.4520e+006 -1.3701e+007  1.5203e+006 182734 194568,194620,194594
 9.0000e+001 194695 -1.0855e+006 -3.7902e+006 -2.7403e+006 182734 194542,194620,194568
 9.0000e+001 194672 -2.9871e+006 -1.8466e+006 -1.2846e+006 182734 194542,194646,194620
 9.0000e+001 194870 -4.5614e+005 -5.8264e+005  2.9064e+005 182444 194769,194821,194795
 9.0000e+001 194847 -5.3389e+005 -1.6762e+006  9.2657e+005 182444 194743,194821,194769
 9.0000e+001 195071 -3.2034e+005 -1.3015e+006  8.2335e+005 182154 194895,194947,194921
 9.0000e+001 195048 -3.6505e+005 -3.6203e+005  1.6061e+005 182154 194895,194999,194947
 9.0000e+001 195025 -3.2727e+005 -1.3009e+005  2.0286e+005 182154 194947,194999,194973
 9.0000e+001 195223 -2.8443e+005 -1.3516e+005 -1.1587e+005 181814 195096,195148,195122
 9.0000e+001 195200 -4.8618e+005 -1.4176e+006 -1.0985e+006 181814 195096,195174,195148
 9.0000e+001 195375 -3.8295e+003 -5.9960e+003 -3.4404e+003 181524 195248,195300,195274
 9.0000e+001 195352  1.9910e+003 -2.9423e+004 -4.6912e+002 181524 195248,195326,195300
 9.0000e+001 195527 -1.6362e+005 -1.1530e+006 -3.5758e+005 181326 195426,195478,195452
 9.0000e+001 195504 -7.2622e+005 -7.7475e+005 -2.5279e+004 181326 195400,195478,195426
 9.0000e+001 195679  6.0652e+004 -8.8971e+006 -2.9954e+005 180936 195578,195630,195604
 9.0000e+001 195656 -6.0041e+005 -3.4907e+006 -1.7815e+005 180936 195552,195630,195578
 9.0000e+001 195831 -4.6090e+005 -3.7819e+005 -1.7934e+005 180646 195704,195756,195730
 9.0000e+001 195808 -7.3457e+005 -2.4721e+004  1.4833e+004 180646 195704,195782,195756
 9.0000e+001 196032 -3.5105e+005 -2.0682e+006  4.8037e+005 180306 195882,195960,195934
 9.0000e+001 196009 -5.1518e+005 -7.8038e+005 -3.6324e+005 180306 195856,195960,195882
 9.0000e+001 195986  3.7748e+004 -2.3049e+006  1.8441e+005 180306 195882,195934,195908
 9.0000e+001 196233 -3.3616e+005 -1.5903e+005 -9.3303e+005 179944 196057,196109,196083
 9.0000e+001 196210 -8.9465e+005 -2.9114e+006  3.4574e+005 179944 196057,196135,196109
 9.0000e+001 196187 -1.8731e+006  4.2027e+006 -1.3565e+006 179944 196057,196161,196135
 9.0000e+001 196385 -5.8347e+005 -6.3478e+005 -4.2762e+005 179604 196258,196310,196284
 9.0000e+001 196362 -8.2712e+005 -9.8595e+005 -9.7673e+005 179604 196258,196336,196310
 9.0000e+001 196586 -7.7656e+005 -4.9009e+005 -6.2428e+005 179114 196410,196488,196436
 9.0000e+001 196563 -7.1161e+005 -1.4681e+006 -5.5864e+005 179114 196410,196514,196488
 9.0000e+001 196540 -4.1388e+003 -4.4857e+005 -4.4612e+004 179114 196436,196488,196462
 9.0000e+001 196738 -6.8051e+005 -1.5116e+006 -6.2523e+005 178674 196611,196663,196637
 9.0000e+001 196715  1.0131e+004 -3.4135e+006 -1.2590e+005 178674 196611,196689,196663
 9.0000e+001 196939  1.6229e+006 -8.7038e+006 -9.5763e+005 178334 196789,196867,196841
 9.0000e+001 196916 -6.0916e+005 -9.2159e+006 -3.3771e+005 178334 196763,196867,196789
 9.0000e+001 196893 -2.0662e+006 -5.6144e+006 -3.4392e+006 178334 196789,196841,196815
 9.0000e+001 197091 -1.2304e+006 -3.5496e+006 -1.0632e+006 177930 196990,197042,197016
 9.0000e+001 197068 -1.6990e+006 -5.2977e+006 -7.5489e+005 177930 196964,197042,196990
 9.0000e+001 197194 -3.9071e+002 -7.1265e+001  1.2629e+002 177732 197116,197168,197142
 9.0000e+001 197346 -3.9040e+005 -5.2957e+006  2.4968e+005 177534 197219,197271,197245
 9.0000e+001 197323 -1.8062e+005 -5.5969e+006  3.9919e+005 177534 197219,197297,197271
 9.0000e+001 197547 -1.0279e+006 -6.1986e+006 -2.4635e+006 177130 197397,197449,197423
 9.0000e+001 197524 -2.2690e+006 -7.0725e+006 -1.4342e+006 177130 197397,197475,197449
 9.0000e+001 197501 -1.3339e+006 -1.2111e+007 -2.4101e+006 177130 197371,197475,197397
 9.0000e+001 197748 -8.1611e+005 -5.1821e+006  4.4128e+005 176790 197598,197676,197624
 9.0000e+001 197725 -5.5060e+005 -3.8080e+006  6.9645e+005 176790 197572,197676,197598
 9.0000e+001 197702 -8.5086e+005 -4.3458e+006  6.1937e+005 176790 197624,197676,197650
 9.0000e+001 197900 -2.4539e+005 -2.7569e+006 -4.4464e+005 176300 197773,197825,197799
 9.0000e+001 197877 -5.7184e+004 -4.0246e+006 -3.2600e+005 176300 197773,197851,197825
 9.0000e+001 198052 -1.3821e+006 -3.6134e+006 -1.1638e+006 176010 197925,197977,197951
 9.0000e+001 198029 -4.8589e+005 -6.7677e+006 -2.0853e+006 176010 197925,198003,197977
 9.0000e+001 198204 -1.1923e+006 -6.1782e+006 -2.7761e+006 175670 198103,198155,198129
 9.0000e+001 198181 -1.5633e+006 -3.5391e+006 -6.2343e+005 175670 198077,198155,198103
 9.0000e+001 198405 -4.5567e+005 -3.2517e+006 -6.1144e+005 175266 198255,198307,198281
 9.0000e+001 198382 -1.5989e+005 -5.2443e+006 -2.2927e+006 175266 198229,198307,198255
 9.0000e+001 198359 -1.2470e+006 -4.9674e+006 -2.4925e+006 175266 198229,198333,198307
 9.0000e+001 198606  1.5938e+003 -2.7518e+004  1.7170e+003 174876 198430,198508,198482
 9.0000e+001 198583 -1.1827e+003 -2.6025e+004 -1.7999e+004 174876 198430,198534,198508
 9.0000e+001 198560  1.5812e+003 -1.2345e+004 -3.9303e+003 174876 198430,198482,198456
 9.0000e+001 198758  2.6773e+002 -6.1656e+001  6.6193e+001 174536 198657,198709,198683
 9.0000e+001 198735  2.9498e+002 -4.0766e+001 -1.8079e+002 174536 198631,198709,198657
 9.0000e+001 199008 -7.8739e+005 -4.6214e+006 -6.9044e+004 174132 198835,198913,198887
 9.0000e+001 198985 -5.6818e+005 -1.7876e+006  1.7831e+005 174132 198809,198913,198835
 9.0000e+001 198962 -4.7098e+005 -1.9485e+006 -1.0332e+006 174132 198783,198913,198809
 9.0000e+001 198939 -2.6779e+005 -5.1173e+006 -9.2100e+004 174132 198835,198887,198861
 9.0000e+001 199160 -9.8194e+005 -2.1821e+006 -5.8858e+005 173842 199059,199111,199085
 9.0000e+001 199137 -4.2885e+005 -9.6459e+005 -1.4882e+005 173842 199033,199111,199059
 9.0000e+001 199361 -5.5959e+005 -4.3783e+006  1.1938e+006 173438 199237,199289,199263
 9.0000e+001 199338 -4.5459e+005 -4.3710e+006  1.2358e+006 173438 199211,199289,199237
 9.0000e+001 199315 -4.5527e+004 -6.3529e+006 -4.5331e+005 173438 199185,199289,199211
 9.0000e+001 199513 -9.4754e+005 -5.6096e+006  1.5666e+005 173190 199386,199438,199412
 9.0000e+001 199490 -1.8022e+006 -5.8377e+006  3.3766e+005 173190 199386,199464,199438
 9.0000e+001 199665 -5.0946e+005 -1.4299e+006  2.7432e+005 172750 199564,199616,199590
 9.0000e+001 199642 -9.4070e+005 -8.4981e+005 -5.9161e+003 172750 199538,199616,199564
 9.0000e+001 199817 -3.3279e+005 -3.2742e+006 -1.0972e+006 172524 199690,199742,199716
 9.0000e+001 199794 -1.8299e+006 -9.3672e+005 -5.2872e+005 172524 199690,199768,199742
 9.0000e+001 199969 -6.7731e+003 -5.8410e+006 -2.0443e+005 172348 199842,199894,199868
 9.0000e+001 199946  3.7009e+005 -5.7680e+006  2.8696e+004 172348 199842,199920,199894
 9.0000e+001 200121  8.2250e+004 -1.9964e+006 -3.3486e+005 172008 199994,200046,200020
 9.0000e+001 200098 -1.6348e+005 -8.5562e+005 -8.9278e+004 172008 199994,200072,200046
 9.0000e+001 200273 -1.8487e+006 -4.0955e+006 -2.1504e+006 171668 200172,200224,200198
 9.0000e+001 200250 -1.1137e+006 -3.8911e+006 -1.0004e+006 171668 200146,200224,200172
 9.0000e+001 200474  8.4598e+004 -4.0147e+006 -7.4613e+005 171264 200350,200402,200376
 9.0000e+001 200451 -2.5741e+005 -4.2950e+006 -9.3146e+005 171264 200324,200402,200350
 9.0000e+001 200428 -2.8736e+005 -2.7965e+006  8.9624e+005 171264 200298,200402,200324
 9.0000e+001 200626 -1.0023e+006 -4.4557e+006 -6.6986e+005 170832 200525,200577,200551
 9.0000e+001 200603 -2.9534e+005 -2.4523e+006 -9.4066e+004 170832 200499,200577,200525
 9.0000e+001 200827 -9.9388e+004 -2.1702e+006  5.6831e+005 170492 200677,200729,200703
 9.0000e+001 200804 -1.2472e+006 -1.0265e+006 -3.5140e+005 170492 200651,200729,200677
 9.0000e+001 200781 -9.0135e+005 -1.1645e+006 -6.0603e+005 170492 200651,200755,200729
 9.0000e+001 201077 -8.4235e+005 -3.0927e+006 -2.4639e+005 170088 200878,200956,200904
 9.0000e+001 201054 -5.1262e+005 -1.3867e+006 -1.4872e+005 170088 200852,200956,200878
 9.0000e+001 201031 -1.0151e+006 -1.5588e+006  2.4597e+006 170088 200904,200956,200930
 9.0000e+001 201008  8.4776e+004 -1.7541e+006  1.0186e+005 170088 200852,200982,200956
 9.0000e+001 201278 -3.2267e+004 -4.7002e+005  1.7796e+005 169798 201102,201154,201128
 9.0000e+001 201255 -3.6864e+005 -1.5677e+006 -1.0549e+005 169798 201102,201206,201154
 9.0000e+001 201232 -2.1747e+005 -6.1833e+005  2.2495e+005 169798 201154,201206,201180
 9.0000e+001 201430 -3.3489e+005 -3.4511e+006 -6.4047e+005 169337 201303,201355,201329
 9.0000e+001 201407 -2.1540e+005 -1.1862e+006 -1.0431e+005 169337 201303,201381,201355
 9.0000e+001 201631 -1.8623e+005 -3.3794e+006  6.0191e+005 168883 201481,201559,201507
 9.0000e+001 201608 -4.0290e+005 -2.7197e+006  9.9601e+005 168883 201455,201559,201481
 9.0000e+001 201585 -1.0121e+005 -2.3251e+006  6.9946e+005 168883 201507,201559,201533
 9.0000e+001 201832  2.7248e+005 -6.4094e+006  3.9047e+005 168479 201682,201734,201708
 9.0000e+001 201809 -2.0855e+006 -4.5664e+006 -1.2339e+006 168479 201656,201734,201682
 9.0000e+001 201786 -1.7268e+006 -3.1485e+006  1.7850e+005 168479 201656,201760,201734
 9.0000e+001 202033 -3.3018e+005 -2.3362e+006  3.0311e+004 167825 201883,201935,201909
 9.0000e+001 202010 -1.6989e+006 -3.5964e+006 -2.2500e+006 167825 201857,201935,201883
 9.0000e+001 201987 -4.2283e+005 -9.2269e+006 -1.4212e+006 167825 201857,201961,201935
 9.0000e+001 202234 -1.3978e+005 -9.7817e+005 -3.3540e+005 167435 202058,202136,202084
 9.0000e+001 202211 -7.9923e+004 -1.6711e+006  4.0062e+005 167435 202058,202162,202136
 9.0000e+001 202188 -5.6116e+004 -5.2141e+005  2.4770e+004 167435 202084,202136,202110
 9.0000e+001 202386  7.1313e+004 -2.3623e+006  4.3164e+005 167002 202285,202337,202311
 9.0000e+001 202363 -4.5767e+005 -6.4714e+005  4.2319e+005 167002 202259,202337,202285
 9.0000e+001 202538 -1.4274e+006 -3.3977e+006 -1.9027e+006 166662 202411,202463,202437
 9.0000e+001 202515 -1.0120e+006 -2.8610e+006 -2.2048e+006 166662 202411,202489,202463
 9.0000e+001 202690  1.7739e+004 -1.7132e+006 -3.2242e+005 166322 202589,202641,202615
 9.0000e+001 202667  1.0483e+005 -1.6675e+006 -2.8715e+005 166322 202563,202641,202589
 9.0000e+001 202891 -3.7275e+004 -9.5584e+005 -6.6785e+004 165918 202715,202767,202741
 9.0000e+001 202868 -1.2824e+005 -1.4368e+006 -2.7357e+005 165918 202715,202793,202767
 9.0000e+001 202845 -7.4427e+005 -1.1071e+006 -3.5345e+005 165918 202715,202819,202793
 9.0000e+001 203092 -3.4833e+005 -1.6649e+006 -4.0223e+005 165628 202916,202968,202942
 9.0000e+001 203069 -3.6003e+004 -2.7284e+006 -4.1153e+005 165628 202916,202994,202968
 9.0000e+001 203046 -5.1381e+005 -2.6149e+006 -5.1127e+005 165628 202916,203020,202994
 9.0000e+001 203293 -3.4523e+006 -1.9569e+006 -2.5280e+006 165266 203143,203195,203169
 9.0000e+001 203270 -1.2546e+006 -4.8625e+006 -7.1600e+005 165266 203143,203221,203195
 9.0000e+001 203247 -8.9902e+005 -4.8017e+006 -6.9402e+005 165266 203117,203221,203143
 9.0000e+001 203445 -3.0073e+005 -1.6806e+006  6.6186e+005 164826 203318,203370,203344
 9.0000e+001 203422 -1.1902e+005 -1.0525e+006 -7.5547e+004 164826 203318,203396,203370
 9.0000e+001 203597 -1.0656e+006 -4.7659e+005 -6.9580e+004 164386 203470,203522,203496
 9.0000e+001 203574 -1.5601e+006 -2.3718e+006 -2.2832e+005 164386 203470,203548,203522
 9.0000e+001 203798 -3.4775e+005 -1.2052e+004 -2.9434e+004 163996 203622,203674,203648
 9.0000e+001 203775 -8.2976e+005  3.2375e+004  1.0778e+005 163996 203622,203726,203674
 9.0000e+001 203752 -8.1235e+005 -3.4588e+003 -5.2866e+004 163996 203674,203726,203700
 9.0000e+001 203901 -3.4013e+005 -8.7334e+005  3.4079e+004 163770 203823,203875,203849
 9.0000e+001 204053 -1.6424e+006 -2.9628e+006 -1.2122e+006 163474 203952,204004,203978
 9.0000e+001 204030 -1.2852e+006 -2.7305e+006 -9.3874e+005 163474 203926,204004,203952
 9.0000e+001 204205  1.6063e+005 -8.7319e+005 -4.0408e+005 163034 204104,204156,204130
 9.0000e+001 204182 -4.2679e+005 -1.7314e+006 -1.2592e+006 163034 204078,204156,204104
 9.0000e+001 204357 -1.1179e+004 -1.4289e+003  4.0408e+003 162624 204256,204308,204282
 9.0000e+001 204334 -1.1260e+004 -1.3717e+003  3.9046e+003 162624 204230,204308,204256
 9.0000e+001 204509 -5.1389e+004 -9.6070e+003  2.0566e+004 162200 204382,204434,204408
 9.0000e+001 204486 -4.1444e+004 -2.9365e+004  4.2574e+004 162200 204382,204460,204434
 9.0000e+001 204710 -2.3686e+006 -3.9320e+005  3.0358e+005 161810 204560,204638,204586
 9.0000e+001 204687 -1.6028e+006 -1.3719e+006 -1.0634e+006 161810 204534,204638,204560
 9.0000e+001 204664 -2.0625e+006 -3.2163e+005  6.7450e+005 161810 204586,204638,204612
 9.0000e+001 204862 -6.6954e+005 -7.1535e+005 -2.7053e+005 161406 204735,204787,204761
 9.0000e+001 204839 -2.9007e+003 -1.4065e+006 -6.9494e+004 161406 204735,204813,204787
 9.0000e+001 205014 -3.6494e+002 -7.0796e+003  1.7353e+003 161180 204887,204939,204913
 9.0000e+001 204991 -8.3739e+002 -2.9572e+003 -5.1831e+002 161180 204887,204965,204939
 9.0000e+001 205215 -3.8159e+005 -1.6318e+006 -1.7309e+006 160726 205039,205091,205065
 9.0000e+001 205192 -5.9408e+005 -2.5713e+006 -1.4426e+006 160726 205039,205143,205091
 9.0000e+001 205169 -1.5283e+006 -4.1496e+006 -2.1374e+006 160726 205091,205143,205117
 9.0000e+001 205416 -8.7737e+002 -4.7508e+002  3.2599e+002 160272 205292,205344,205318
 9.0000e+001 205393 -1.3473e+003  8.1812e+002 -2.4964e+001 160272 205240,205344,205292
 9.0000e+001 205370 -1.4129e+003 -1.8601e+002 -8.3713e+002 160272 205240,205292,205266
 9.0000e+001 205568 -6.3108e+002 -1.0232e+004  2.7003e+002 159932 205441,205493,205467
 9.0000e+001 205545  6.0845e+002 -6.9376e+003 -6.2396e+002 159932 205441,205519,205493
 9.0000e+001 205720 -7.6109e+002  2.3618e+002  2.0398e+002 159542 205593,205645,205619
 9.0000e+001 205697 -9.0739e+002  8.0569e+001  2.2484e+002 159542 205593,205671,205645
 9.0000e+001 205872  6.0848e+002 -4.6129e+003  2.3484e+002 159252 205745,205797,205771
 9.0000e+001 205849 -8.7571e+002 -1.0520e+004 -6.1818e+002 159252 205745,205823,205797
 9.0000e+001 206024 -1.6724e+005 -1.2202e+006  4.1807e+005 159004 205923,205975,205949
 9.0000e+001 206001 -9.6040e+004 -2.0800e+006  6.0524e+005 159004 205897,205975,205923
 9.0000e+001 206127 -4.4662e+006 -3.7700e+006  2.5562e+003 158364 206049,206101,206075
 9.0000e+001 206328 -5.6547e+004 -1.5361e+004  1.5288e+004 157960 206178,206256,206204
 9.0000e+001 206305 -1.5914e+004 -1.4073e+004  1.1966e+004 157960 206152,206256,206178
 9.0000e+001 206282 -3.6038e+004 -3.0808e+004  2.6534e+004 157960 206204,206256,206230
 9.0000e+001 206529 -1.5518e+006 -4.0908e+006  1.0530e+006 157648 206405,206457,206431
 9.0000e+001 206506 -2.5335e+006 -1.1086e+006  9.1054e+005 157648 206379,206457,206405
 9.0000e+001 206483 -2.5961e+006 -8.0368e+005  1.2924e+006 157648 206353,206457,206379
 9.0000e+001 206730 -1.0739e+005 -6.1437e+004  6.4834e+004 157208 206554,206606,206580
 9.0000e+001 206707 -5.9203e+004 -4.2052e+004  4.0293e+004 157208 206554,206632,206606
 9.0000e+001 206684 -1.6454e+005 -6.5795e+004  5.7330e+004 157208 206554,206658,206632
 9.0000e+001 206882 -4.2026e+002 -4.9234e+003  1.3949e+003 157010 206755,206807,206781
 9.0000e+001 206859 -1.3752e+002 -5.5106e+003  1.6452e+003 157010 206755,206833,206807
 9.0000e+001 207034 -3.8486e+004  1.0421e+004  1.2358e+004 156620 206907,206959,206933
 9.0000e+001 207011 -3.2639e+004 -9.9497e+004  1.9859e+004 156620 206907,206985,206959
 9.0000e+001 207186 -2.2545e+005 -1.5270e+006 -1.7358e+005 156330 207085,207137,207111
 9.0000e+001 207163 -5.8168e+005 -1.7212e+006 -1.3760e+006 156330 207059,207137,207085
 9.0000e+001 207387 -1.3287e+005 -1.1033e+006 -2.6374e+005 155890 207211,207289,207237
 9.0000e+001 207364 -1.2577e+006 -1.4143e+006 -8.1828e+005 155890 207211,207315,207289
 9.0000e+001 207341 -3.0220e+005 -6.9934e+005 -2.4337e+004 155890 207237,207289,207263
 9.0000e+001 207588 -7.9813e+005 -1.9700e+007  7.7817e+006 155436 207438,207490,207464
 9.0000e+001 207565 -1.4085e+006 -1.3456e+007 -1.0324e+006 155436 207412,207490,207438
 9.0000e+001 207542 -2.7638e+006 -6.4023e+006 -1.1831e+006 155436 207412,207516,207490
 9.0000e+001 207789  1.6943e+006 -2.8789e+007 -1.9628e+006 155260 207639,207691,207665
 9.0000e+001 207766 -3.7470e+006 -8.6438e+006  4.3964e+006 155260 207613,207691,207639
 9.0000e+001 207743 -1.5461e+006 -6.3182e+006 -1.2389e+005 155260 207613,207717,207691
 9.0000e+001 207990 -3.3261e+003 -1.0428e+004  3.8282e+003 154920 207840,207918,207892
 9.0000e+001 207967 -3.7433e+001 -1.0342e+004 -9.1966e+003 154920 207814,207918,207840
 9.0000e+001 207944  9.6008e+003 -2.2863e+004  7.1978e+003 154920 207840,207892,207866
 9.0000e+001 208191 -3.0256e+003 -5.8591e+004  1.0718e+004 154630 208015,208093,208041
 9.0000e+001 208168  2.1163e+003 -6.0979e+004  3.8240e+003 154630 208015,208119,208093
 9.0000e+001 208145 -6.3910e+003 -1.3810e+004 -1.0176e+004 154630 208041,208093,208067
 9.0000e+001 208343 -1.8311e+003 -1.2761e+004 -2.3330e+003 154240 208216,208268,208242
 9.0000e+001 208320  4.1920e+001 -9.8165e+003  9.9837e+000 154240 208216,208294,208268
 9.0000e+001 208495  2.7862e+005 -2.6222e+006 -9.2146e+005 153950 208394,208446,208420
 9.0000e+001 208472 -1.4855e+005 -5.8517e+005  2.0525e+005 153950 208368,208446,208394
 9.0000e+001 208647 -4.5096e+005 -2.1804e+005  7.3070e+005 153603 208520,208572,208546
 9.0000e+001 208624 -6.0740e+005 -7.4394e+005 -6.5799e+005 153603 208520,208598,208572
 9.0000e+001 208848 -1.2518e+006 -4.9824e+005  1.4356e+005 153149 208698,208776,208724
 9.0000e+001 208825 -2.8908e+006  6.4255e+004  2.4080e+005 153149 208672,208776,208698
 9.0000e+001 208802 -6.9157e+005 -3.2563e+005  4.7310e+005 153149 208724,208776,208750
 9.0000e+001 209000  1.2547e+004 -1.2853e+006 -1.4387e+005 152859 208873,208925,208899
 9.0000e+001 208977 -3.3799e+005 -5.6755e+005 -1.8778e+005 152859 208873,208951,208925
 9.0000e+001 209152 -7.6545e+003 -1.3081e+006 -2.0574e+005 152569 209051,209103,209077
 9.0000e+001 209129 -1.1250e+005 -7.2429e+005  1.0266e+005 152569 209025,209103,209051
 9.0000e+001 209304 -5.1547e+001 -1.0102e+004 -3.7241e+003 152065 209177,209229,209203
 9.0000e+001 209281  2.0225e+003 -2.5766e+004 -2.8114e+003 152065 209177,209255,209229
 9.0000e+001 209456 -3.4510e+006 -1.4986e+006 -5.4764e+005 151775 209355,209407,209381
 9.0000e+001 209433 -1.7599e+006 -1.0963e+006  5.0489e+005 151775 209329,209407,209355
 9.0000e+001 209608 -8.0952e+005 -3.1883e+006 -6.8904e+005 151371 209481,209533,209507
 9.0000e+001 209585  3.8236e+005 -4.8084e+006 -3.4043e+005 151371 209481,209559,209533
 9.0000e+001 209760 -4.5059e+004 -1.0316e+003 -6.3946e+003 150981 209659,209711,209685
 9.0000e+001 209737 -6.5783e+004 -1.0316e+004 -1.4489e+004 150981 209633,209711,209659
 9.0000e+001 209912  2.1824e+006 -2.9739e+007 -2.6455e+006 150619 209811,209863,209837
 9.0000e+001 209889 -2.7673e+006 -1.2273e+007  3.3549e+006 150619 209785,209863,209811
 9.0000e+001 210064 -2.5459e+004 -8.1505e+003  1.0704e+004 150279 209937,209989,209963
 9.0000e+001 210041 -3.8424e+003 -2.4805e+004 -2.7398e+003 150279 209937,210015,209989
 9.0000e+001 210265 -2.2974e+006 -4.1634e+006 -1.2535e+005 149989 210115,210167,210141
 9.0000e+001 210242 -1.7007e+006 -5.5038e+006 -1.6361e+006 149989 210115,210193,210167
 9.0000e+001 210219 -5.5887e+005 -3.9793e+006 -8.0513e+005 149989 210089,210193,210115
 9.0000e+001 210417  3.2915e+003 -7.1627e+003  8.3208e+002 149599 210316,210368,210342
 9.0000e+001 210394  2.7375e+003 -2.1897e+004 -4.1935e+003 149599 210290,210368,210316
 9.0000e+001 210618 -2.8339e+006 -1.3120e+007  4.3007e+006 149095 210468,210520,210494
 9.0000e+001 210595 -2.7077e+006 -1.2953e+007  2.8636e+006 149095 210442,210520,210468
 9.0000e+001 210572 -1.3713e+006 -1.4368e+007  2.5369e+006 149095 210442,210546,210520
 9.0000e+001 210819 -4.6441e-001  1.8592e-001  1.6559e-001 148748 210695,210747,210721
 9.0000e+001 210796  9.5796e-001  1.6173e+000 -8.9135e-001 148748 210669,210747,210695
 9.0000e+001 210773 -2.3825e+000 -5.1722e+000  3.7546e+000 148748 210643,210747,210669
 9.0000e+001 210971 -2.1972e+001  3.2367e+001 -1.3678e+001 148408 210870,210922,210896
 9.0000e+001 210948  3.8302e+001  1.8422e+001  3.0723e+001 148408 210844,210922,210870
 9.0000e+001 211123 -8.2620e+004 -7.2430e+005  2.0181e+005 148118 210996,211048,211022
 9.0000e+001 211100 -2.7006e+005 -6.9042e+005  4.2405e+005 148118 210996,211074,211048
 9.0000e+001 211275 -1.5955e+005 -4.7177e+005  2.0942e+005 147778 211148,211200,211174
 9.0000e+001 211252 -2.9989e+005 -1.0165e+006  6.3555e+005 147778 211148,211226,211200
 9.0000e+001 211427 -2.9204e+004 -1.4655e+005  6.0992e+004 147324 211326,211378,211352
 9.0000e+001 211404  1.2073e+003 -1.9274e+005  3.6743e+004 147324 211300,211378,211326
 9.0000e+001 211628 -2.5605e+006 -1.4701e+006  1.0704e+006 147012 211452,211504,211478
 9.0000e+001 211605 -2.5077e+006  9.4680e+005  1.4889e+006 147012 211452,211556,211504
 9.0000e+001 211582 -2.4309e+006 -5.0182e+005  2.0512e+006 147012 211504,211556,211530
 9.0000e+001 211829 -1.5430e+005 -4.5202e+005  2.6435e+005 146636 211679,211757,211731
 9.0000e+001 211806 -1.3069e+005 -5.7436e+005  2.3135e+005 146636 211653,211757,211679
 9.0000e+001 211783 -7.0180e+004 -4.3306e+005  2.5937e+005 146636 211679,211731,211705
 9.0000e+001 211981  9.6630e+001 -1.4719e+002  1.0176e+002 146246 211880,211932,211906
 9.0000e+001 211958 -1.7868e+002  8.4921e+001 -1.1117e+002 146246 211854,211932,211880
 9.0000e+001 212133  5.0872e+001 -3.3408e+002  1.0481e+002 145956 212006,212058,212032
 9.0000e+001 212110 -8.5036e+000  7.0864e+001 -4.8546e+001 145956 212006,212084,212058
 9.0000e+001 212285 -7.3464e+000  2.0848e+001  7.9142e+000 145544 212184,212236,212210
 9.0000e+001 212262 -3.3663e+000 -7.5522e+000  9.8220e+000 145544 212158,212236,212184
 9.0000e+001 212486 -5.3359e+005 -1.6029e+007  3.8660e+006 144990 212362,212414,212388
 9.0000e+001 212463  2.7157e+005 -1.3100e+007  5.5392e+006 144990 212310,212414,212362
 9.0000e+001 212440 -5.1604e+006 -3.4462e+006  1.7511e+006 144990 212310,212362,212336
 9.0000e+001 212638 -4.7403e+004 -4.2881e+004  2.0463e+004 144600 212537,212589,212563
 9.0000e+001 212615 -3.2610e+004 -1.6577e+004 -9.1625e+002 144600 212511,212589,212537
 9.0000e+001 212839 -6.7344e+005 -2.4183e+006  9.7756e+005 144210 212689,212741,212715
 9.0000e+001 212816 -8.3237e+005 -2.6678e+006  1.3750e+006 144210 212663,212741,212689
 9.0000e+001 212793 -8.8009e+005 -2.8348e+006  1.4831e+006 144210 212663,212767,212741
 9.0000e+001 212991 -7.3355e-002 -2.5101e-002  4.2910e-002 143920 212890,212942,212916
 9.0000e+001 212968  1.6366e-001  5.6001e-002 -9.5733e-002 143920 212864,212942,212890
 9.0000e+001 213143  5.2895e+002 -3.0566e+002  6.1826e+001 143480 213016,213068,213042
 9.0000e+001 213120  7.3808e+000 -2.0872e+002 -7.2430e+001 143480 213016,213094,213068
 9.0000e+001 213295 -1.6668e+004 -2.6976e+005  7.6288e+004 142990 213194,213246,213220
 9.0000e+001 213272  4.2650e+003 -1.8401e+005  8.7277e+004 142990 213168,213246,213194
 9.0000e+001 213447  1.2986e+005 -3.4425e+005  2.5119e+005 142600 213320,213372,213346
 9.0000e+001 213424 -2.3572e+005 -4.5503e+005  3.2653e+005 142600 213320,213398,213372
 9.0000e+001 213599 -5.1908e+003 -9.9979e+004  4.6618e+004 142260 213472,213524,213498
 9.0000e+001 213576 -4.2465e+003 -1.0044e+005  1.5764e+004 142260 213472,213550,213524
 9.0000e+001 213751 -3.0032e+003  2.0380e+003  3.9490e+002 141870 213624,213676,213650
 9.0000e+001 213728 -1.7054e+004 -1.0985e+003  6.9343e+002 141870 213624,213702,213676
 9.0000e+001 213903 -1.2890e+006 -1.3907e+006 -1.4202e+006 141530 213776,213828,213802
 9.0000e+001 213880 -3.5000e+005 -1.6834e+006 -6.7519e+005 141530 213776,213854,213828
 9.0000e+001 214055 -5.7930e+006 -9.4978e+004  7.0367e+005 141218 213928,213980,213954
 9.0000e+001 214032 -3.5045e+006 -7.0186e+005  2.0449e+005 141218 213928,214006,213980
 9.0000e+001 214207 -9.7560e+001 -3.9934e+002  3.1529e+002 140928 214080,214132,214106
 9.0000e+001 214184 -1.2921e+002 -2.3139e+002 -8.4258e+001 140928 214080,214158,214132
 9.0000e+001 214359 -7.0508e+003 -6.7913e+004 -8.4443e+003 140538 214232,214284,214258
 9.0000e+001 214336 -1.7552e+004 -1.3421e+005  6.5230e+004 140538 214232,214310,214284
 9.0000e+001 214560 -8.3612e+005 -6.0650e+006  1.9410e+006 140248 214384,214462,214410
 9.0000e+001 214537 -3.1752e+005 -3.4647e+006  1.0454e+006 140248 214384,214488,214462
 9.0000e+001 214514 -5.1556e+005 -3.6779e+006  1.8739e+005 140248 214410,214462,214436
 9.0000e+001 214712 -6.4567e+004 -9.0654e+004  6.5483e+003 140000 214611,214663,214637
 9.0000e+001 214689 -4.1944e+004 -1.0403e+005  6.5856e+004 140000 214585,214663,214611
 9.0000e+001 214913 -1.1095e+005 -1.1887e+006 -4.4559e+005 139596 214737,214815,214763
 9.0000e+001 214890  1.5944e+004 -3.8867e+005 -2.5932e+005 139596 214737,214841,214815
 9.0000e+001 214867  6.6889e+005 -4.3070e+006  3.4591e+005 139596 214763,214815,214789
 9.0000e+001 215016 -5.9270e+001 -5.4928e+001 -5.3795e+001 139420 214938,214990,214964
 9.0000e+001 215168 -3.8758e+006 -9.2673e+006  6.1079e+006 139130 215067,215119,215093
 9.0000e+001 215145 -2.4780e+006 -1.0408e+007  4.3018e+006 139130 215041,215119,215067
 9.0000e+001 215320 -2.5502e+006 -4.1558e+006  2.7252e+006 138790 215219,215271,215245
 9.0000e+001 215297 -2.3570e+006 -1.0922e+007  6.2551e+006 138790 215193,215271,215219
 9.0000e+001 215472 -4.6888e+003 -1.0186e+005  3.8739e+004 138514 215345,215397,215371
 9.0000e+001 215449 -1.2715e+004 -4.0498e+004 -1.4790e+004 138514 215345,215423,215397
 9.0000e+001 215624 -3.9336e+005 -6.6320e+006  2.1072e+006 138174 215497,215549,215523
 9.0000e+001 215601 -5.7648e+005 -6.1450e+006  2.0766e+006 138174 215497,215575,215549
 9.0000e+001 215776  1.3417e+001  2.7105e+002  7.3427e+001 137734 215649,215701,215675
 9.0000e+001 215753 -3.8879e+001  3.2700e+002 -1.4551e+002 137734 215649,215727,215701
 9.0000e+001 215977  1.9396e+006 -7.7634e+006  1.2745e+005 137344 215801,215879,215827
 9.0000e+001 215954 -1.1207e+006 -1.3895e+006 -1.1329e+006 137344 215801,215905,215879
 9.0000e+001 215931 -1.3560e+005 -1.0436e+007 -5.4656e+006 137344 215827,215879,215853
 9.0000e+001 216129 -2.3156e+005 -3.8183e+005 -1.2728e+004 136940 216028,216080,216054
 9.0000e+001 216106 -1.6927e+005 -7.1625e+005  3.0544e+005 136940 216002,216080,216028
 9.0000e+001 216330 -6.8767e+005 -7.7207e+006  4.3657e+005 136600 216180,216232,216206
 9.0000e+001 216307 -1.7815e+006 -8.0343e+006  4.1958e+006 136600 216154,216232,216180
 9.0000e+001 216284 -8.1478e+005 -4.6489e+006  1.9803e+006 136600 216154,216258,216232
 9.0000e+001 216482  3.4753e+005 -4.3521e+006  1.1639e+006 136260 216381,216433,216407
 9.0000e+001 216459 -4.1547e+005 -2.1325e+006  9.8626e+005 136260 216355,216433,216381
 9.0000e+001 216634 -6.6784e+004 -4.8830e+004  4.9506e+004 135970 216533,216585,216559
 9.0000e+001 216611 -5.0937e+004 -1.4140e+005  1.0465e+005 135970 216507,216585,216533
 9.0000e+001 216835 -2.2765e+005 -2.2507e+006 -1.6397e+005 135608 216685,216763,216711
 9.0000e+001 216812 -3.3537e+005 -2.0545e+006  1.4588e+005 135608 216659,216763,216685
 9.0000e+001 216789 -2.5860e+003 -1.6606e+006  7.0039e+002 135608 216711,216763,216737
 9.0000e+001 217036 -2.0634e+005 -1.3270e+005  9.0405e+004 135312 216912,216964,216938
 9.0000e+001 217013 -1.4846e+005 -5.5979e+005  3.6883e+005 135312 216886,216964,216912
 9.0000e+001 216990  9.5032e+004 -1.1117e+006  2.4959e+005 135312 216860,216964,216886
 9.0000e+001 217237 -1.4160e+005 -4.7020e+005  2.5736e+005 134908 217061,217139,217113
 9.0000e+001 217214 -3.0197e+005 -5.4066e+005  4.5421e+005 134908 217061,217165,217139
 9.0000e+001 217191 -2.7041e+005 -8.2344e+005  4.3973e+005 134908 217061,217113,217087
 9.0000e+001 217438 -7.2595e+005 -9.8107e+006 -2.5434e+006 134568 217288,217366,217314
 9.0000e+001 217415 -1.5658e+006 -1.0125e+007 -2.8063e+006 134568 217262,217366,217288
 9.0000e+001 217392 -1.4469e+006 -1.2958e+007 -3.6101e+006 134568 217314,217366,217340
 9.0000e+001 217590  1.8190e+004 -1.0677e+005  3.2600e+004 134106 217463,217515,217489
 9.0000e+001 217567  3.1670e+003 -1.0114e+005  1.7021e+004 134106 217463,217541,217515
 9.0000e+001 217791 -3.0587e+003 -1.1372e+004 -5.8978e+003 133816 217641,217693,217667
 9.0000e+001 217768 -1.7005e+006 -1.3917e+007 -4.8648e+006 133816 217641,217719,217693
 9.0000e+001 217745 -7.3854e+006 -1.4418e+006  3.2631e+006 133816 217615,217719,217641
 9.0000e+001 217992 -4.0350e+006 -4.8456e+006  5.1156e+006 133355 217842,217920,217894
 9.0000e+001 217969 -2.6491e+006 -7.5454e+006  4.2353e+006 133355 217816,217920,217842
 9.0000e+001 217946 -7.4796e+005 -2.7025e+006  6.3606e+005 133355 217842,217894,217868
 9.0000e+001 218193 -9.8790e+004 -6.1572e+006  8.0711e+005 132851 218017,218095,218069
 9.0000e+001 218170 -5.8479e+006 -6.1326e+006  6.2376e+006 132851 218017,218121,218095
 9.0000e+001 218147 -1.4018e+006 -2.6000e+006 -5.4893e+005 132851 218017,218069,218043
 9.0000e+001 218345 -8.4635e+004 -8.4225e+004  6.8793e+004 132511 218244,218296,218270
 9.0000e+001 218322 -6.7056e+004 -2.0773e+005  1.2664e+005 132511 218218,218296,218244
 9.0000e+001 218497  2.5883e+006 -2.1961e+007  1.4894e+006 132235 218396,218448,218422
 9.0000e+001 218474  9.4843e+005 -1.0337e+007  1.8197e+006 132235 218370,218448,218396
 9.0000e+001 218698 -1.2238e+005 -7.4341e+006 -1.6686e+006 131945 218574,218626,218600
 9.0000e+001 218675 -1.2684e+006 -1.1553e+007 -2.2159e+006 131945 218522,218626,218574
 9.0000e+001 218652 -2.6818e+006 -5.9235e+006 -3.3321e+006 131945 218522,218574,218548
 9.0000e+001 218850 -7.9557e+005 -1.2756e+007  1.7044e+006 131655 218723,218775,218749
 9.0000e+001 218827 -9.2025e+003 -1.2047e+007  1.0872e+006 131655 218723,218801,218775
 9.0000e+001 218953 -1.0432e+005 -7.6355e+004 -2.8586e+004 131215 218875,218927,218901
 9.0000e+001 219105 -5.6812e+004 -1.4323e+006 -4.0564e+004 130875 218978,219030,219004
 9.0000e+001 219082 -2.0333e+004 -6.8232e+005  2.5214e+004 130875 218978,219056,219030
 9.0000e+001 219306 -2.0276e+005 -1.0751e+006  4.1797e+004 130429 219156,219234,219208
 9.0000e+001 219283 -1.4350e+005 -8.3185e+005  1.1838e+005 130429 219130,219234,219156
 9.0000e+001 219260 -7.6686e+005 -1.2123e+006  9.8058e+005 130429 219156,219208,219182
 9.0000e+001 219507 -4.7291e+005 -1.1019e+006  3.7779e+005 130025 219383,219435,219409
 9.0000e+001 219484 -4.2860e+005 -1.2712e+006  5.1912e+005 130025 219331,219435,219383
 9.0000e+001 219461 -3.0937e+005 -9.5013e+005  3.4415e+005 130025 219331,219383,219357
 9.0000e+001 219659 -1.1204e-002 -8.0417e-001  9.4919e-002 129685 219558,219610,219584
 9.0000e+001 219636  2.5788e-002  1.8510e+000 -2.1848e-001 129685 219532,219610,219558
 9.0000e+001 219860 -1.3669e+005 -9.7112e+005  4.1844e+005 129395 219710,219788,219762
 9.0000e+001 219837 -1.7442e+005 -1.1685e+006  3.8457e+005 129395 219684,219788,219710
 9.0000e+001 219814 -8.3590e+004 -1.2442e+006  2.3628e+005 129395 219710,219762,219736
 9.0000e+001 220061 -1.1106e+005 -5.4721e+005 -1.3328e+005 128991 219937,219989,219963
 9.0000e+001 220038 -1.7271e+005 -5.1232e+005 -1.5991e+005 128991 219885,219989,219937
 9.0000e+001 220015 -2.0402e+005 -6.6729e+005  1.5304e+004 128991 219885,219937,219911
 9.0000e+001 220262 -1.3373e+005 -2.9587e+005 -2.7886e+004 128701 220086,220164,220112
 9.0000e+001 220239 -1.3357e+005 -3.2619e+005 -1.1314e+004 128701 220086,220190,220164
 9.0000e+001 220216 -3.7982e+005 -6.6135e+005 -4.2627e+005 128701 220112,220164,220138
 9.0000e+001 220463 -3.6311e+006 -9.3432e+006  4.6883e+006 128297 220339,220391,220365
 9.0000e+001 220440 -2.5206e+006 -1.1226e+007  4.2050e+006 128297 220313,220391,220339
 9.0000e+001 220417 -8.8183e+005 -1.5708e+007 -5.2939e+006 128297 220287,220391,220313
 9.0000e+001 220615 -5.8776e-002 -2.1001e-002 -3.5133e-002 128007 220488,220540,220514
 9.0000e+001 220592  6.3940e-002  2.2846e-002  3.8220e-002 128007 220488,220566,220540
 9.0000e+001 220767 -1.7708e+005 -3.1713e+006  5.8839e+005 127567 220640,220692,220666
 9.0000e+001 220744 -2.6412e+005 -2.2319e+006  4.8270e+005 127567 220640,220718,220692
 9.0000e+001 220919 -6.3166e+005 -1.2656e+007 -1.2446e+006 127163 220792,220844,220818
 9.0000e+001 220896 -1.1088e+006 -1.6296e+007  3.4932e+006 127163 220792,220870,220844
 9.0000e+001 221071 -3.9259e+006 -3.2326e+006  3.2732e+006 126915 220970,221022,220996
 9.0000e+001 221048 -2.0263e+006 -6.4051e+006  2.9220e+006 126915 220944,221022,220970
 9.0000e+001 221272 -2.5525e+006 -5.6605e+006  3.8860e+006 126461 221122,221174,221148
 9.0000e+001 221249 -2.1191e+005 -5.9932e+006  1.5030e+006 126461 221122,221200,221174
 9.0000e+001 221226 -1.7664e+006 -3.5383e+006  2.5000e+006 126461 221096,221200,221122
 9.0000e+001 221375  4.2306e+000 -4.0777e+001  3.1040e-001 126213 221297,221349,221323
 9.0000e+001 221478 -2.0547e+002 -3.4957e+000 -2.6705e+001 125766 221400,221452,221426
 9.0000e+001 221679 -3.0201e+004 -1.4482e+005  1.3346e+004 125212 221503,221555,221529
 9.0000e+001 221656 -2.5016e+004 -2.6688e+005 -3.9768e+004 125212 221503,221581,221555
 9.0000e+001 221633  1.2524e+005 -9.2297e+005  3.0387e+005 125212 221503,221607,221581
 9.0000e+001 221929  2.4075e+002 -3.9581e+002 -1.9778e+002 124872 221782,221834,221808
 9.0000e+001 221906 -1.5234e+002 -1.0956e+003  1.2593e+002 124872 221756,221834,221782
 9.0000e+001 221883 -4.2479e+002 -1.4085e+002 -5.5691e+002 124872 221704,221834,221756
 9.0000e+001 221860 -7.2671e+002 -6.7592e+000 -1.0754e+002 124872 221704,221756,221730
 9.0000e+001 222130 -8.6430e+005 -5.4778e+006 -1.4890e+005 124582 221980,222058,222006
 9.0000e+001 222107 -2.2981e+006 -4.6667e+006  4.5132e+005 124582 221954,222058,221980
 9.0000e+001 222084 -2.0306e+006 -5.8127e+006 -7.4293e+005 124582 222006,222058,222032
 9.0000e+001 222282 -2.5122e+006 -5.0048e+006 -4.2999e+005 124192 222181,222233,222207
 9.0000e+001 222259 -3.9759e+005 -4.3474e+006  2.3258e+004 124192 222155,222233,222181
 9.0000e+001 222483  1.9601e+001  4.4302e+001  4.6328e+001 123702 222333,222385,222359
 9.0000e+001 222460  2.2610e+002  7.8872e+001  5.3735e+001 123702 222333,222411,222385
 9.0000e+001 222437  1.1642e+002  1.1358e+002 -1.4030e+002 123702 222307,222411,222333
 9.0000e+001 222635 -8.2880e+002 -2.1737e+003  1.3924e+003 123312 222508,222560,222534
 9.0000e+001 222612 -1.3267e+003 -2.0669e+003  1.6277e+003 123312 222508,222586,222560
 9.0000e+001 222787 -1.0087e+005 -8.6240e+005  1.0972e+004 122858 222686,222738,222712
 9.0000e+001 222764 -1.0750e+005 -7.0480e+005 -1.4929e+005 122858 222660,222738,222686
 9.0000e+001 222939 -1.5396e+004 -3.5730e+005 -2.0788e+003 122568 222812,222864,222838
 9.0000e+001 222916  2.2359e+004 -2.0286e+005 -7.2312e+003 122568 222812,222890,222864
 9.0000e+001 223091  9.0856e+001  5.1523e+000 -1.0364e+002 122392 222964,223016,222990
 9.0000e+001 223068 -4.9845e+001 -1.0396e+002  3.2904e+000 122392 222964,223042,223016
 9.0000e+001 223292 -5.9694e+005 -1.4035e+006  3.3883e+005 121852 223142,223220,223194
 9.0000e+001 223269 -2.3452e+006 -6.0810e+005  4.8797e+005 121852 223116,223220,223142
 9.0000e+001 223246 -1.7674e+006 -1.5220e+006 -6.2872e+005 121852 223142,223194,223168
 9.0000e+001 223493 -5.9923e+004 -2.9857e+005  1.4114e+005 121406 223343,223395,223369
 9.0000e+001 223470 -4.0851e+005 -6.0680e+005  5.3308e+005 121406 223343,223421,223395
 9.0000e+001 223447 -3.7547e+005 -6.5157e+005  4.9045e+005 121406 223317,223421,223343
 9.0000e+001 223645  2.9092e+005 -1.7628e+007  3.2762e+006 121002 223544,223596,223570
 9.0000e+001 223622 -1.7424e+006 -1.2783e+007  3.2431e+006 121002 223518,223596,223544
 9.0000e+001 223846 -1.7825e+005 -3.1881e+006  6.6255e+005 120662 223670,223748,223696
 9.0000e+001 223823  2.8243e+005 -1.8496e+006  3.4770e+005 120662 223670,223774,223748
 9.0000e+001 223800 -3.5696e+005 -1.2281e+006 -6.2144e+005 120662 223696,223748,223722
 9.0000e+001 224047 -5.4747e+005 -1.3446e+006  8.5793e+005 120222 223897,223949,223923
 9.0000e+001 224024  2.6044e+005 -2.5531e+006  2.5717e+005 120222 223871,223949,223897
 9.0000e+001 224001 -2.6980e+005 -1.6163e+006 -3.6452e+005 120222 223871,223975,223949
 9.0000e+001 224248 -5.4891e+003 -3.0222e+004 -1.6738e+004 119875 224124,224176,224150
 9.0000e+001 224225 -1.0077e+004 -3.3716e+004 -1.9266e+004 119875 224098,224176,224124
 9.0000e+001 224202 -1.9584e+003 -1.7719e+004  1.6928e+003 119875 224072,224176,224098
 9.0000e+001 224449  1.1169e+005 -1.4596e+006  2.5222e+005 119677 224325,224377,224351
 9.0000e+001 224426 -1.6700e+005 -2.5767e+006  3.1785e+005 119677 224299,224377,224325
 9.0000e+001 224403 -2.6954e+005 -5.8509e+005  1.9696e+005 119677 224273,224377,224299
 9.0000e+001 224552 -6.3818e+005 -9.2657e+005 -3.6632e+005 119273 224474,224526,224500
 9.0000e+001 224704 -8.3455e+004 -6.2791e+005  2.2885e+005 118983 224603,224655,224629
 9.0000e+001 224681 -8.9304e+004 -6.2131e+005  2.3355e+005 118983 224577,224655,224603
 9.0000e+001 224856 -6.8133e+005 -2.0600e+004  1.8726e+004 118529 224755,224807,224781
 9.0000e+001 224833  1.0628e+005 -1.1461e+006  2.8227e+005 118529 224729,224807,224755
 9.0000e+001 225008 -1.4378e+005 -4.1236e+006 -2.8708e+003 118353 224881,224933,224907
 9.0000e+001 224985 -1.4611e+004 -2.2699e+005 -6.6297e+003 118353 224881,224959,224933
 9.0000e+001 225209 -1.4893e+006 -6.0750e+006 -2.2151e+006 117949 225059,225137,225111
 9.0000e+001 225186 -2.5144e+005 -3.7476e+006  9.7034e+005 117949 225033,225137,225059
 9.0000e+001 225163  1.1806e+006 -1.5029e+007  2.6188e+006 117949 225059,225111,225085
 9.0000e+001 225410  1.1934e+005 -1.0345e+007  5.3220e+005 117559 225260,225338,225312
 9.0000e+001 225387 -2.9668e+006 -1.1067e+007  4.9731e+005 117559 225234,225338,225260
 9.0000e+001 225364 -8.4483e+005 -7.8677e+006 -2.5783e+006 117559 225260,225312,225286
 9.0000e+001 225611 -2.1682e+006 -1.2948e+007 -4.1967e+006 117361 225461,225513,225487
 9.0000e+001 225588 -3.5555e+006 -1.4475e+007  2.7637e+006 117361 225461,225539,225513
 9.0000e+001 225565 -6.4172e+005 -1.7109e+007  1.1501e+006 117361 225435,225539,225461
 9.0000e+001 225812  6.1701e+005 -1.3098e+007  4.3072e+003 116900 225636,225714,225662
 9.0000e+001 225789 -3.2706e+006 -3.2361e+006 -1.5391e+006 116900 225636,225740,225714
 9.0000e+001 225766 -4.6184e+002 -1.3252e+007  7.2109e+004 116900 225662,225714,225688
 9.0000e+001 225964  1.3180e+005 -9.7475e+006  9.4116e+004 116560 225837,225889,225863
 9.0000e+001 225941  5.0434e+005 -9.4590e+006 -1.0351e+005 116560 225837,225915,225889
 9.0000e+001 226165  1.2994e+005 -3.2398e+006  1.3273e+006 116106 226015,226093,226041
 9.0000e+001 226142 -2.3519e+005 -1.4478e+006 -5.7951e+005 116106 225989,226093,226015
 9.0000e+001 226119 -8.2627e+004 -3.5893e+006  5.4330e+005 116106 226041,226093,226067
 9.0000e+001 226268 -2.1651e+006 -4.9794e+006  1.9599e+006 115716 226190,226242,226216
 9.0000e+001 226420 -1.6741e+005 -1.5251e+007  2.5061e+006 115376 226293,226345,226319
 9.0000e+001 226397 -5.8009e+005 -1.6624e+007  4.9403e+006 115376 226293,226371,226345
 9.0000e+001 226621 -9.8388e+005 -3.1860e+006  6.0768e+005 114972 226497,226549,226523
 9.0000e+001 226598 -7.4720e+005 -1.7469e+007 -5.6082e+005 114972 226445,226549,226497
 9.0000e+001 226575  4.7009e+005 -8.0962e+006  1.1101e+006 114972 226445,226497,226471
 9.0000e+001 226773 -1.2825e+006 -5.9394e+006 -2.0209e+006 114670 226646,226698,226672
 9.0000e+001 226750  7.9873e+005 -1.2039e+007  1.2137e+006 114670 226646,226724,226698
 9.0000e+001 226974  5.9431e+004 -4.3356e+006  1.0805e+005 114082 226798,226850,226824
 9.0000e+001 226951  1.4904e+005 -4.4286e+006  1.2288e+005 114082 226798,226902,226850
 9.0000e+001 226928 -3.4932e+005 -6.8729e+006  8.2631e+004 114082 226850,226902,226876
 9.0000e+001 227175 -8.8355e+005 -8.7047e+006 -3.5953e+006 113678 226999,227051,227025
 9.0000e+001 227152 -1.6402e+006 -1.1289e+007 -4.1763e+006 113678 226999,227077,227051
 9.0000e+001 227129 -3.3255e+006 -5.2658e+006 -3.3080e+006 113678 226999,227103,227077
 9.0000e+001 227425 -3.7494e+006 -7.6867e+006 -7.1310e+006 113274 227226,227278,227252
 9.0000e+001 227402  1.1266e+005 -7.4438e+006 -1.2621e+006 113274 227226,227330,227278
 9.0000e+001 227379 -2.7294e+006 -2.4658e+006 -5.6721e+005 113274 227200,227330,227226
 9.0000e+001 227356 -1.3028e+006 -4.2986e+005 -7.4835e+005 113274 227278,227330,227304
 9.0000e+001 227626 -1.7923e+006 -5.3052e+006 -3.1181e+006 112934 227502,227554,227528
 9.0000e+001 227603  8.0107e+005 -5.0738e+006 -4.2335e+005 112934 227450,227554,227502
 9.0000e+001 227580 -1.2476e+006 -2.3847e+006  1.4846e+006 112934 227450,227502,227476
 9.0000e+001 227876 -3.4212e+005 -1.5577e+006 -2.5586e+005 112437 227677,227755,227703
 9.0000e+001 227853 -1.2993e+006 -1.8697e+006  1.5875e+006 112437 227677,227781,227755
 9.0000e+001 227830 -2.8118e+005 -5.3892e+005  3.0313e+005 112437 227703,227755,227729
 9.0000e+001 227807  7.6517e+005 -9.6593e+006 -6.1409e+005 112437 227651,227781,227677
 9.0000e+001 228126 -2.6659e+005 -4.6436e+006 -5.5483e+005 112041 227927,228005,227953
 9.0000e+001 228103 -4.8862e+005 -4.6589e+006 -5.8304e+005 112041 227927,228031,228005
 9.0000e+001 228080 -3.6444e+004 -5.6065e+006 -4.1313e+005 112041 227953,228005,227979
 9.0000e+001 228057 -1.0560e+006 -3.6316e+006 -9.6332e+005 112041 227901,228031,227927
 9.0000e+001 228327 -2.9008e+006 -4.1721e+006  4.1839e+004 111693 228151,228203,228177
 9.0000e+001 228304 -6.9680e+005 -3.1101e+006 -1.3689e+006 111693 228151,228229,228203
 9.0000e+001 228281  4.1124e+005 -6.4467e+006  1.0903e+006 111693 228151,228255,228229
 9.0000e+001 228479 -2.1558e+002 -9.0295e-001 -1.1351e+002 111253 228352,228404,228378
 9.0000e+001 228456 -1.4722e+002  1.5573e+002  2.1842e+001 111253 228352,228430,228404
 9.0000e+001 228582  4.4637e-165 -3.0332e-165 -3.8848e-165 110906 228504,228556,228530
 9.0000e+001 228783  5.9781e+004 -8.0976e+005 -8.8000e+004 110416 228633,228711,228659
 9.0000e+001 228760 -3.1619e+004 -1.2536e+006 -4.9096e+004 110416 228607,228711,228633
 9.0000e+001 228737  7.1475e+004 -1.7961e+006 -8.7444e+004 110416 228659,228711,228685
 9.0000e+001 228935 -5.5255e+005 -3.8729e+006 -1.8315e+006 110012 228808,228860,228834
 9.0000e+001 228912 -2.1174e+006 -7.3245e+006 -3.0512e+006 110012 228808,228886,228860
 9.0000e+001 229087 -2.8237e+006 -2.9885e+006 -2.1236e+006 109672 228960,229012,228986
 9.0000e+001 229064  4.8379e+005 -6.8403e+006 -1.3489e+006 109672 228960,229038,229012
 9.0000e+001 229190  2.4348e-165  2.9891e-165 -3.7902e-165 109332 229112,229164,229138
 9.0000e+001 229391  8.4211e+001  5.5533e+001  6.1695e+001 109156 229267,229319,229293
 9.0000e+001 229368 -1.4696e+002  3.0320e+002 -2.6052e+002 109156 229215,229319,229267
 9.0000e+001 229345 -2.5181e+002  1.6604e+002 -5.8129e+001 109156 229215,229267,229241
 9.0000e+001 229543  8.3244e+005 -8.9020e+006  1.1443e+006 108752 229416,229468,229442
 9.0000e+001 229520 -4.4828e+005 -3.9656e+006 -5.1217e+005 108752 229416,229494,229468
 9.0000e+001 229744 -2.5659e+005 -5.1893e+006 -4.1622e+003 108198 229594,229646,229620
 9.0000e+001 229721  4.5825e+003 -5.1162e+006 -1.1692e+005 108198 229594,229672,229646
 9.0000e+001 229698 -4.7371e+005 -5.1966e+006 -2.0693e+005 108198 229568,229672,229594
 9.0000e+001 229847  8.0223e+000 -1.4893e+002 -1.9075e+002 107758 229769,229821,229795
 9.0000e+001 230048 -9.4745e+005 -3.0958e+006 -8.4557e+005 107468 229898,229950,229924
 9.0000e+001 230025 -5.5577e+005 -2.3623e+006  4.7460e+005 107468 229872,229950,229898
 9.0000e+001 230002 -9.2126e+005 -1.5737e+006 -2.5244e+005 107468 229872,229976,229950
 9.0000e+001 230298  2.1435e+005 -1.5308e+006  8.9253e+005 107121 230099,230203,230177
 9.0000e+001 230275 -5.0949e+005 -8.1189e+005  3.3697e+005 107121 230073,230203,230099
 9.0000e+001 230252  8.6228e+005 -2.2754e+006 -7.1766e+005 107121 230099,230177,230151
 9.0000e+001 230229 -2.9078e+005 -2.3285e+006 -8.2285e+005 107121 230099,230151,230125
 9.0000e+001 230450 -3.7191e+005 -4.6289e+005  1.4454e+005 106823 230349,230401,230375
 9.0000e+001 230427 -7.0988e+004 -1.0796e+006  6.8112e+004 106823 230323,230401,230349
 9.0000e+001 230602 -5.7420e+006 -7.1276e+006 -9.4546e+006 106533 230501,230553,230527
 9.0000e+001 230579  3.8281e+006 -1.6657e+007  5.6473e+006 106533 230475,230553,230501
 9.0000e+001 230803 -7.5917e+004 -1.3808e+006 -1.0093e+005 106029 230679,230731,230705
 9.0000e+001 230780  7.6337e+004 -7.4115e+005 -3.6811e+004 106029 230653,230731,230679
 9.0000e+001 230757  4.8821e+004 -1.6595e+006 -1.5745e+005 106029 230627,230731,230653
 9.0000e+001 231004 -2.0280e+005 -3.8976e+006  3.3150e+005 105689 230854,230906,230880
 9.0000e+001 230981  2.2250e+005 -4.3811e+006 -2.3395e+005 105689 230828,230906,230854
 9.0000e+001 230958 -7.8642e+005 -2.8722e+006 -1.4380e+006 105689 230828,230932,230906
 9.0000e+001 231156  2.5140e+005 -6.9050e+006 -2.7133e+005 105377 231055,231107,231081
 9.0000e+001 231133 -3.3047e+005 -4.5275e+006  3.8183e+005 105377 231029,231107,231055
 9.0000e+001 231406 -1.1173e+006 -7.0020e+006 -1.2259e+006 104858 231207,231259,231233
 9.0000e+001 231383 -1.6984e+006 -6.7439e+006 -1.7392e+006 104858 231207,231311,231259
 9.0000e+001 231360 -1.0380e+006 -8.2024e+006 -2.3713e+006 104858 231259,231311,231285
 9.0000e+001 231337 -1.0237e+006 -8.1921e+006 -2.0402e+006 104858 231181,231311,231207
 9.0000e+001 231558 -7.1177e+005 -1.9619e+007  5.2437e+005 104418 231457,231509,231483
 9.0000e+001 231535 -5.9763e+006 -1.9906e+007 -1.0499e+007 104418 231431,231509,231457
 9.0000e+001 231710 -3.3236e+006 -4.4516e+005  1.0507e+005 103978 231583,231635,231609
 9.0000e+001 231687 -1.9174e+006 -8.0096e+005 -6.6241e+005 103978 231583,231661,231635
 9.0000e+001 231862 -1.7787e+006 -1.0108e+007 -1.3032e+006 103588 231761,231813,231787
 9.0000e+001 231839  1.8260e+005 -2.8553e+006 -4.0204e+005 103588 231735,231813,231761
 9.0000e+001 232014 -1.0553e+006 -8.1335e+006 -3.2200e+006 103248 231887,231939,231913
 9.0000e+001 231991 -2.2895e+006 -1.2342e+007 -4.7875e+006 103248 231887,231965,231939
 9.0000e+001 232215 -2.0229e+004 -1.7707e+004 -2.4877e+003 102844 232039,232117,232065
 9.0000e+001 232192 -1.6480e+004 -2.8335e+003 -3.7313e+003 102844 232039,232143,232117
 9.0000e+001 232169 -4.9219e+004 -1.9147e+004 -8.6421e+002 102844 232065,232117,232091
 9.0000e+001 232416 -2.7691e+006 -7.3366e+006 -3.6925e+006 102554 232240,232318,232292
 9.0000e+001 232393  5.5935e+005 -1.2593e+007 -4.7642e+005 102554 232240,232344,232318
 9.0000e+001 232370 -4.0673e+006 -2.2857e+006 -6.3255e+005 102554 232240,232292,232266
 9.0000e+001 232568 -2.7235e+004 -3.7879e+006  3.0533e+005 102100 232441,232493,232467
 9.0000e+001 232545 -6.0043e+004 -3.7989e+006  3.1752e+005 102100 232441,232519,232493
 9.0000e+001 232769 -2.4009e+005 -3.0218e+006  4.7789e+005 101596 232645,232697,232671
 9.0000e+001 232746  7.8922e+004 -1.8527e+006  2.8597e+005 101596 232593,232697,232645
 9.0000e+001 232723 -4.5493e+004 -2.4411e+006  4.2932e+005 101596 232593,232645,232619
 9.0000e+001 232921 -4.0989e+005 -2.3295e+005  3.7917e+004 101420 232794,232846,232820
 9.0000e+001 232898 -4.5389e+005 -4.4133e+005  5.3587e+004 101420 232794,232872,232846
 9.0000e+001 233073 -1.1742e+006 -2.5093e+006 -7.6916e+005 101023 232946,232998,232972
 9.0000e+001 233050  5.7991e+005 -6.0834e+006  2.1029e+006 101023 232946,233024,232998
 9.0000e+001 233225  1.7839e+003 -2.8988e+004  4.5448e+002 100661 233098,233150,233124
 9.0000e+001 233202 -4.0128e+003  1.1263e+004 -3.2000e+003 100661 233098,233176,233150
 9.0000e+001 233426 -1.2655e+006 -6.5570e+006 -2.3312e+006 100265 233276,233328,233302
 9.0000e+001 233403 -1.0603e+006 -6.1115e+006 -1.2224e+006 100265 233276,233354,233328
 9.0000e+001 233380 -1.1612e+006 -6.2424e+006 -1.2904e+006 100265 233250,233354,233276
 9.0000e+001 233578 -1.4868e+004 -2.8916e+006  2.0786e+005 100032 233451,233503,233477
 9.0000e+001 233555 -1.1314e+005 -2.8404e+006  6.2576e+005 100032 233451,233529,233503
 9.0000e+001 233681 -2.3631e+006 -1.3469e+005 -9.9263e+004 99742 233603,233655,233629
 9.0000e+001 233784 -5.0612e+005 -1.3462e+006  7.8918e+005 99402 233706,233758,233732
 9.0000e+001 233936 -6.7183e+005 -1.3278e+006  8.1171e+005 99062 233835,233887,233861
 9.0000e+001 233913 -6.9577e+005 -1.3848e+006  6.5144e+005 99062 233809,233887,233835
 9.0000e+001 234088 -5.3131e+005 -9.8848e+005  4.4796e+005 98772 233987,234039,234013
 9.0000e+001 234065 -1.7301e+005 -9.5938e+005  3.6838e+005 98772 233961,234039,233987
 9.0000e+001 234240 -6.1318e+003 -9.6584e+004  2.8097e+004 98160 234139,234191,234165
 9.0000e+001 234217 -1.1681e+004 -1.1509e+005  3.2276e+004 98160 234113,234191,234139
 9.0000e+001 234441  2.5774e+001 -6.0070e+001  3.4697e+001 97820 234317,234369,234343
 9.0000e+001 234418  5.3119e+001  2.7986e+001  2.0829e+001 97820 234291,234369,234317
 9.0000e+001 234395 -5.2946e+001  5.0775e+001 -3.0890e+001 97820 234265,234369,234291
 9.0000e+001 234593 -8.7389e+004 -2.3464e+005  7.8157e+004 97366 234466,234518,234492
 9.0000e+001 234570 -1.8715e+005 -3.9095e+005  1.4975e+005 97366 234466,234544,234518
 9.0000e+001 234794 -3.7432e+005 -3.7106e+005 -2.3453e+005 96976 234618,234670,234644
 9.0000e+001 234771 -1.0511e+005 -7.4440e+005 -2.1325e+005 96976 234618,234722,234670
 9.0000e+001 234748 -1.2589e+005 -8.0906e+005 -2.2669e+005 96976 234670,234722,234696
 9.0000e+001 234946 -4.7930e+005 -2.2799e+005  2.9514e+005 96568 234845,234897,234871
 9.0000e+001 234923 -4.2402e+005 -3.7667e+005  5.9611e+005 96568 234819,234897,234845
 9.0000e+001 235196 -7.9751e+004 -5.1401e+005 -2.2751e+004 96216 234997,235075,235049
 9.0000e+001 235173 -3.1827e+004 -1.1412e+006  2.3392e+005 96216 234997,235101,235075
 9.0000e+001 235150 -3.1993e+005 -1.0257e+006  2.2619e+005 96216 234997,235049,235023
 9.0000e+001 235127 -4.1124e+004 -1.1510e+006  2.1761e+005 96216 234971,235101,234997
 9.0000e+001 235348 -1.1934e+006 -1.6766e+006 -5.2994e+005 95863 235247,235299,235273
 9.0000e+001 235325 -1.1248e+006 -1.2433e+006 -5.5065e+005 95863 235221,235299,235247
 9.0000e+001 235500 -7.7107e+004 -6.0811e+005  1.1567e+005 95339 235373,235425,235399
 9.0000e+001 235477 -2.4902e+005 -7.7219e+005  9.3707e+005 95339 235373,235451,235425
 9.0000e+001 235701  5.6640e+004 -1.3731e+006  3.2586e+005 95023 235525,235577,235551
 9.0000e+001 235678 -1.2308e+004 -1.0324e+006  4.1685e+004 95023 235525,235629,235577
 9.0000e+001 235655  7.1787e+004 -1.2744e+006  6.1994e+004 95023 235577,235629,235603
 9.0000e+001 235853 -1.0170e+004 -1.2440e+007 -5.3863e+005 94671 235726,235778,235752
 9.0000e+001 235830  2.5644e+005 -1.3842e+007  5.1297e+005 94671 235726,235804,235778
 9.0000e+001 236005 -2.3956e+006 -6.1239e+006  1.3829e+006 94261 235904,235956,235930
 9.0000e+001 235982 -1.1913e+006 -1.1400e+007 -3.8627e+006 94261 235878,235956,235904
 9.0000e+001 236206 -2.2230e+006 -6.6411e+005  8.4677e+005 93853 236056,236134,236082
 9.0000e+001 236183 -2.3890e+006 -7.1791e+005  5.8562e+005 93853 236030,236134,236056
 9.0000e+001 236160 -1.6269e+006 -8.6561e+005  1.0078e+006 93853 236082,236134,236108
 9.0000e+001 236407 -1.4823e+006 -3.0811e+006  6.9306e+005 93557 236257,236309,236283
 9.0000e+001 236384 -2.6198e+006 -3.9972e+006 -2.3923e+006 93557 236231,236309,236257
 9.0000e+001 236361  1.5156e+006 -1.8157e+007  2.1334e+006 93557 236231,236335,236309
 9.0000e+001 236559 -5.1889e+003 -1.4991e+004  4.1783e+003 93149 236432,236484,236458
 9.0000e+001 236536 -5.1297e+003 -1.5110e+004  4.3767e+003 93149 236432,236510,236484
 9.0000e+001 236711 -9.7081e+004 -1.1056e+005  1.0195e+005 92853 236584,236636,236610
 9.0000e+001 236688 -8.4882e+004 -1.0046e+005  9.4977e+004 92853 236584,236662,236636
 9.0000e+001 236912 -1.8095e+005 -5.8908e+005  2.9768e+005 92501 236736,236788,236762
 9.0000e+001 236889 -2.9367e+005 -3.6186e+005  1.8025e+005 92501 236736,236840,236788
 9.0000e+001 236866 -2.9200e+005 -5.1922e+005  7.3136e+004 92501 236788,236840,236814
 9.0000e+001 237113 -5.5356e+004 -3.3425e+006  9.7910e+004 92291 236963,237041,237015
 9.0000e+001 237090  1.8881e+005 -1.9315e+006  1.0963e+005 92291 236937,237041,236963
 9.0000e+001 237067 -1.5212e+005 -3.0333e+006  6.7860e+005 92291 236963,237015,236989
 9.0000e+001 237265  4.8043e+004 -1.8097e+005 -2.6002e+005 91871 237138,237190,237164
 9.0000e+001 237242 -1.3477e+005 -8.0781e+005 -3.6992e+005 91871 237138,237216,237190
 9.0000e+001 237368 -4.9275e+004 -1.8353e+006 -1.5663e+005 91581 237290,237342,237316
 9.0000e+001 237520 -6.6227e+004 -1.4257e+005  9.7386e+004 91184 237419,237471,237445
 9.0000e+001 237497 -7.1968e+004 -8.4676e+004  1.4900e+005 91184 237393,237471,237419
 9.0000e+001 237672 -2.0766e+005 -5.6141e+005 -9.9546e+004 90894 237545,237597,237571
 9.0000e+001 237649 -1.4686e+004 -1.5922e+006  3.6831e+005 90894 237545,237623,237597
 9.0000e+001 237873 -2.3294e+005 -1.7216e+006  7.2090e+005 90490 237749,237801,237775
 9.0000e+001 237850 -1.1223e+005 -2.4076e+006  8.7121e+005 90490 237723,237801,237749
 9.0000e+001 237827 -4.2655e+005 -2.4814e+006  4.7070e+005 90490 237697,237801,237723
 9.0000e+001 238074 -5.1247e+005 -4.0102e+006  1.8930e+005 90100 237898,237976,237950
 9.0000e+001 238051 -1.8874e+006 -3.9786e+006 -2.4346e+005 90100 237898,238002,237976
 9.0000e+001 238028 -7.8018e+005 -1.6398e+006  4.4361e+005 90100 237898,237950,237924
 9.0000e+001 238275 -3.6855e+004 -3.7854e+005  1.1756e+005 89696 238125,238177,238151
 9.0000e+001 238252 -4.0536e+005 -2.1026e+005 -3.0726e+005 89696 238099,238177,238125
 9.0000e+001 238229 -2.6224e+005 -1.1251e+006 -3.4221e+005 89696 238099,238203,238177
 9.0000e+001 238427 -6.0862e+003 -1.9267e+003  3.4819e+003 89206 238326,238378,238352
 9.0000e+001 238404 -4.4147e+003 -3.9061e+003  4.4881e+003 89206 238300,238378,238326
 9.0000e+001 238579 -1.3031e+005 -7.0726e+005 -6.9264e+004 88908 238452,238504,238478
 9.0000e+001 238556 -6.7362e+004 -7.1739e+005 -1.9736e+004 88908 238452,238530,238504
 9.0000e+001 238682 -7.9556e-002 -1.4695e+001  2.3576e+001 88568 238604,238656,238630
 9.0000e+001 238883 -3.0534e+005 -3.2680e+006  1.3745e+006 88278 238733,238811,238785
 9.0000e+001 238860 -5.8112e+005 -2.3147e+006  1.3418e+006 88278 238707,238811,238733
 9.0000e+001 238837 -1.1401e+005 -3.5588e+006  6.3715e+005 88278 238733,238785,238759
 9.0000e+001 239035 -2.4213e+006 -3.9795e+006 -7.3562e+005 87988 238908,238960,238934
 9.0000e+001 239012 -2.6104e+006 -2.0529e+006 -4.9892e+004 87988 238908,238986,238960
 9.0000e+001 239138 -6.8772e+005 -7.8822e+005 -3.9748e+005 87648 239060,239112,239086
 9.0000e+001 239339 -4.0189e+006 -3.3299e+006 -3.2369e+006 87358 239163,239215,239189
 9.0000e+001 239316 -4.0031e+006 -1.0748e+006 -3.8323e+005 87358 239163,239241,239215
 9.0000e+001 239293 -1.3067e+006 -1.2421e+006 -9.2369e+005 87358 239163,239267,239241
 9.0000e+001 239589  3.9534e+003 -2.2943e+005  3.7675e+004 86961 239390,239468,239416
 9.0000e+001 239566 -4.2541e+004 -1.3651e+005  2.0925e+005 86961 239390,239494,239468
 9.0000e+001 239543 -5.3805e+003 -3.0801e+004  2.5214e+004 86961 239416,239468,239442
 9.0000e+001 239520 -3.0849e+005 -2.1324e+004  1.6349e+005 86961 239364,239494,239390
 9.0000e+001 239741 -1.1828e+006 -8.9980e+005  5.4342e+004 86621 239640,239692,239666
 9.0000e+001 239718 -4.4168e+005 -2.5171e+006 -1.0681e+006 86621 239614,239692,239640
 9.0000e+001 239893 -6.7498e+005 -2.4911e+006  8.8943e+005 86217 239792,239844,239818
 9.0000e+001 239870 -5.5306e+005 -3.5755e+006  1.4053e+006 86217 239766,239844,239792
 9.0000e+001 240045 -8.4705e+005 -2.7602e+006  9.9607e+005 85827 239918,239970,239944
 9.0000e+001 240022 -2.7318e+005 -2.5849e+006  1.9918e+005 85827 239918,239996,239970
 9.0000e+001 240197 -1.0250e+006 -4.0957e+006  5.2280e+005 85437 240096,240148,240122
 9.0000e+001 240174 -9.0454e+005 -7.2824e+005  3.3651e+005 85437 240070,240148,240096
 9.0000e+001 240349  1.7548e+004 -2.4137e+005  5.5933e+004 85147 240222,240274,240248
 9.0000e+001 240326 -1.3397e+004 -1.6709e+005 -2.6698e+004 85147 240222,240300,240274
 9.0000e+001 240501 -6.0327e+004 -3.1681e+005 -3.5027e+004 84807 240374,240426,240400
 9.0000e+001 240478 -3.2316e+005 -9.2541e+005  5.8997e+005 84807 240374,240452,240426
 9.0000e+001 240653 -1.1881e+001  5.2684e+001  3.8681e+001 84303 240552,240604,240578
 9.0000e+001 240630 -5.9553e+001  1.5115e+002 -1.0569e+002 84303 240526,240604,240552
 9.0000e+001 240854 -1.1624e+006 -8.7749e+006 -4.8594e+006 83929 240704,240756,240730
 9.0000e+001 240831  1.3612e+006 -6.5060e+006  2.4689e+006 83929 240704,240782,240756
 9.0000e+001 240808 -3.0959e+006  2.3878e+006  2.5688e+006 83929 240678,240782,240704
 9.0000e+001 241055 -4.5868e+003 -2.8229e+003  4.8236e+003 83539 240879,240957,240931
 9.0000e+001 241032 -6.4760e+004 -4.6099e+004  5.4264e+004 83539 240879,240983,240957
 9.0000e+001 241009 -1.5630e+004 -1.1007e+004  1.1173e+004 83539 240879,240931,240905
 9.0000e+001 241207 -2.5303e+004 -1.8519e+005  2.0561e+004 83079 241106,241158,241132
 9.0000e+001 241184  2.5416e+004 -2.4036e+005  3.9923e+004 83079 241080,241158,241106
 9.0000e+001 241408 -4.8629e+005 -6.4986e+005 -9.8583e+005 82665 241232,241284,241258
 9.0000e+001 241385 -1.7598e+005  1.6972e+006 -2.7517e+006 82665 241232,241336,241284
 9.0000e+001 241362 -2.7934e+006 -1.1637e+007  4.7232e+006 82665 241284,241336,241310
 9.0000e+001 241658 -2.7298e+005 -3.9620e+006  5.2464e+005 82375 241485,241563,241511
 9.0000e+001 241635 -3.5812e+004 -2.4096e+006  3.0533e+005 82375 241433,241563,241485
 9.0000e+001 241612 -1.2719e+005 -2.7997e+006  2.9902e+005 82375 241433,241485,241459
 9.0000e+001 241589 -6.6721e+005 -4.4523e+006  7.8662e+005 82375 241511,241563,241537
 9.0000e+001 241810 -8.3331e+005 -7.8843e+005 -5.0253e+005 82035 241683,241735,241709
 9.0000e+001 241787 -4.1179e+005 -1.4577e+006  4.7263e+005 82035 241683,241761,241735
 9.0000e+001 241962 -7.4998e+005 -1.7794e+006  5.8687e+005 81695 241861,241913,241887
 9.0000e+001 241939 -4.1739e+005 -2.4522e+006 -6.5662e+005 81695 241835,241913,241861
 9.0000e+001 242114 -8.5226e+005 -3.7733e+006  1.0230e+006 81355 242013,242065,242039
 9.0000e+001 242091 -2.5112e+005 -1.7348e+006  5.1478e+005 81355 241987,242065,242013
 9.0000e+001 242266 -8.8533e+002 -2.6057e+005  1.7647e+004 80951 242139,242191,242165
 9.0000e+001 242243 -1.5941e+003 -2.6344e+005  1.7869e+004 80951 242139,242217,242191
 9.0000e+001 242467 -4.4012e+005 -5.1045e+006  6.4946e+005 80311 242291,242369,242343
 9.0000e+001 242444  1.7152e+005 -2.5987e+006  4.7723e+005 80311 242291,242395,242369
 9.0000e+001 242421 -2.0908e+005 -1.2627e+006  2.4762e+005 80311 242291,242343,242317
 9.0000e+001 242619 -1.7215e+006 -2.6307e+006  4.2025e+005 80021 242492,242544,242518
 9.0000e+001 242596 -1.6806e+006 -2.4683e+006  1.7173e+006 80021 242492,242570,242544
 9.0000e+001 242869 -3.1410e+004 -1.2919e+004 -3.0457e+004 79631 242644,242722,242696
 9.0000e+001 242846 -2.3222e+004 -2.9422e+005  5.3940e+004 79631 242644,242774,242722
 9.0000e+001 242823  3.8223e+004 -1.2326e+005 -1.2502e+004 79631 242722,242774,242748
 9.0000e+001 242800 -2.2004e+004 -5.5853e+003  1.3951e+004 79631 242644,242696,242670
 9.0000e+001 243070  6.6289e+005 -1.5495e+007  3.5749e+006 79341 242920,242972,242946
 9.0000e+001 243047 -6.1706e+005 -6.5860e+006 -1.0951e+006 79341 242920,242998,242972
 9.0000e+001 243024 -6.9656e+005 -3.4635e+006  1.5534e+006 79341 242894,242998,242920
 9.0000e+001 243222 -3.0592e+005 -2.1411e+006  9.1982e+005 78801 243121,243173,243147
 9.0000e+001 243199 -2.7715e+005 -2.1235e+006  8.0976e+005 78801 243095,243173,243121
 9.0000e+001 243423 -1.0274e+006 -2.4012e+006 -8.1223e+005 78511 243273,243325,243299
 9.0000e+001 243400  8.2323e+005 -4.8926e+006  3.5548e+005 78511 243273,243351,243325
 9.0000e+001 243377 -1.9831e+003 -5.1113e+006  1.0259e+005 78511 243247,243351,243273
 9.0000e+001 243624 -3.8312e+005 -3.1328e+006 -1.1258e+006 78107 243474,243552,243526
 9.0000e+001 243601 -5.6277e+005 -3.8461e+006 -1.1978e+006 78107 243448,243552,243474
 9.0000e+001 243578 -5.7792e+005 -2.1771e+006 -2.4091e+005 78107 243474,243526,243500
 9.0000e+001 243776 -7.8024e+005 -4.6955e+006 -7.7266e+005 77653 243649,243701,243675
 9.0000e+001 243753 -5.7055e+005 -4.7462e+006 -1.1049e+006 77653 243649,243727,243701
 9.0000e+001 243977 -4.7236e+005 -6.2591e+006  5.9276e+004 77093 243801,243853,243827
 9.0000e+001 243954 -8.8228e+004 -5.0399e+006  8.0034e+005 77093 243801,243879,243853
 9.0000e+001 243931 -4.0692e+005 -1.8465e+006 -1.8639e+005 77093 243801,243905,243879
 9.0000e+001 244080 -5.2483e+005 -5.7122e+006  3.0769e+005 76791 244002,244054,244028
 9.0000e+001 244232  1.0749e+005 -3.0725e+006 -2.5385e+005 76311 244131,244183,244157
 9.0000e+001 244209 -1.6732e+005 -4.0291e+006 -4.3384e+005 76311 244105,244183,244131
 9.0000e+001 244433  4.5441e+005 -1.6093e+007  4.3375e+006 75903 244283,244335,244309
 9.0000e+001 244410 -9.2344e+005 -9.7646e+006 -6.0317e+005 75903 244283,244361,244335
 9.0000e+001 244387 -1.3662e+006 -8.3394e+006  3.7574e+005 75903 244257,244361,244283
 9.0000e+001 244585  3.4780e+005 -1.6105e+007  1.5998e+006 75419 244458,244510,244484
 9.0000e+001 244562 -8.1505e+005 -7.9688e+006 -3.6396e+005 75419 244458,244536,244510
 9.0000e+001 244737 -3.9225e+005 -5.8047e+005 -1.7768e+005 75215 244636,244688,244662
 9.0000e+001 244714 -2.8177e+005 -2.8282e+006 -1.6903e+005 75215 244610,244688,244636
 9.0000e+001 244889 -9.3036e+005 -4.2507e+006 -6.9187e+005 74857 244788,244840,244814
 9.0000e+001 244866 -2.8314e+005 -1.9073e+006 -2.8149e+005 74857 244762,244840,244788
 9.0000e+001 245041 -3.8772e+005 -2.3623e+006 -1.2454e+006 74653 244940,244992,244966
 9.0000e+001 245018 -4.0134e+005 -5.6287e+005  1.0705e+006 74653 244914,244992,244940
 9.0000e+001 245144 -1.0471e+006 -4.5051e+006 -1.0840e+006 74359 245066,245118,245092
 9.0000e+001 245296 -1.3390e+004 -3.0831e+005 -1.0357e+005 74007 245169,245221,245195
 9.0000e+001 245273 -9.4011e+004 -5.3797e+005 -1.5942e+005 74007 245169,245247,245221
 9.0000e+001 245448 -2.8518e+006 -4.6489e+006 -1.1253e+006 73711 245321,245373,245347
 9.0000e+001 245425 -2.7870e+006 -4.6428e+006 -6.5856e+005 73711 245321,245399,245373
 9.0000e+001 245600  1.5109e+006 -1.4718e+007 -2.3175e+006 73301 245499,245551,245525
 9.0000e+001 245577 -1.8589e+006 -8.7442e+006  2.1459e+006 73301 245473,245551,245499
 9.0000e+001 245752 -2.8261e+006 -4.2815e+006 -2.6193e+006 72995 245625,245677,245651
 9.0000e+001 245729  7.8952e+005 -1.5604e+007 -2.1858e+006 72995 245625,245703,245677
 9.0000e+001 245953 -1.5293e+006 -1.3276e+007  8.0948e+005 72585 245777,245829,245803
 9.0000e+001 245930 -6.8883e+005 -1.3699e+007  2.0589e+006 72585 245777,245855,245829
 9.0000e+001 245907 -1.3070e+006 -9.2293e+006  7.1944e+005 72585 245777,245881,245855
 9.0000e+001 246154 -5.8250e+005 -7.7760e+006  1.5588e+006 72127 246030,246082,246056
 9.0000e+001 246131 -1.2305e+006 -8.6440e+006  5.4686e+005 72127 245978,246082,246030
 9.0000e+001 246108 -1.4301e+005 -1.1518e+007  3.2561e+005 72127 245978,246030,246004
 9.0000e+001 246257 -1.5005e+006 -2.3826e+005 -2.1027e+005 71737 246179,246231,246205
 9.0000e+001 246360  8.0919e+004 -3.1356e+006  5.4517e+005 71447 246282,246334,246308
 9.0000e+001 246512 -1.5843e+005 -1.8565e+006  8.4371e+005 71157 246385,246437,246411
 9.0000e+001 246489 -6.0633e+004 -1.3635e+006 -6.1313e+004 71157 246385,246463,246437
 9.0000e+001 246664 -1.8324e+005 -2.1628e+006 -6.4394e+005 70753 246537,246589,246563
 9.0000e+001 246641 -8.2462e+005 -7.1094e+005 -3.5862e+005 70753 246537,246615,246589
 9.0000e+001 246865 -1.6605e+006 -8.1680e+006  4.2501e+006 70249 246715,246767,246741
 9.0000e+001 246842 -3.2181e+006 -8.0006e+006 -1.6508e+005 70249 246715,246793,246767
 9.0000e+001 246819 -1.4486e+005 -1.4897e+007 -4.1336e+006 70249 246689,246793,246715
 9.0000e+001 247066  2.5909e+004 -1.6137e+006  1.6871e+005 70023 246916,246994,246942
 9.0000e+001 247043 -1.3197e+005 -1.1546e+006  3.6042e+005 70023 246890,246994,246916
 9.0000e+001 247020  7.8165e+004 -1.5563e+006  3.1917e+005 70023 246942,246994,246968
 9.0000e+001 247267 -4.1202e+005 -3.7831e+006 -9.1465e+005 69633 247091,247143,247117
 9.0000e+001 247244 -1.7923e+005 -2.9172e+006 -7.6396e+005 69633 247091,247169,247143
 9.0000e+001 247221 -2.1129e+005 -2.3257e+006 -6.1816e+005 69633 247091,247195,247169
 9.0000e+001 247419 -1.0581e+006 -4.4496e+006  3.7649e+005 69457 247318,247370,247344
 9.0000e+001 247396 -1.2023e+006 -1.6660e+006  6.5600e+005 69457 247292,247370,247318
 9.0000e+001 247522 -3.3086e+001  1.9836e+000  2.2712e+002 69209 247444,247496,247470
 9.0000e+001 247625 -8.6667e+005 -9.3371e+005 -7.1504e+005 68919 247547,247599,247573
 9.0000e+001 247777  1.0740e+005 -3.1550e+006 -1.6042e+005 68579 247650,247702,247676
 9.0000e+001 247754  1.5132e+005 -6.5939e+005 -2.5718e+005 68579 247650,247728,247702
 9.0000e+001 247929 -1.8934e+005 -3.8996e+006  6.2160e+005 68289 247802,247854,247828
 9.0000e+001 247906 -4.5697e+005 -2.2804e+006 -8.3151e+005 68289 247802,247880,247854
 9.0000e+001 248081 -1.9188e+005 -2.1020e+006  6.7363e+005 67949 247980,248032,248006
 9.0000e+001 248058 -2.6580e+005 -3.1910e+005  3.7765e+004 67949 247954,248032,247980
 9.0000e+001 248233 -1.5220e+006 -5.1373e+006 -7.0682e+005 67616 248132,248184,248158
 9.0000e+001 248210 -7.6064e+005 -4.1233e+006 -1.8510e+005 67616 248106,248184,248132
 9.0000e+001 248434 -6.5835e+004 -2.1142e+006 -1.4633e+005 67212 248284,248336,248310
 9.0000e+001 248411 -3.2615e+005 -2.1374e+006 -1.7126e+004 67212 248258,248336,248284
 9.0000e+001 248388 -8.4732e+005 -6.4045e+005 -3.8840e+005 67212 248258,248362,248336
 9.0000e+001 248586 -2.7079e+005 -2.9631e+006 -2.7533e+005 66872 248485,248537,248511
 9.0000e+001 248563 -2.3668e+005 -1.2770e+006 -3.7583e+005 66872 248459,248537,248485
 9.0000e+001 248738 -4.6956e+005 -5.0580e+006  2.0414e+005 66510 248637,248689,248663
 9.0000e+001 248715 -6.1429e+005 -5.0159e+006  7.5018e+004 66510 248611,248689,248637
 9.0000e+001 248890 -2.6925e+004 -7.1614e+005  1.3893e+005 66220 248789,248841,248815
 9.0000e+001 248867 -4.1512e+004 -9.3929e+005 -3.1129e+005 66220 248763,248841,248789
 9.0000e+001 249091 -1.1922e+006 -8.0256e+006  1.5502e+006 65759 248915,248967,248941
 9.0000e+001 249068 -1.0299e+006 -4.9079e+006  2.0155e+006 65759 248915,248993,248967
 9.0000e+001 249045 -4.4051e+005 -3.6505e+006  3.4090e+005 65759 248915,249019,248993
 9.0000e+001 249243 -4.9631e+004 -6.8900e+006  1.4272e+006 65419 249142,249194,249168
 9.0000e+001 249220  2.3411e+005 -1.3157e+006  2.2770e+005 65419 249116,249194,249142
 9.0000e+001 249395 -2.8881e+005 -2.9249e+006 -8.0052e+005 65079 249268,249320,249294
 9.0000e+001 249372 -4.6902e+005 -3.4518e+006 -6.7500e+005 65079 249268,249346,249320
 9.0000e+001 249547 -1.7058e+006 -7.0561e+006  1.6925e+006 64739 249420,249472,249446
 9.0000e+001 249524 -5.3011e+005 -5.1603e+006 -2.0811e+006 64739 249420,249498,249472
 9.0000e+001 249650 -1.1829e+006 -4.1634e+006 -1.9008e+006 64342 249572,249624,249598
 9.0000e+001 249851 -2.7217e+004 -3.3622e+006 -2.2334e+005 63938 249701,249779,249753
 9.0000e+001 249828 -1.2772e+005 -3.4800e+006  3.3236e+005 63938 249675,249779,249701
 9.0000e+001 249805 -3.3136e+005 -9.0709e+005 -1.9468e+005 63938 249701,249753,249727
 9.0000e+001 250052 -3.1842e+005 -2.6473e+006 -8.0747e+005 63341 249876,249954,249902
 9.0000e+001 250029 -8.5959e+005 -2.9302e+006 -2.5806e+005 63341 249876,249980,249954
 9.0000e+001 250006 -3.3441e+005 -3.9508e+006  2.5838e+005 63341 249902,249954,249928
 9.0000e+001 250253 -7.1172e+005 -4.4789e+005 -4.9475e+004 63058 250077,250129,250103
 9.0000e+001 250230 -2.4888e+006 -2.6795e+006  1.4032e+006 63058 250077,250155,250129
 9.0000e+001 250207 -4.4623e+005 -1.6814e+006  3.9393e+005 63058 250077,250181,250155
 9.0000e+001 250454 -5.3383e+005 -5.2348e+006  4.3238e+005 62832 250304,250382,250330
 9.0000e+001 250431 -1.8395e+004 -6.3816e+006 -1.7693e+006 62832 250278,250382,250304
 9.0000e+001 250408 -1.1057e+006 -3.9383e+006 -6.1362e+003 62832 250330,250382,250356
 9.0000e+001 250606 -1.2157e+006 -3.3832e+006 -1.3093e+006 62428 250479,250531,250505
 9.0000e+001 250583 -2.0038e+005 -9.5802e+006 -1.5760e+006 62428 250479,250557,250531
 9.0000e+001 250758 -1.4794e+005 -6.4202e+006  8.5374e+005 62202 250631,250683,250657
 9.0000e+001 250735 -4.3584e+005 -5.7232e+006 -2.6017e+005 62202 250631,250709,250683
 9.0000e+001 250861 -4.1960e+005 -1.6055e+006 -1.7529e+005 61954 250783,250835,250809
 9.0000e+001 251062 -2.8601e+006 -2.9950e+006  4.2522e+005 61557 250912,250990,250938
 9.0000e+001 251039  3.6981e+005 -1.0007e+007 -3.0210e+006 61557 250886,250990,250912
 9.0000e+001 251016 -2.5013e+006 -4.3718e+006 -3.9764e+006 61557 250938,250990,250964
 9.0000e+001 251263 -7.1358e+005 -4.9476e+006 -1.7955e+005 61167 251113,251165,251139
 9.0000e+001 251240 -8.9479e+005 -4.3387e+006 -1.8889e+005 61167 251113,251191,251165
 9.0000e+001 251217 -1.2845e+006 -4.3649e+006  1.9117e+005 61167 251087,251191,251113
 9.0000e+001 251415 -8.7824e+005 -3.0258e+006  1.3148e+006 60827 251288,251340,251314
 9.0000e+001 251392 -2.3544e+005 -1.1658e+006 -2.0301e+005 60827 251288,251366,251340
 9.0000e+001 251567 -1.2851e+005 -2.6141e+006  3.8358e+004 60487 251466,251518,251492
 9.0000e+001 251544 -4.4297e+005 -2.4357e+006 -5.9003e+005 60487 251440,251518,251466
 9.0000e+001 251719  6.8534e+004 -5.9802e+006  3.4347e+004 59983 251592,251644,251618
 9.0000e+001 251696 -2.4330e+005 -3.9173e+006 -8.4950e+004 59983 251592,251670,251644
 9.0000e+001 251920 -1.1468e+005 -1.3132e+006 -3.5202e+004 59807 251770,251848,251796
 9.0000e+001 251897 -6.3735e+004 -8.7594e+005 -7.6713e+004 59807 251744,251848,251770
 9.0000e+001 251874 -9.3829e+004 -1.0772e+006  5.2908e+004 59807 251796,251848,251822
 9.0000e+001 252023  5.3620e+005 -3.9060e+006 -1.6105e+005 59517 251945,251997,251971
 9.0000e+001 252175  1.0402e+006 -8.8376e+006 -1.4052e+005 59269 252074,252126,252100
 9.0000e+001 252152 -2.5846e+004 -6.1874e+006  2.2649e+004 59269 252048,252126,252074
 9.0000e+001 252278 -9.6405e+005 -4.3086e+006  5.4805e+005 58979 252200,252252,252226
 9.0000e+001 252381 -2.4893e+006 -1.4993e+006  1.2105e+006 58689 252303,252355,252329
 9.0000e+001 252533 -6.4455e+005 -3.3969e+006 -7.2668e+005 58249 252432,252484,252458
 9.0000e+001 252510 -7.0637e+005 -3.8914e+006 -8.9512e+005 58249 252406,252484,252432
 9.0000e+001 252734  2.5137e+005 -2.4791e+006 -1.5274e+005 57902 252584,252662,252610
 9.0000e+001 252711  1.2118e+005 -2.6072e+006 -2.3503e+005 57902 252558,252662,252584
 9.0000e+001 252688  5.4711e+005 -1.9394e+006  3.4744e+005 57902 252610,252662,252636
 9.0000e+001 252886  2.2358e+005 -5.3652e+006 -3.1673e+005 57540 252785,252837,252811
 9.0000e+001 252863  8.4931e+004 -3.5514e+006  1.8191e+005 57540 252759,252837,252785
 9.0000e+001 253038 -9.4686e+005 -6.0299e+006  1.6177e+006 57086 252937,252989,252963
 9.0000e+001 253015 -2.9096e+005 -1.0047e+006  3.5466e+005 57086 252911,252989,252937
 9.0000e+001 253239 -7.7779e+005 -4.6746e+006 -4.2785e+005 56796 253063,253141,253115
 9.0000e+001 253216 -1.5794e+005 -4.6325e+006 -1.7609e+005 56796 253063,253167,253141
 9.0000e+001 253193 -5.5790e+006 -6.7680e+005  7.2150e+005 56796 253063,253115,253089
 9.0000e+001 253342 -6.4542e+005 -1.1459e+007 -1.3943e+005 56349 253264,253316,253290
 9.0000e+001 253543 -2.6601e+005 -2.8344e+006 -1.2010e+006 56009 253367,253419,253393
 9.0000e+001 253520 -5.7736e+005 -1.3227e+006 -6.1258e+005 56009 253367,253445,253419
 9.0000e+001 253497 -3.9702e+005 -1.2891e+006 -6.5164e+005 56009 253367,253471,253445
 9.0000e+001 253695 -2.7995e+005 -5.5721e+005  3.7386e+005 55733 253594,253646,253620
 9.0000e+001 253672 -4.7659e+005 -2.5633e+005  3.4469e+005 55733 253568,253646,253594
 9.0000e+001 253798 -7.2840e+005 -1.3257e+006 -2.5913e+005 55557 253720,253772,253746
 9.0000e+001 253950 -6.4951e+005 -2.7491e+006 -8.0985e+004 55153 253849,253901,253875
 9.0000e+001 253927 -3.2937e+005 -3.1991e+006 -5.9913e+005 55153 253823,253901,253849
 9.0000e+001 254151 -1.0754e+006 -3.5514e+006  2.8520e+005 54863 253975,254053,254001
 9.0000e+001 254128 -9.4473e+005 -3.2672e+006  1.7915e+005 54863 253975,254079,254053
 9.0000e+001 254105 -1.1329e+006 -5.0828e+006  9.9691e+005 54863 254001,254053,254027
 9.0000e+001 254303 -1.2264e+005 -2.3693e+005  1.7638e+005 54373 254176,254228,254202
 9.0000e+001 254280 -1.5289e+005 -3.0450e+005  2.0166e+005 54373 254176,254254,254228
 9.0000e+001 254455 -8.3615e+004 -4.1917e+006 -4.2245e+005 53975 254354,254406,254380
 9.0000e+001 254432 -2.8328e+005 -9.2164e+005  1.3094e+005 53975 254328,254406,254354
 9.0000e+001 254607 -1.3796e+005 -5.0440e+006 -3.9400e+004 53585 254480,254532,254506
 9.0000e+001 254584 -4.0961e+005 -4.1915e+006 -9.3872e+004 53585 254480,254558,254532
 9.0000e+001 254808 -6.4886e+005 -3.6060e+006  2.3319e+005 53245 254658,254736,254684
 9.0000e+001 254785 -9.1600e+005 -5.9262e+005 -4.6531e+005 53245 254632,254736,254658
 9.0000e+001 254762 -3.5151e+005 -1.3117e+006  4.7957e+005 53245 254684,254736,254710
 9.0000e+001 254911 -1.5879e+005 -1.5148e+006 -3.3227e+005 52955 254833,254885,254859
 9.0000e+001 255063 -4.5420e+005 -6.7563e+006  5.4551e+004 52551 254962,255014,254988
 9.0000e+001 255040 -6.3845e+005 -6.8885e+006 -3.6841e+004 52551 254936,255014,254962
 9.0000e+001 255264 -1.1037e+006 -1.0664e+006 -6.1393e+005 52261 255114,255166,255140
 9.0000e+001 255241 -1.1861e+006 -2.3489e+006 -1.7454e+005 52261 255114,255192,255166
 9.0000e+001 255218 -5.2184e+006 -1.1362e+006  8.7645e+005 52261 255088,255192,255114
 9.0000e+001 255416 -9.6669e+005 -5.4910e+006  2.1593e+006 51971 255289,255341,255315
 9.0000e+001 255393 -2.9255e+005 -4.7561e+006 -5.4183e+005 51971 255289,255367,255341
 9.0000e+001 255568  1.6140e+005 -1.5346e+006 -4.7623e+005 51681 255441,255493,255467
 9.0000e+001 255545 -1.3074e+005 -1.1279e+006 -4.8822e+005 51681 255441,255519,255493
 9.0000e+001 255769 -2.5421e+005 -2.5815e+006  8.1076e+004 51291 255619,255697,255671
 9.0000e+001 255746 -2.3468e+005 -2.2441e+006 -2.4045e+005 51291 255593,255697,255619
 9.0000e+001 255723 -3.0709e+005 -5.7529e+006 -6.9113e+005 51291 255619,255671,255645
 9.0000e+001 255921 -6.7188e+005 -2.9780e+006  8.5376e+005 50951 255820,255872,255846
 9.0000e+001 255898 -1.3989e+005 -1.1806e+006  3.7988e+004 50951 255794,255872,255820
 9.0000e+001 256171 -6.7748e+005 -5.3535e+006  8.0490e+005 50547 256024,256076,256050
 9.0000e+001 256148 -8.2325e+005 -4.0565e+006  2.3876e+005 50547 255972,256076,256024
 9.0000e+001 256125 -2.0859e+005 -3.7321e+006  4.8142e+005 50547 255946,256076,255972
 9.0000e+001 256102 -7.7048e+005 -4.9663e+006  5.2014e+005 50547 255972,256024,255998
 9.0000e+001 256323  1.2278e+005 -4.1205e+006  4.1388e+005 50093 256196,256248,256222
 9.0000e+001 256300 -1.0294e+006 -2.5720e+006 -8.2144e+005 50093 256196,256274,256248
 9.0000e+001 256426  5.0792e+002 -1.8066e+003  7.8045e+002 49845 256348,256400,256374
 9.0000e+001 256627  8.2169e+004 -5.7565e+006  8.9534e+004 49555 256477,256555,256503
 9.0000e+001 256604 -1.9176e+004 -2.7917e+006  2.4188e+005 49555 256451,256555,256477
 9.0000e+001 256581 -3.7336e+005 -5.0715e+006  3.5925e+005 49555 256503,256555,256529
 9.0000e+001 256828 -3.8816e+005 -2.4365e+006 -4.3732e+005 49056 256652,256730,256678
 9.0000e+001 256805 -7.1711e+005 -2.0673e+006 -2.2879e+005 49056 256652,256756,256730
 9.0000e+001 256782 -3.3237e+005 -3.7322e+006  4.9995e+005 49056 256678,256730,256704
 9.0000e+001 256931 -3.6630e+004 -4.3806e+004  3.3482e+004 48766 256853,256905,256879
 9.0000e+001 257083 -1.7660e+006 -5.1035e+006 -7.5696e+005 48568 256982,257034,257008
 9.0000e+001 257060 -6.9688e+005 -8.5251e+005 -1.8288e+005 48568 256956,257034,256982
 9.0000e+001 257186 -2.8007e+003 -3.8735e+006  1.5882e+003 48228 257108,257160,257134
 9.0000e+001 257338 -1.1837e+006 -5.1605e+005  2.9606e+005 47888 257237,257289,257263
 9.0000e+001 257315 -4.4981e+005 -3.5775e+006  1.8189e+006 47888 257211,257289,257237
 9.0000e+001 257539 -4.1950e+005 -3.3252e+006  1.2783e+005 47548 257363,257441,257415
 9.0000e+001 257516 -7.0258e+005 -3.0758e+006 -3.4039e+005 47548 257363,257467,257441
 9.0000e+001 257493 -8.0905e+005 -2.3476e+006 -7.4212e+004 47548 257363,257415,257389
 9.0000e+001 257740 -2.7734e+004 -5.4683e+006  5.1020e+005 46994 257564,257642,257616
 9.0000e+001 257717 -4.4406e+005 -3.7075e+006 -1.6070e+005 46994 257564,257668,257642
 9.0000e+001 257694 -8.9440e+005 -5.4547e+006 -2.0364e+005 46994 257564,257616,257590
 9.0000e+001 257843 -3.0767e+005 -9.8132e+005 -1.3717e+005 46654 257765,257817,257791
 9.0000e+001 257995 -5.6383e+005 -2.7843e+006  3.4380e+005 46364 257894,257946,257920
 9.0000e+001 257972 -6.9521e+005 -2.8458e+006  2.9620e+005 46364 257868,257946,257894
 9.0000e+001 258147 -3.9518e+004 -3.3939e+006  1.1250e+005 46024 258046,258098,258072
 9.0000e+001 258124 -4.0962e+005 -2.3585e+006  4.4719e+005 46024 258020,258098,258046
 9.0000e+001 258250 -4.9846e+005 -6.4944e+005  3.8033e+005 45741 258172,258224,258198
 9.0000e+001 258402 -8.7315e+005 -3.0498e+006  6.1261e+005 45401 258301,258353,258327
 9.0000e+001 258379 -3.6332e+005 -2.8695e+006  8.5536e+005 45401 258275,258353,258301
 9.0000e+001 258603 -6.7731e+005 -1.7972e+006  2.2719e+004 45071 258427,258505,258479
 9.0000e+001 258580 -2.6088e+005 -4.1779e+006  2.6368e+005 45071 258427,258531,258505
 9.0000e+001 258557 -3.0617e+005 -2.6154e+006  1.8881e+005 45071 258427,258479,258453
 9.0000e+001 258755 -1.9496e+005 -4.1732e+006 -3.7505e+005 44681 258654,258706,258680
 9.0000e+001 258732 -3.8284e+005 -3.0510e+006 -3.8648e+005 44681 258628,258706,258654
 9.0000e+001 258907 -2.2771e+005 -3.1677e+006 -2.2832e+005 44157 258806,258858,258832
 9.0000e+001 258884 -6.7952e+005 -2.4877e+006 -1.6640e+005 44157 258780,258858,258806
 9.0000e+001 259010 -5.6561e+005 -2.1585e+006 -5.6277e+004 43705 258932,258984,258958
 9.0000e+001 259113 -5.9410e+005 -2.3013e+006  4.1904e+004 43284 259035,259087,259061
 9.0000e+001 259216 -3.6178e+005 -4.5757e+006 -1.7201e+005 42954 259138,259190,259164
 9.0000e+001 259319 -6.4282e+005 -1.3972e+006 -2.7973e+004 42116 259241,259293,259267
 9.0000e+001 259422 -5.7809e+005 -6.9715e+006  1.0845e+006 41804 259344,259396,259370
 9.0000e+001 259525 -6.6045e+005 -6.3506e+006  9.9582e+005 41219 259447,259499,259473
 9.0000e+001 259628 -5.2331e+005 -2.8539e+006 -6.3158e+005 385 259550,259602,259576
 9.2000e+001 190120 -1.6670e+005 -2.5190e+006 -4.2627e+005 189630 189993,190045,190019
 9.2000e+001 190097 -7.0539e+005 -1.8855e+006 -2.6617e+005 189630 189993,190071,190045
 9.2000e+001 190319 -1.2781e+006 -4.0965e+006 -3.8541e+005 189312 190169,190221,190195
 9.2000e+001 190296 -7.0329e+005 -3.4468e+006 -9.6398e+005 189312 190169,190247,190221
 9.2000e+001 190273 -8.9798e+005 -2.8217e+006  2.1167e+005 189312 190143,190247,190169
 9.2000e+001 190518 -4.7859e+005  1.9005e+003 -2.3784e+003 189124 190368,190446,190420
 9.2000e+001 190495 -5.6471e+005  3.6186e+003 -6.3556e+002 189124 190342,190446,190368
 9.2000e+001 190472 -9.6215e+005 -8.9301e+004 -8.0532e+004 189124 190368,190420,190394
 9.2000e+001 190619 -4.5131e+005 -5.6133e+004 -5.5764e+003 188926 190541,190593,190567
 9.2000e+001 190771 -4.8806e+005 -7.4629e+004  1.6030e+004 188614 190670,190722,190696
 9.2000e+001 190748 -5.5464e+005  1.5920e+005  5.6655e+004 188614 190644,190722,190670
 9.2000e+001 190972 -4.7530e+005 -4.8294e+005 -3.1105e+005 188324 190848,190900,190874
 9.2000e+001 190949 -5.2259e+005 -8.9041e+005 -5.4624e+005 188324 190796,190900,190848
 9.2000e+001 190926 -4.2804e+004 -3.6089e+005 -2.2446e+005 188324 190796,190848,190822
 9.2000e+001 191124 -6.7947e+005 -1.1337e+006 -1.7188e+005 188034 191023,191075,191049
 9.2000e+001 191101 -1.6630e+005 -1.2572e+006 -1.3190e+005 188034 190997,191075,191023
 9.2000e+001 191276 -1.6805e+005 -8.6572e+005 -3.1219e+004 187836 191149,191201,191175
 9.2000e+001 191253 -2.5678e+005 -4.9170e+005  1.6734e+005 187836 191149,191227,191201
 9.2000e+001 191379 -4.5911e+005 -3.3524e+005 -9.9296e+004 187546 191301,191353,191327
 9.2000e+001 191531 -2.3211e+005 -3.1546e+006  2.7397e+005 187256 191430,191482,191456
 9.2000e+001 191508 -1.2055e+006 -4.5920e+006 -1.4281e+006 187256 191404,191482,191430
 9.2000e+001 191634 -7.5088e+005 -1.0690e+005  6.4367e+004 187058 191556,191608,191582
 9.2000e+001 191835 -5.3872e+005 -3.4691e+003  3.9284e+003 186860 191659,191711,191685
 9.2000e+001 191812 -4.3420e+005 -3.1185e+005 -3.9398e+004 186860 191659,191737,191711
 9.2000e+001 191789 -4.6113e+005 -1.2133e+005  1.4922e+005 186860 191659,191763,191737
 9.2000e+001 191987 -5.8506e+005 -4.3363e+004  8.3146e+004 186662 191886,191938,191912
 9.2000e+001 191964 -3.0596e+005 -8.6273e+004  9.9259e+004 186662 191860,191938,191886
 9.2000e+001 192090 -6.7294e+005 -4.2724e+005  7.4832e+004 186486 192012,192064,192038
 9.2000e+001 192242 -1.4694e+005 -6.5809e+006 -3.1417e+005 186288 192115,192167,192141
 9.2000e+001 192219 -7.8284e+005 -3.9303e+006  1.0101e+005 186288 192115,192193,192167
 9.2000e+001 192394 -1.3929e+004 -5.2375e+006 -3.0335e+005 185935 192293,192345,192319
 9.2000e+001 192371 -4.9433e+005 -3.6952e+006 -6.6271e+005 185935 192267,192345,192293
 9.2000e+001 192546 -4.5037e+005 -3.1584e+006 -5.5529e+005 185675 192419,192471,192445
 9.2000e+001 192523 -8.9383e+005 -1.5464e+006 -5.7830e+005 185675 192419,192497,192471
 9.2000e+001 192649 -7.8871e+005 -1.3089e+006  7.6437e+004 185499 192571,192623,192597
 9.2000e+001 192801 -1.7400e+005 -1.4705e+006  3.1823e+005 185301 192674,192726,192700
 9.2000e+001 192778 -2.7409e+005 -1.4665e+006  2.4616e+005 185301 192674,192752,192726
 9.2000e+001 193002 -8.2530e+004 -5.4852e+005 -3.7347e+005 185046 192852,192930,192878
 9.2000e+001 192979 -3.4416e+005 -1.4345e+006 -1.9616e+005 185046 192826,192930,192852
 9.2000e+001 192956  4.1219e+005 -1.8255e+006 -2.0973e+004 185046 192878,192930,192904
 9.2000e+001 193203  2.1389e+005 -4.4704e+006 -6.7135e+005 184798 193079,193131,193105
 9.2000e+001 193180 -1.0390e+006 -2.9062e+006 -4.7398e+004 184798 193027,193131,193079
 9.2000e+001 193157 -1.8920e+006 -3.1311e+006  1.2686e+005 184798 193027,193079,193053
 9.2000e+001 193404 -2.0782e+005 -4.5585e+006 -1.0742e+006 184600 193254,193306,193280
 9.2000e+001 193381 -4.1440e+005 -1.6164e+006 -2.2162e+005 184600 193254,193332,193306
 9.2000e+001 193358 -8.9989e+005 -4.3479e+005 -4.3319e+005 184600 193228,193332,193254
 9.2000e+001 193556 -5.6206e+005 -6.3430e+005 -6.4337e+005 184402 193429,193481,193455
 9.2000e+001 193533 -6.8531e+005 -6.3396e+005 -6.4362e+005 184402 193429,193507,193481
 9.2000e+001 193708 -9.8442e+004 -1.5338e+006  1.4490e+005 184204 193607,193659,193633
 9.2000e+001 193685 -5.7465e+005 -5.3101e+006 -9.2631e+005 184204 193581,193659,193607
 9.2000e+001 193860 -5.0563e+005 -9.4999e+005  5.5011e+005 183908 193759,193811,193785
 9.2000e+001 193837 -1.4129e+005 -1.5752e+006  5.6915e+005 183908 193733,193811,193759
 9.2000e+001 194061 -6.1740e+005  1.5196e+004  8.6836e+004 183710 193911,193989,193937
 9.2000e+001 194038 -4.7416e+005  3.6557e+003 -1.2659e+005 183710 193885,193989,193911
 9.2000e+001 194015 -4.4991e+005  1.0821e+004  1.4176e+004 183710 193937,193989,193963
 9.2000e+001 194262 -7.0653e+005 -2.5703e+006 -5.2062e+005 183420 194086,194164,194112
 9.2000e+001 194239 -6.1096e+005 -2.0861e+006 -3.6491e+005 183420 194086,194190,194164
 9.2000e+001 194216  5.3083e+005 -6.5994e+006  1.3757e+006 183420 194112,194164,194138
 9.2000e+001 194414 -6.5134e+005 -5.2731e+006 -1.3686e+005 183222 194287,194339,194313
 9.2000e+001 194391 -3.4896e+005 -1.2301e+006 -2.7023e+005 183222 194287,194365,194339
 9.2000e+001 194517 -8.5114e+005 -8.1914e+005  3.5643e+004 183024 194439,194491,194465
 9.2000e+001 194718  1.5597e+006 -1.3776e+007  1.4328e+006 182734 194568,194620,194594
 9.2000e+001 194695 -1.1743e+006 -3.8255e+006 -2.8516e+006 182734 194542,194620,194568
 9.2000e+001 194672 -3.1190e+006 -2.1086e+006 -1.3782e+006 182734 194542,194646,194620
 9.2000e+001 194870 -4.4475e+005 -5.9977e+005  2.8569e+005 182444 194769,194821,194795
 9.2000e+001 194847 -5.2021e+005 -1.7002e+006  9.3076e+005 182444 194743,194821,194769
 9.2000e+001 195071 -3.2358e+005 -1.5580e+006  9.2232e+005 182154 194895,194947,194921
 9.2000e+001 195048 -3.6339e+005 -5.6511e+005  2.4294e+005 182154 194895,194999,194947
 9.2000e+001 195025 -4.0708e+005 -1.6270e+005  2.5280e+005 182154 194947,194999,194973
 9.2000e+001 195223 -2.4994e+005 -1.4219e+005 -1.0684e+005 181814 195096,195148,195122
 9.2000e+001 195200 -4.8129e+005 -1.5097e+006 -1.0223e+006 181814 195096,195174,195148
 9.2000e+001 195375 -4.8941e+003 -8.2734e+003 -4.5919e+003 181524 195248,195300,195274
 9.2000e+001 195352  2.9154e+003 -4.0590e+004 -5.0051e+002 181524 195248,195326,195300
 9.2000e+001 195527 -1.5525e+005 -9.3877e+005 -3.3896e+005 181326 195426,195478,195452
 9.2000e+001 195504 -5.8466e+005 -6.1064e+005 -9.4181e+004 181326 195400,195478,195426
 9.2000e+001 195679  1.1471e+004 -8.7710e+006 -4.0739e+005 180936 195578,195630,195604
 9.2000e+001 195656 -5.5299e+005 -3.5902e+006 -2.5704e+005 180936 195552,195630,195578
 9.2000e+001 195831 -4.6741e+005 -3.8184e+005 -1.8279e+005 180646 195704,195756,195730
 9.2000e+001 195808 -7.2924e+005 -3.1396e+004  1.0447e+004 180646 195704,195782,195756
 9.2000e+001 196032 -3.4633e+005 -2.1471e+006  4.8113e+005 180306 195882,195960,195934
 9.2000e+001 196009 -5.0356e+005 -8.1569e+005 -3.6646e+005 180306 195856,195960,195882
 9.2000e+001 195986  3.6220e+004 -2.3798e+006  1.9010e+005 180306 195882,195934,195908
 9.2000e+001 196233 -2.8204e+005 -2.2255e+005 -8.9762e+005 179944 196057,196109,196083
 9.2000e+001 196210 -9.5742e+005 -3.4618e+006  4.2329e+005 179944 196057,196135,196109
 9.2000e+001 196187 -1.9797e+006  4.3308e+006 -1.4570e+006 179944 196057,196161,196135
 9.2000e+001 196385 -5.8368e+005 -6.6581e+005 -3.8475e+005 179604 196258,196310,196284
 9.2000e+001 196362 -9.3909e+005 -1.2260e+006 -1.1417e+006 179604 196258,196336,196310
 9.2000e+001 196586 -7.3945e+005 -4.7976e+005 -5.9023e+005 179114 196410,196488,196436
 9.2000e+001 196563 -5.5021e+005 -1.7105e+006 -5.6829e+005 179114 196410,196514,196488
 9.2000e+001 196540 -4.0242e+003 -4.3995e+005 -4.4186e+004 179114 196436,196488,196462
 9.2000e+001 196738 -7.1892e+005 -1.5890e+006 -6.6786e+005 178674 196611,196663,196637
 9.2000e+001 196715  1.3408e+004 -3.5975e+006 -1.3936e+005 178674 196611,196689,196663
 9.2000e+001 196939  1.4647e+006 -8.9429e+006 -9.5775e+005 178334 196789,196867,196841
 9.2000e+001 196916 -6.4230e+005 -9.4487e+006 -7.3754e+005 178334 196763,196867,196789
 9.2000e+001 196893 -2.0738e+006 -5.9552e+006 -3.4143e+006 178334 196789,196841,196815
 9.2000e+001 197091 -1.2380e+006 -3.4130e+006 -1.0173e+006 177930 196990,197042,197016
 9.2000e+001 197068 -1.7139e+006 -5.2058e+006 -7.3868e+005 177930 196964,197042,196990
 9.2000e+001 197194 -2.8332e+002 -1.0088e+002  9.9210e+001 177732 197116,197168,197142
 9.2000e+001 197346 -3.9888e+005 -5.3658e+006  2.4182e+005 177534 197219,197271,197245
 9.2000e+001 197323 -1.7773e+005 -5.7144e+006  4.1700e+005 177534 197219,197297,197271
 9.2000e+001 197547 -1.0972e+006 -6.6920e+006 -2.6351e+006 177130 197397,197449,197423
 9.2000e+001 197524 -2.4234e+006 -7.5430e+006 -1.6509e+006 177130 197397,197475,197449
 9.2000e+001 197501 -1.4080e+006 -1.2592e+007 -2.5684e+006 177130 197371,197475,197397
 9.2000e+001 197748 -7.4481e+005 -5.2660e+006  4.4959e+005 176790 197598,197676,197624
 9.2000e+001 197725 -5.1587e+005 -3.8786e+006  6.8291e+005 176790 197572,197676,197598
 9.2000e+001 197702 -7.8643e+005 -4.4813e+006  6.2708e+005 176790 197624,197676,197650
 9.2000e+001 197900 -2.6275e+005 -2.7579e+006 -4.4502e+005 176300 197773,197825,197799
 9.2000e+001 197877 -3.3832e+004 -4.1106e+006 -3.3107e+005 176300 197773,197851,197825
 9.2000e+001 198052 -1.3641e+006 -3.8776e+006 -1.2168e+006 176010 197925,197977,197951
 9.2000e+001 198029 -4.9579e+005 -6.9897e+006 -2.1206e+006 176010 197925,198003,197977
 9.2000e+001 198204 -1.2323e+006 -6.3384e+006 -2.7618e+006 175670 198103,198155,198129
 9.2000e+001 198181 -1.6762e+006 -4.0932e+006 -6.2044e+005 175670 198077,198155,198103
 9.2000e+001 198405 -4.2919e+005 -3.4176e+006 -6.2552e+005 175266 198255,198307,198281
 9.2000e+001 198382 -1.6021e+005 -5.4502e+006 -2.3471e+006 175266 198229,198307,198255
 9.2000e+001 198359 -1.2746e+006 -5.1855e+006 -2.5353e+006 175266 198229,198333,198307
 9.2000e+001 198606  2.1189e+003 -8.2087e+004  9.2675e+003 174876 198430,198508,198482
 9.2000e+001 198583 -1.9992e+003 -7.9596e+004 -2.2329e+004 174876 198430,198534,198508
 9.2000e+001 198560  7.3330e+002 -4.4262e+004 -4.4697e+003 174876 198430,198482,198456
 9.2000e+001 198758 -8.0744e+000 -9.8532e+001 -6.5121e+001 174536 198657,198709,198683
 9.2000e+001 198735 -1.1183e+002 -5.2126e+002 -1.2016e+002 174536 198631,198709,198657
 9.2000e+001 199008 -8.4284e+005 -4.8177e+006 -4.9986e+004 174132 198835,198913,198887
 9.2000e+001 198985 -5.0268e+005 -1.8328e+006  2.8591e+005 174132 198809,198913,198835
 9.2000e+001 198962 -4.6397e+005 -2.0472e+006 -1.1947e+006 174132 198783,198913,198809
 9.2000e+001 198939 -3.0720e+005 -5.2539e+006 -4.9466e+004 174132 198835,198887,198861
 9.2000e+001 199160 -1.1152e+006 -2.5656e+006 -7.1547e+005 173842 199059,199111,199085
 9.2000e+001 199137 -3.7101e+005 -1.0267e+006 -1.0845e+005 173842 199033,199111,199059
 9.2000e+001 199361 -6.0184e+005 -4.0849e+006  1.1216e+006 173438 199237,199289,199263
 9.2000e+001 199338 -3.6293e+005 -4.2681e+006  1.1729e+006 173438 199211,199289,199237
 9.2000e+001 199315 -2.1709e+004 -6.2943e+006 -5.4900e+005 173438 199185,199289,199211
 9.2000e+001 199513 -9.0417e+005 -5.3749e+006 -5.6569e+003 173190 199386,199438,199412
 9.2000e+001 199490 -1.7885e+006 -5.7393e+006  2.7098e+005 173190 199386,199464,199438
 9.2000e+001 199665 -4.7037e+005 -1.4913e+006  2.5338e+005 172750 199564,199616,199590
 9.2000e+001 199642 -8.9227e+005 -8.4734e+005 -1.8530e+004 172750 199538,199616,199564
 9.2000e+001 199817 -2.8796e+005 -3.2741e+006 -1.0987e+006 172524 199690,199742,199716
 9.2000e+001 199794 -1.6690e+006 -9.5692e+005 -5.9181e+005 172524 199690,199768,199742
 9.2000e+001 199969 -6.2644e+003 -5.6429e+006 -1.9276e+005 172348 199842,199894,199868
 9.2000e+001 199946  1.8763e+005 -5.6135e+006  2.4315e+004 172348 199842,199920,199894
 9.2000e+001 200121  9.9950e+004 -2.2299e+006 -3.1053e+005 172008 199994,200046,200020
 9.2000e+001 200098 -1.3449e+005 -1.1115e+006 -5.1841e+004 172008 199994,200072,200046
 9.2000e+001 200273 -2.0537e+006 -4.3100e+006 -2.2607e+006 171668 200172,200224,200198
 9.2000e+001 200250 -1.2241e+006 -4.2755e+006 -9.0977e+005 171668 200146,200224,200172
 9.2000e+001 200474  1.5849e+005 -4.2233e+006 -7.6674e+005 171264 200350,200402,200376
 9.2000e+001 200451 -2.5027e+005 -4.5247e+006 -9.7723e+005 171264 200324,200402,200350
 9.2000e+001 200428 -3.0263e+005 -2.9542e+006  9.4537e+005 171264 200298,200402,200324
 9.2000e+001 200626 -9.1902e+005 -4.7004e+006 -7.1266e+005 170832 200525,200577,200551
 9.2000e+001 200603 -2.9214e+005 -2.5597e+006 -1.7496e+005 170832 200499,200577,200525
 9.2000e+001 200827  1.5689e+002 -2.5030e+006  6.5138e+005 170492 200677,200729,200703
 9.2000e+001 200804 -1.1778e+006 -9.9447e+005 -5.5723e+005 170492 200651,200729,200677
 9.2000e+001 200781 -1.0257e+006 -1.3023e+006 -6.6765e+005 170492 200651,200755,200729
 9.2000e+001 201077 -7.6545e+005 -3.0168e+006 -2.2465e+005 170088 200878,200956,200904
 9.2000e+001 201054 -4.8739e+005 -1.3937e+006 -1.7368e+005 170088 200852,200956,200878
 9.2000e+001 201031 -9.1002e+005 -1.4975e+006  2.3245e+006 170088 200904,200956,200930
 9.2000e+001 201008  1.2659e+005 -1.8287e+006  1.2470e+005 170088 200852,200982,200956
 9.2000e+001 201278 -6.3162e+004 -1.4066e+006  2.8352e+005 169798 201102,201154,201128
 9.2000e+001 201255 -3.1671e+005 -2.1141e+006 -1.2420e+005 169798 201102,201206,201154
 9.2000e+001 201232 -2.6331e+005 -7.7450e+005  2.6489e+005 169798 201154,201206,201180
 9.2000e+001 201430 -4.7657e+005 -3.9472e+006 -6.5327e+005 169337 201303,201355,201329
 9.2000e+001 201407 -3.1125e+005 -1.4059e+006 -4.1795e+004 169337 201303,201381,201355
 9.2000e+001 201631 -1.8084e+005 -3.3659e+006  4.9776e+005 168883 201481,201559,201507
 9.2000e+001 201608 -4.9080e+005 -2.6024e+006  9.4988e+005 168883 201455,201559,201481
 9.2000e+001 201585 -1.0234e+005 -2.0952e+006  5.9917e+005 168883 201507,201559,201533
 9.2000e+001 201832  2.8057e+005 -6.4726e+006  4.2538e+005 168479 201682,201734,201708
 9.2000e+001 201809 -2.1759e+006 -4.6717e+006 -1.1643e+006 168479 201656,201734,201682
 9.2000e+001 201786 -1.8717e+006 -3.4752e+006  3.3550e+004 168479 201656,201760,201734
 9.2000e+001 202033 -3.3673e+005 -2.4155e+006  4.2248e+004 167825 201883,201935,201909
 9.2000e+001 202010 -1.7730e+006 -3.7005e+006 -2.2796e+006 167825 201857,201935,201883
 9.2000e+001 201987 -3.9962e+005 -9.6496e+006 -1.4231e+006 167825 201857,201961,201935
 9.2000e+001 202234 -1.9151e+005 -1.3010e+006 -4.4347e+005 167435 202058,202136,202084
 9.2000e+001 202211 -1.6621e+005 -2.2166e+006  5.1737e+005 167435 202058,202162,202136
 9.2000e+001 202188 -8.3237e+004 -7.0096e+005  3.1614e+004 167435 202084,202136,202110
 9.2000e+001 202386  8.9036e+004 -2.5929e+006  3.4106e+005 167002 202285,202337,202311
 9.2000e+001 202363 -4.1673e+005 -6.3853e+005  3.7786e+005 167002 202259,202337,202285
 9.2000e+001 202538 -1.3905e+006 -3.5111e+006 -2.1101e+006 166662 202411,202463,202437
 9.2000e+001 202515 -1.0595e+006 -3.0689e+006 -2.3514e+006 166662 202411,202489,202463
 9.2000e+001 202690 -1.1165e+005 -1.5622e+006  1.3618e+005 166322 202589,202641,202615
 9.2000e+001 202667  1.9274e+005 -2.1643e+006 -4.4406e+005 166322 202563,202641,202589
 9.2000e+001 202891 -8.7261e+004 -7.6317e+005 -5.6196e+004 165918 202715,202767,202741
 9.2000e+001 202868 -1.9716e+005 -1.3861e+006 -3.9016e+005 165918 202715,202793,202767
 9.2000e+001 202845 -8.6581e+005 -1.3097e+006 -3.3530e+005 165918 202715,202819,202793
 9.2000e+001 203092 -6.6541e+005 -1.0767e+006 -5.6002e+005 165628 202916,202968,202942
 9.2000e+001 203069  3.4361e+004 -2.5821e+006 -6.5442e+005 165628 202916,202994,202968
 9.2000e+001 203046 -2.6820e+005 -3.7464e+006  3.1500e+005 165628 202916,203020,202994
 9.2000e+001 203293 -3.4734e+006 -1.8593e+006 -2.4994e+006 165266 203143,203195,203169
 9.2000e+001 203270 -1.3761e+006 -4.8917e+006 -5.9938e+005 165266 203143,203221,203195
 9.2000e+001 203247 -9.3655e+005 -5.1547e+006 -9.1656e+005 165266 203117,203221,203143
 9.2000e+001 203445 -2.5293e+005 -1.7964e+006  5.9393e+005 164826 203318,203370,203344
 9.2000e+001 203422 -1.2313e+005 -1.1940e+006 -1.2209e+005 164826 203318,203396,203370
 9.2000e+001 203597 -1.0749e+006 -4.9070e+005 -8.0777e+004 164386 203470,203522,203496
 9.2000e+001 203574 -1.5648e+006 -2.3496e+006 -2.5019e+005 164386 203470,203548,203522
 9.2000e+001 203798 -3.3738e+005 -1.4450e+004 -3.8974e+003 163996 203622,203674,203648
 9.2000e+001 203775 -8.5069e+005  8.7437e+002  1.5157e+005 163996 203622,203726,203674
 9.2000e+001 203752 -8.1846e+005 -3.4520e+003 -5.3004e+004 163996 203674,203726,203700
 9.2000e+001 203901 -3.7403e+005 -8.2360e+005  8.3422e+004 163770 203823,203875,203849
 9.2000e+001 204053 -1.7464e+006 -3.0837e+006 -1.3247e+006 163474 203952,204004,203978
 9.2000e+001 204030 -1.3754e+006 -2.8407e+006 -1.0368e+006 163474 203926,204004,203952
 9.2000e+001 204205  1.1831e+005 -7.5090e+005 -4.2020e+005 163034 204104,204156,204130
 9.2000e+001 204182 -4.5771e+005 -1.4488e+006 -1.1149e+006 163034 204078,204156,204104
 9.2000e+001 204357 -5.5561e+004 -6.8851e+003  1.9579e+004 162624 204256,204308,204282
 9.2000e+001 204334 -5.5600e+004 -6.8761e+003  1.9522e+004 162624 204230,204308,204256
 9.2000e+001 204509 -1.2520e+005 -2.3735e+004  5.0400e+004 162200 204382,204434,204408
 9.2000e+001 204486 -1.0015e+005 -7.2711e+004  1.0434e+005 162200 204382,204460,204434
 9.2000e+001 204710 -2.2322e+006 -3.9734e+005  3.4928e+005 161810 204560,204638,204586
 9.2000e+001 204687 -1.4471e+006 -1.4098e+006 -1.0639e+006 161810 204534,204638,204560
 9.2000e+001 204664 -1.9807e+006 -3.1669e+005  6.4967e+005 161810 204586,204638,204612
 9.2000e+001 204862 -6.2228e+005 -6.1892e+005 -2.4883e+005 161406 204735,204787,204761
 9.2000e+001 204839 -6.7166e+004 -1.1404e+006 -1.1421e+005 161406 204735,204813,204787
 9.2000e+001 205014 -3.9911e+000 -4.0772e+003  7.1841e+002 161180 204887,204939,204913
 9.2000e+001 204991 -4.3842e+002 -2.1695e+003 -4.1213e+002 161180 204887,204965,204939
 9.2000e+001 205215 -4.8292e+005 -1.7506e+006 -1.8438e+006 160726 205039,205091,205065
 9.2000e+001 205192 -6.8438e+005 -2.6614e+006 -1.5158e+006 160726 205039,205143,205091
 9.2000e+001 205169 -1.6006e+006 -4.2931e+006 -2.1983e+006 160726 205091,205143,205117
 9.2000e+001 205416 -3.1161e+001 -2.6402e+000  9.6842e+000 160272 205292,205344,205318
 9.2000e+001 205393 -4.1363e+001  1.2523e+001  1.3438e+000 160272 205240,205344,205292
 9.2000e+001 205370 -4.0740e+001 -7.1268e+000 -2.4412e+001 160272 205240,205292,205266
 9.2000e+001 205568 -3.7953e+002 -5.1323e+003 -8.6928e+001 159932 205441,205493,205467
 9.2000e+001 205545  2.3518e+002 -3.1989e+003 -4.6143e+002 159932 205441,205519,205493
 9.2000e+001 205720 -2.2223e+002 -1.6293e+002  2.2035e+002 159542 205593,205645,205619
 9.2000e+001 205697 -2.2092e+002 -1.0749e+002  1.1980e+002 159542 205593,205671,205645
 9.2000e+001 205872  2.0951e+002 -1.2632e+003 -1.6339e+002 159252 205745,205797,205771
 9.2000e+001 205849 -4.1644e+002 -3.3548e+003 -1.1068e+003 159252 205745,205823,205797
 9.2000e+001 206024 -1.2311e+005 -1.2470e+006  4.2604e+005 159004 205923,205975,205949
 9.2000e+001 206001 -6.8500e+004 -2.1241e+006  5.9805e+005 159004 205897,205975,205923
 9.2000e+001 206127 -4.5495e+006 -3.8393e+006  3.3742e+003 158364 206049,206101,206075
 9.2000e+001 206328 -1.1038e+005 -2.0952e+004  5.2186e+004 157960 206178,206256,206204
 9.2000e+001 206305 -3.8970e+004 -3.6316e+004  3.0325e+004 157960 206152,206256,206178
 9.2000e+001 206282 -9.7940e+004 -4.1531e+004  5.8762e+004 157960 206204,206256,206230
 9.2000e+001 206529 -1.5821e+006 -4.1367e+006  1.0735e+006 157648 206405,206457,206431
 9.2000e+001 206506 -2.5782e+006 -1.1238e+006  9.2732e+005 157648 206379,206457,206405
 9.2000e+001 206483 -2.6437e+006 -8.1448e+005  1.3150e+006 157648 206353,206457,206379
 9.2000e+001 206730 -1.2396e+004 -8.1586e+004  3.6334e+004 157208 206554,206606,206580
 9.2000e+001 206707 -2.3674e+004 -6.2603e+004  3.7762e+004 157208 206554,206632,206606
 9.2000e+001 206684 -3.7879e+004 -7.3755e+004 -1.6536e+004 157208 206554,206658,206632
 9.2000e+001 206882 -2.5760e+002 -1.7213e+003 -2.4614e+002 157010 206755,206807,206781
 9.2000e+001 206859  1.0344e+002 -4.6101e+003  1.2774e+003 157010 206755,206833,206807
 9.2000e+001 207034 -2.2636e+004  5.5867e+004 -5.7277e+003 156620 206907,206959,206933
 9.2000e+001 207011  2.5575e+003 -2.5063e+005  1.0181e+004 156620 206907,206985,206959
 9.2000e+001 207186 -2.3343e+005 -1.6844e+006 -1.8803e+005 156330 207085,207137,207111
 9.2000e+001 207163 -5.2158e+005 -1.8662e+006 -1.4436e+006 156330 207059,207137,207085
 9.2000e+001 207387 -9.5889e+004 -1.1211e+006 -2.6433e+005 155890 207211,207289,207237
 9.2000e+001 207364 -1.1885e+006 -1.4220e+006 -7.8216e+005 155890 207211,207315,207289
 9.2000e+001 207341 -3.0415e+005 -7.0125e+005 -1.7484e+004 155890 207237,207289,207263
 9.2000e+001 207588 -8.2007e+005 -1.9609e+007  7.7648e+006 155436 207438,207490,207464
 9.2000e+001 207565 -1.4242e+006 -1.3399e+007 -9.9090e+005 155436 207412,207490,207438
 9.2000e+001 207542 -2.7722e+006 -6.3902e+006 -1.1376e+006 155436 207412,207516,207490
 9.2000e+001 207789  1.6451e+006 -2.8575e+007 -1.9066e+006 155260 207639,207691,207665
 9.2000e+001 207766 -3.7218e+006 -8.6320e+006  4.3989e+006 155260 207613,207691,207639
 9.2000e+001 207743 -1.5402e+006 -6.3233e+006 -8.4570e+004 155260 207613,207717,207691
 9.2000e+001 207990 -3.3874e+002 -7.7427e+002 -2.1732e+002 154920 207840,207918,207892
 9.2000e+001 207967 -1.2035e+003 -1.2174e+003 -2.7583e+003 154920 207814,207918,207840
 9.2000e+001 207944  4.0439e+002 -8.4303e+002 -3.2508e+002 154920 207840,207892,207866
 9.2000e+001 208191 -6.4993e+003 -1.1524e+005  1.7125e+004 154630 208015,208093,208041
 9.2000e+001 208168 -1.4729e+003 -1.1621e+005  1.0528e+004 154630 208015,208119,208093
 9.2000e+001 208145 -1.5730e+004 -2.9525e+004 -2.1838e+004 154630 208041,208093,208067
 9.2000e+001 208343  8.2799e+001 -1.1023e+003  4.1469e+001 154240 208216,208268,208242
 9.2000e+001 208320  4.1334e+002 -5.3735e+002  4.4004e+002 154240 208216,208294,208268
 9.2000e+001 208495  3.4923e+005 -2.7714e+006 -8.0033e+005 153950 208394,208446,208420
 9.2000e+001 208472 -1.6652e+005 -5.6516e+005  2.1400e+005 153950 208368,208446,208394
 9.2000e+001 208647 -4.9332e+005 -2.4552e+005  7.6701e+005 153603 208520,208572,208546
 9.2000e+001 208624 -6.2091e+005 -7.5117e+005 -6.3737e+005 153603 208520,208598,208572
 9.2000e+001 208848 -1.1054e+006 -4.7459e+005  1.1554e+005 153149 208698,208776,208724
 9.2000e+001 208825 -2.7131e+006  2.2214e+004  1.8187e+005 153149 208672,208776,208698
 9.2000e+001 208802 -6.1758e+005 -2.8255e+005  4.0680e+005 153149 208724,208776,208750
 9.2000e+001 209000 -1.6815e+004 -1.2400e+006 -1.1782e+005 152859 208873,208925,208899
 9.2000e+001 208977 -3.5187e+005 -7.0248e+005 -1.2307e+005 152859 208873,208951,208925
 9.2000e+001 209152  1.1764e+004 -1.3474e+006 -1.6286e+005 152569 209051,209103,209077
 9.2000e+001 209129 -1.2035e+005 -7.6863e+005  1.4118e+005 152569 209025,209103,209051
 9.2000e+001 209304  1.1660e+002 -4.0149e+002 -1.3705e+002 152065 209177,209229,209203
 9.2000e+001 209281 -4.8406e+001 -3.5385e+002 -7.2928e+001 152065 209177,209255,209229
 9.2000e+001 209456 -3.0372e+006 -1.4559e+006 -5.9544e+005 151775 209355,209407,209381
 9.2000e+001 209433 -1.5707e+006 -1.2749e+006  3.0224e+005 151775 209329,209407,209355
 9.2000e+001 209608 -1.0655e+006 -2.9084e+006 -8.3565e+005 151371 209481,209533,209507
 9.2000e+001 209585  4.4731e+005 -4.9147e+006 -4.1602e+005 151371 209481,209559,209533
 9.2000e+001 209760 -8.1392e+004 -1.5934e+003 -4.0003e+004 150981 209659,209711,209685
 9.2000e+001 209737 -1.4564e+005 -2.2310e+003 -2.4520e+004 150981 209633,209711,209659
 9.2000e+001 209912  2.1654e+006 -2.9480e+007 -2.6250e+006 150619 209811,209863,209837
 9.2000e+001 209889 -2.7458e+006 -1.2150e+007  3.3287e+006 150619 209785,209863,209811
 9.2000e+001 210064 -8.7587e+004 -8.0544e+004  3.7235e+004 150279 209937,209989,209963
 9.2000e+001 210041 -1.8572e+004 -1.6462e+004 -1.0903e+004 150279 209937,210015,209989
 9.2000e+001 210265 -2.4118e+006 -4.0073e+006 -2.4187e+005 149989 210115,210167,210141
 9.2000e+001 210242 -1.7642e+006 -5.4065e+006 -1.8234e+006 149989 210115,210193,210167
 9.2000e+001 210219 -5.6167e+005 -3.9494e+006 -9.5306e+005 149989 210089,210193,210115
 9.2000e+001 210417  3.2667e+003 -5.2434e+004 -6.5511e+003 149599 210316,210368,210342
 9.2000e+001 210394 -4.0563e+003 -1.9680e+004  4.0074e+003 149599 210290,210368,210316
 9.2000e+001 210618 -3.0100e+006 -1.3129e+007  4.2851e+006 149095 210468,210520,210494
 9.2000e+001 210595 -2.8180e+006 -1.2951e+007  2.9144e+006 149095 210442,210520,210468
 9.2000e+001 210572 -1.3961e+006 -1.4298e+007  2.5371e+006 149095 210442,210546,210520
 9.2000e+001 210819  6.3007e+000 -3.5161e+001 -1.0736e+001 148748 210695,210747,210721
 9.2000e+001 210796  1.7174e+001 -8.2382e+000 -2.2194e+000 148748 210669,210747,210695
 9.2000e+001 210773 -8.3770e+001  5.3400e+000  4.9020e+000 148748 210643,210747,210669
 9.2000e+001 210971 -4.6083e+001 -2.1075e+002  5.6197e+001 148408 210870,210922,210896
 9.2000e+001 210948  3.9010e+001 -4.5159e+002  1.1761e+002 148408 210844,210922,210870
 9.2000e+001 211123 -9.1947e+004 -7.5762e+005  2.1322e+005 148118 210996,211048,211022
 9.2000e+001 211100 -3.1323e+005 -7.1991e+005  4.8043e+005 148118 210996,211074,211048
 9.2000e+001 211275 -1.9034e+005 -4.8845e+005  1.6242e+005 147778 211148,211200,211174
 9.2000e+001 211252 -3.6719e+005 -1.1326e+006  6.7737e+005 147778 211148,211226,211200
 9.2000e+001 211427 -4.1556e+004 -2.2090e+005  8.4078e+004 147324 211326,211378,211352
 9.2000e+001 211404  1.0872e+004 -3.2716e+005  2.3128e+004 147324 211300,211378,211326
 9.2000e+001 211628 -2.3244e+006 -1.3273e+006  9.8069e+005 147012 211452,211504,211478
 9.2000e+001 211605 -2.2851e+006  8.8802e+005  1.3756e+006 147012 211452,211556,211504
 9.2000e+001 211582 -2.2416e+006 -4.1239e+005  1.8399e+006 147012 211504,211556,211530
 9.2000e+001 211829 -1.6883e+005 -4.3817e+005  2.8236e+005 146636 211679,211757,211731
 9.2000e+001 211806 -9.8108e+004 -7.5933e+005  2.0158e+005 146636 211653,211757,211679
 9.2000e+001 211783 -1.1861e+005 -4.0257e+005  2.4116e+005 146636 211679,211731,211705
 9.2000e+001 211981 -2.5967e+002 -1.2680e+003 -3.7848e+001 146246 211880,211932,211906
 9.2000e+001 211958 -1.7105e+002 -3.1678e+001  2.0902e+001 146246 211854,211932,211880
 9.2000e+001 212133 -4.1528e+002 -6.1208e+002  3.5035e+002 145956 212006,212058,212032
 9.2000e+001 212110 -1.8423e+002 -8.0873e+002  3.8497e+002 145956 212006,212084,212058
 9.2000e+001 212285 -3.4211e+002 -3.1458e+003  3.4298e+002 145544 212184,212236,212210
 9.2000e+001 212262 -3.6042e+002 -3.1155e+002  1.0756e+002 145544 212158,212236,212184
 9.2000e+001 212486 -4.3741e+005 -1.6285e+007  3.9688e+006 144990 212362,212414,212388
 9.2000e+001 212463  2.9820e+005 -1.3100e+007  5.7726e+006 144990 212310,212414,212362
 9.2000e+001 212440 -5.6246e+006 -3.1759e+006  1.6362e+006 144990 212310,212362,212336
 9.2000e+001 212638 -1.0210e+005 -7.6738e+004  6.0716e+004 144600 212537,212589,212563
 9.2000e+001 212615 -6.6905e+004 -3.0206e+004 -1.4753e+003 144600 212511,212589,212537
 9.2000e+001 212839 -3.9926e+005 -1.7362e+006  5.6063e+005 144210 212689,212741,212715
 9.2000e+001 212816 -5.5778e+005 -2.0000e+006  9.9648e+005 144210 212663,212741,212689
 9.2000e+001 212793 -5.7082e+005 -2.0495e+006  1.0064e+006 144210 212663,212767,212741
 9.2000e+001 212991 -1.4144e-002  1.4401e+000 -7.2583e-001 143920 212890,212942,212916
 9.2000e+001 212968  2.1636e-001  6.8953e-001 -9.4339e-001 143920 212864,212942,212890
 9.2000e+001 213143 -1.3420e+002 -6.6391e+002 -7.2215e-001 143480 213016,213068,213042
 9.2000e+001 213120 -1.6577e+002 -4.3069e+002 -2.2091e+002 143480 213016,213094,213068
 9.2000e+001 213295 -7.3198e+003 -3.9126e+005  8.5337e+004 142990 213194,213246,213220
 9.2000e+001 213272  1.1366e+004 -3.0617e+005  1.1639e+005 142990 213168,213246,213194
 9.2000e+001 213447  1.0260e+005 -3.0885e+005  2.2695e+005 142600 213320,213372,213346
 9.2000e+001 213424 -2.0673e+005 -3.9198e+005  2.8005e+005 142600 213320,213398,213372
 9.2000e+001 213599 -1.0966e+004 -1.8695e+005  9.5014e+004 142260 213472,213524,213498
 9.2000e+001 213576 -9.1724e+003 -1.9058e+005  3.3028e+004 142260 213472,213550,213524
 9.2000e+001 213751 -1.9070e+004  1.1484e+004  2.7217e+003 141870 213624,213676,213650
 9.2000e+001 213728 -1.0960e+005 -7.6689e+003  1.8146e+003 141870 213624,213702,213676
 9.2000e+001 213903 -1.3363e+006 -1.4849e+006 -1.4308e+006 141530 213776,213828,213802
 9.2000e+001 213880 -3.6112e+005 -1.7582e+006 -7.0134e+005 141530 213776,213854,213828
 9.2000e+001 214055 -5.2931e+006 -8.5782e+004  6.4612e+005 141218 213928,213980,213954
 9.2000e+001 214032 -3.1981e+006 -6.3961e+005  1.8863e+005 141218 213928,214006,213980
 9.2000e+001 214207 -1.5515e+003 -1.8923e+003  1.7566e+003 140928 214080,214132,214106
 9.2000e+001 214184 -5.2392e+002 -1.3356e+003  9.8099e+002 140928 214080,214158,214132
 9.2000e+001 214359 -1.2964e+004 -1.3184e+005 -1.4475e+004 140538 214232,214284,214258
 9.2000e+001 214336 -4.2277e+004 -2.5250e+005  1.2593e+005 140538 214232,214310,214284
 9.2000e+001 214560 -6.3513e+005 -5.5742e+006  1.5599e+006 140248 214384,214462,214410
 9.2000e+001 214537 -1.1898e+005 -3.0882e+006  7.6458e+005 140248 214384,214488,214462
 9.2000e+001 214514 -4.4199e+005 -3.6049e+006  9.2976e+004 140248 214410,214462,214436
 9.2000e+001 214712 -9.5064e+004 -9.5118e+004 -5.5101e+003 140000 214611,214663,214637
 9.2000e+001 214689 -6.4894e+004 -1.5038e+005  1.0310e+005 140000 214585,214663,214611
 9.2000e+001 214913 -2.1783e+005 -1.5256e+006 -3.3168e+005 139596 214737,214815,214763
 9.2000e+001 214890 -1.9518e+005 -9.1436e+005  3.9480e+004 139596 214737,214841,214815
 9.2000e+001 214867  5.6289e+005 -5.0654e+006  5.9562e+005 139596 214763,214815,214789
 9.2000e+001 215016  5.3363e+001 -3.7744e+002  1.0836e+002 139420 214938,214990,214964
 9.2000e+001 215168 -4.2418e+006 -9.4281e+006  6.4260e+006 139130 215067,215119,215093
 9.2000e+001 215145 -2.7271e+006 -1.0524e+007  4.6956e+006 139130 215041,215119,215067
 9.2000e+001 215320 -2.8201e+006 -4.4250e+006  3.0150e+006 138790 215219,215271,215245
 9.2000e+001 215297 -2.6572e+006 -1.1077e+007  6.5567e+006 138790 215193,215271,215219
 9.2000e+001 215472 -5.4406e+003 -2.3575e+004  8.7400e+003 138514 215345,215397,215371
 9.2000e+001 215449 -8.9479e+003 -3.7793e+004  2.1017e+004 138514 215345,215423,215397
 9.2000e+001 215624 -3.9999e+005 -6.8445e+006  2.0417e+006 138174 215497,215549,215523
 9.2000e+001 215601 -6.4860e+005 -6.0667e+006  1.9700e+006 138174 215497,215575,215549
 9.2000e+001 215776 -2.3749e-001 -4.1347e-001 -1.1603e+000 137734 215649,215701,215675
 9.2000e+001 215753  4.5246e-001 -2.8498e+000 -1.4311e-001 137734 215649,215727,215701
 9.2000e+001 215977  1.7401e+006 -6.8726e+006 -2.2232e+004 137344 215801,215879,215827
 9.2000e+001 215954 -1.0263e+006 -1.3153e+006 -9.4091e+005 137344 215801,215905,215879
 9.2000e+001 215931 -1.4158e+005 -9.0100e+006 -4.9330e+006 137344 215827,215879,215853
 9.2000e+001 216129 -1.9877e+005 -3.4428e+005 -9.5062e+003 136940 216028,216080,216054
 9.2000e+001 216106 -1.5159e+005 -6.3785e+005  2.6902e+005 136940 216002,216080,216028
 9.2000e+001 216330 -6.2293e+005 -7.8528e+006  2.8638e+005 136600 216180,216232,216206
 9.2000e+001 216307 -1.8045e+006 -8.1372e+006  4.2673e+006 136600 216154,216232,216180
 9.2000e+001 216284 -7.7810e+005 -4.6771e+006  1.9732e+006 136600 216154,216258,216232
 9.2000e+001 216482  6.3920e+005 -4.5138e+006  1.0821e+006 136260 216381,216433,216407
 9.2000e+001 216459  1.6056e+005 -2.5252e+006  1.0219e+006 136260 216355,216433,216381
 9.2000e+001 216634 -1.0479e+005 -3.5748e+004  6.0258e+004 135970 216533,216585,216559
 9.2000e+001 216611 -8.0363e+004 -1.7313e+005  1.5105e+005 135970 216507,216585,216533
 9.2000e+001 216835 -6.5594e+004 -2.3410e+006  2.4976e+005 135608 216685,216763,216711
 9.2000e+001 216812  1.5783e+005 -2.6945e+006 -3.1633e+005 135608 216659,216763,216685
 9.2000e+001 216789 -1.0327e+004 -5.5352e+005  3.4768e+003 135608 216711,216763,216737
 9.2000e+001 217036 -1.8404e+005 -1.1643e+005  8.0759e+004 135312 216912,216964,216938
 9.2000e+001 217013 -1.2704e+005 -5.0444e+005  3.2668e+005 135312 216886,216964,216912
 9.2000e+001 216990  8.6081e+004 -9.8899e+005  2.1484e+005 135312 216860,216964,216886
 9.2000e+001 217237 -1.6820e+005 -7.2607e+005  2.8373e+005 134908 217061,217139,217113
 9.2000e+001 217214 -3.7858e+005 -8.2783e+005  6.2845e+005 134908 217061,217165,217139
 9.2000e+001 217191 -4.6611e+005 -9.6338e+005  4.4220e+005 134908 217061,217113,217087
 9.2000e+001 217438 -7.4743e+005 -8.4999e+006 -2.3251e+006 134568 217288,217366,217314
 9.2000e+001 217415 -1.5763e+006 -8.8681e+006 -2.6124e+006 134568 217262,217366,217288
 9.2000e+001 217392 -1.4365e+006 -1.1314e+007 -3.3968e+006 134568 217314,217366,217340
 9.2000e+001 217590 -3.7753e+003 -2.6623e+004  3.7860e+003 134106 217463,217515,217489
 9.2000e+001 217567 -9.0912e+003 -3.6928e+004  2.0668e+004 134106 217463,217541,217515
 9.2000e+001 217791 -3.2863e+003 -1.2087e+004 -6.3025e+003 133816 217641,217693,217667
 9.2000e+001 217768 -1.6244e+006 -1.2145e+007 -4.4416e+006 133816 217641,217719,217693
 9.2000e+001 217745 -6.6929e+006 -1.4087e+006  3.0706e+006 133816 217615,217719,217641
 9.2000e+001 217992 -4.4997e+006 -4.3344e+006  4.8181e+006 133355 217842,217920,217894
 9.2000e+001 217969 -2.0596e+006 -7.8948e+006  3.8097e+006 133355 217816,217920,217842
 9.2000e+001 217946 -1.1446e+006 -2.4598e+006  1.1144e+006 133355 217842,217894,217868
 9.2000e+001 218193 -6.4650e+005 -6.3724e+006  1.0594e+006 132851 218017,218095,218069
 9.2000e+001 218170 -6.1001e+006 -6.2740e+006  6.2105e+006 132851 218017,218121,218095
 9.2000e+001 218147 -1.3902e+006 -2.5914e+006 -5.2316e+005 132851 218017,218069,218043
 9.2000e+001 218345  4.2800e-002  3.0923e-003 -1.1504e-002 132511 218244,218296,218270
 9.2000e+001 218322 -5.3533e-002 -3.8677e-003  1.4389e-002 132511 218218,218296,218244
 9.2000e+001 218497  2.8652e+006 -1.9911e+007  1.8824e+006 132235 218396,218448,218422
 9.2000e+001 218474  1.3387e+006 -1.0217e+007  2.0410e+006 132235 218370,218448,218396
 9.2000e+001 218698 -2.2513e+005 -6.4394e+006 -1.1405e+006 131945 218574,218626,218600
 9.2000e+001 218675 -1.3605e+006 -9.9473e+006 -2.1113e+006 131945 218522,218626,218574
 9.2000e+001 218652 -2.4505e+006 -5.3627e+006 -3.1021e+006 131945 218522,218574,218548
 9.2000e+001 218850 -1.0607e+006 -1.1164e+007  1.9569e+006 131655 218723,218775,218749
 9.2000e+001 218827 -3.6496e+005 -1.1926e+007  1.3848e+006 131655 218723,218801,218775
 9.2000e+001 218953 -1.1750e+005 -8.6078e+003 -4.0120e+004 131215 218875,218927,218901
 9.2000e+001 219105 -4.7993e+004 -1.3909e+006 -4.6711e+005 130875 218978,219030,219004
 9.2000e+001 219082 -2.4637e+005 -3.4026e+005 -1.1135e+005 130875 218978,219056,219030
 9.2000e+001 219306 -1.5849e+005 -1.1480e+006  1.9021e+005 130429 219156,219234,219208
 9.2000e+001 219283 -3.5856e+005 -5.2019e+005  2.4737e+005 130429 219130,219234,219156
 9.2000e+001 219260 -1.8374e+006 -1.5582e+006  8.2870e+005 130429 219156,219208,219182
 9.2000e+001 219507 -5.5387e+005 -1.1137e+006  7.6815e+005 130025 219383,219435,219409
 9.2000e+001 219484 -5.6309e+005 -1.6860e+006  9.6628e+005 130025 219331,219435,219383
 9.2000e+001 219461 -5.9007e+005 -1.1286e+006  6.9318e+005 130025 219331,219383,219357
 9.2000e+001 219659 -1.1204e-002 -8.0417e-001  9.4919e-002 129685 219558,219610,219584
 9.2000e+001 219636  2.5788e-002  1.8510e+000 -2.1848e-001 129685 219532,219610,219558
 9.2000e+001 219860 -3.3879e+005 -9.1978e+005  6.8339e+005 129395 219710,219788,219762
 9.2000e+001 219837 -5.0193e+005 -1.0165e+006  5.7086e+005 129395 219684,219788,219710
 9.2000e+001 219814 -3.2611e+005 -1.0627e+006  5.8866e+005 129395 219710,219762,219736
 9.2000e+001 220061 -1.6578e+000 -7.9296e-001  1.1466e+000 128991 219937,219989,219963
 9.2000e+001 220038  3.7217e+000  7.0603e-001 -1.0550e+000 128991 219885,219989,219937
 9.2000e+001 220015 -3.6527e+000 -8.8382e-004  5.6818e-002 128991 219885,219937,219911
 9.2000e+001 220262  5.9819e-001  1.5322e+001 -7.9832e+000 128701 220086,220164,220112
 9.2000e+001 220239  1.3866e+000  3.2697e+000  2.1293e+000 128701 220086,220190,220164
 9.2000e+001 220216 -7.7247e+000 -7.4153e+001  2.3933e+001 128701 220112,220164,220138
 9.2000e+001 220463 -3.3800e+006 -8.6570e+006  4.3632e+006 128297 220339,220391,220365
 9.2000e+001 220440 -2.1582e+006 -1.1392e+007  3.6176e+006 128297 220313,220391,220339
 9.2000e+001 220417 -6.4835e+005 -1.5112e+007 -3.9079e+006 128297 220287,220391,220313
 9.2000e+001 220615 -5.8776e-002 -2.1001e-002 -3.5133e-002 128007 220488,220540,220514
 9.2000e+001 220592  6.3940e-002  2.2846e-002  3.8220e-002 128007 220488,220566,220540
 9.2000e+001 220767 -1.6699e+005 -2.4850e+006  5.2333e+005 127567 220640,220692,220666
 9.2000e+001 220744 -2.0371e+005 -1.8341e+006  4.3501e+005 127567 220640,220718,220692
 9.2000e+001 220919 -6.1704e+005 -1.1716e+007 -1.0879e+006 127163 220792,220844,220818
 9.2000e+001 220896 -1.5069e+006 -1.5325e+007  3.5544e+006 127163 220792,220870,220844
 9.2000e+001 221071 -3.6084e+006 -2.6209e+006  2.7338e+006 126915 220970,221022,220996
 9.2000e+001 221048 -1.7653e+006 -5.3763e+006  2.5168e+006 126915 220944,221022,220970
 9.2000e+001 221272 -1.9953e+006 -5.6667e+006  3.5545e+006 126461 221122,221174,221148
 9.2000e+001 221249 -6.1577e+005 -5.7684e+006  2.4346e+006 126461 221122,221200,221174
 9.2000e+001 221226 -2.1242e+006 -4.2018e+006  2.9877e+006 126461 221096,221200,221122
 9.2000e+001 221375  9.6367e+000 -4.7228e+001 -3.8120e+000 126213 221297,221349,221323
 9.2000e+001 221478 -3.7279e-026 -5.7797e-028 -5.4680e-027 125766 221400,221452,221426
 9.2000e+001 221679 -5.1592e-002 -2.5848e-003 -1.1548e-002 125212 221503,221555,221529
 9.2000e+001 221656  9.2018e-002  1.2411e-001  8.8452e-002 125212 221503,221581,221555
 9.2000e+001 221633 -1.8364e-001 -4.3400e-001 -2.8231e-001 125212 221503,221607,221581
 9.2000e+001 221929 -9.9165e-001 -1.2744e+000 -5.9311e-001 124872 221782,221834,221808
 9.2000e+001 221906  4.0508e+000 -2.8743e-001  3.8544e-001 124872 221756,221834,221782
 9.2000e+001 221883  1.6909e+000  5.1301e-001  2.2337e+000 124872 221704,221834,221756
 9.2000e+001 221860 -2.5118e+000 -1.5333e+000 -8.4146e-001 124872 221704,221756,221730
 9.2000e+001 222130 -7.2018e+005 -4.5229e+006 -9.1275e+004 124582 221980,222058,222006
 9.2000e+001 222107 -1.7576e+006 -3.9027e+006  3.5635e+005 124582 221954,222058,221980
 9.2000e+001 222084 -1.6488e+006 -4.7892e+006 -5.6889e+005 124582 222006,222058,222032
 9.2000e+001 222282 -2.3489e+006 -4.2122e+006 -1.9654e+005 124192 222181,222233,222207
 9.2000e+001 222259 -2.9224e+005 -3.9722e+006 -1.0365e+005 124192 222155,222233,222181
 9.2000e+001 222483 -1.0735e+002 -3.9956e+002 -1.4021e+001 123702 222333,222385,222359
 9.2000e+001 222460  1.5246e+002 -6.3430e+002 -2.9449e+002 123702 222333,222411,222385
 9.2000e+001 222437  5.7061e+002 -2.5401e+002  2.9204e+002 123702 222307,222411,222333
 9.2000e+001 222635 -1.3630e+003 -2.0863e+003  1.1730e+003 123312 222508,222560,222534
 9.2000e+001 222612 -6.2060e+002 -2.0988e+003  7.9799e+002 123312 222508,222586,222560
 9.2000e+001 222787 -6.8105e+000 -8.5061e-002  7.6112e-001 122858 222686,222738,222712
 9.2000e+001 222764  2.3577e+000  2.9448e-002 -2.6350e-001 122858 222660,222738,222686
 9.2000e+001 222939 -2.3645e+001 -2.9105e+002  1.4502e+001 122568 222812,222864,222838
 9.2000e+001 222916  2.7045e+001 -5.7817e+001  2.4574e+001 122568 222812,222890,222864
 9.2000e+001 223091 -9.7127e+001 -3.1526e+001 -2.7582e+002 122392 222964,223016,222990
 9.2000e+001 223068 -4.4132e+002  1.0746e+001 -3.8619e+002 122392 222964,223042,223016
 9.2000e+001 223292 -1.2343e+006 -7.3799e+005  5.4909e+005 121852 223142,223220,223194
 9.2000e+001 223269 -1.8395e+006 -8.6823e+005  3.9696e+005 121852 223116,223220,223142
 9.2000e+001 223246 -2.1152e+006 -8.1077e+005 -3.6479e+005 121852 223142,223194,223168
 9.2000e+001 223493 -1.6687e+006 -3.2186e+005  7.5387e+005 121406 223343,223395,223369
 9.2000e+001 223470 -1.4210e+006 -1.7099e+005  5.8027e+005 121406 223343,223421,223395
 9.2000e+001 223447 -6.0761e+005 -3.6877e+005  3.6236e+005 121406 223317,223421,223343
 9.2000e+001 223645  2.4232e+005 -1.5749e+007  3.7119e+006 121002 223544,223596,223570
 9.2000e+001 223622 -1.4059e+006 -1.2993e+007  3.4747e+006 121002 223518,223596,223544
 9.2000e+001 223846  2.4131e+000  2.5817e+000  1.8647e+000 120662 223670,223748,223696
 9.2000e+001 223823 -2.3658e+000 -6.4507e-001 -1.2354e+000 120662 223670,223774,223748
 9.2000e+001 223800 -7.3747e-001 -5.2159e+000 -1.9613e+000 120662 223696,223748,223722
 9.2000e+001 224047 -1.6615e+000 -2.1679e+000  1.8979e+000 120222 223897,223949,223923
 9.2000e+001 224024  1.0966e+000  3.2707e+000 -1.2296e-001 120222 223871,223949,223897
 9.2000e+001 224001 -7.7731e-001 -5.9680e+000 -2.1538e+000 120222 223871,223975,223949
 9.2000e+001 224248 -5.5957e+001 -2.1868e+002  5.9525e+001 119875 224124,224176,224150
 9.2000e+001 224225  3.0082e+002 -1.1323e+003 -3.6113e+001 119875 224098,224176,224124
 9.2000e+001 224202 -2.0467e+002 -8.8140e+002  4.8988e+002 119875 224072,224176,224098
 9.2000e+001 224449  1.4994e+000  7.0374e-005 -1.0272e-002 119677 224325,224377,224351
 9.2000e+001 224426  1.4225e+000  1.1828e+000 -2.4389e+000 119677 224299,224377,224325
 9.2000e+001 224403 -1.3562e+001 -3.1252e+000  6.5104e+000 119677 224273,224377,224299
 9.2000e+001 224552  3.6715e-026 -5.0485e-026 -2.9842e-026 119273 224474,224526,224500
 9.2000e+001 224704  3.3538e+001 -4.5820e+002  7.6539e+001 118983 224603,224655,224629
 9.2000e+001 224681 -1.4951e+002 -2.6300e+002  2.1421e+002 118983 224577,224655,224603
 9.2000e+001 224856  4.1858e+002  5.6448e+002 -7.3096e+000 118529 224755,224807,224781
 9.2000e+001 224833  4.4945e+002  9.5280e+002  5.4065e+001 118529 224729,224807,224755
 9.2000e+001 225008 -1.6568e+000 -3.6415e-001 -7.7674e-001 118353 224881,224933,224907
 9.2000e+001 224985  1.2556e+000  2.7596e-001  5.8864e-001 118353 224881,224959,224933
 9.2000e+001 225209 -1.0015e+006 -5.1909e+006 -1.8964e+006 117949 225059,225137,225111
 9.2000e+001 225186 -2.2458e+005 -3.1992e+006  8.4757e+005 117949 225033,225137,225059
 9.2000e+001 225163  9.7878e+005 -1.2688e+007  2.2499e+006 117949 225059,225111,225085
 9.2000e+001 225410  1.3373e+005 -8.8414e+006  4.3964e+005 117559 225260,225338,225312
 9.2000e+001 225387 -3.4409e+006 -9.7582e+006  1.7898e+005 117559 225234,225338,225260
 9.2000e+001 225364 -7.1453e+005 -6.7647e+006 -2.1992e+006 117559 225260,225312,225286
 9.2000e+001 225611 -2.4186e+006 -1.1563e+007 -3.3682e+006 117361 225461,225513,225487
 9.2000e+001 225588 -4.0707e+006 -1.3020e+007  2.8002e+006 117361 225461,225539,225513
 9.2000e+001 225565 -3.3644e+005 -1.6591e+007  6.0312e+005 117361 225435,225539,225461
 9.2000e+001 225812  2.2018e+005 -1.1190e+007  1.7339e+004 116900 225636,225714,225662
 9.2000e+001 225789 -3.1287e+006 -2.7055e+006 -1.3857e+006 116900 225636,225740,225714
 9.2000e+001 225766 -1.5797e+003 -1.1242e+007  1.3451e+005 116900 225662,225714,225688
 9.2000e+001 225964  1.0992e+005 -8.2340e+006  1.0076e+005 116560 225837,225889,225863
 9.2000e+001 225941  4.2961e+005 -8.0696e+006 -4.2370e+004 116560 225837,225915,225889
 9.2000e+001 226165  1.3811e+001  2.8315e+001  1.7977e+001 116106 226015,226093,226041
 9.2000e+001 226142 -1.2153e+001 -1.7975e+001 -1.4780e+001 116106 225989,226093,226015
 9.2000e+001 226119 -3.4311e-001 -1.0248e+001 -1.8751e+000 116106 226041,226093,226067
 9.2000e+001 226268 -1.5724e+006 -3.9581e+006  1.5963e+006 115716 226190,226242,226216
 9.2000e+001 226420 -4.9298e+005 -1.4356e+007  2.3636e+006 115376 226293,226345,226319
 9.2000e+001 226397 -8.9654e+005 -1.5992e+007  5.2947e+006 115376 226293,226371,226345
 9.2000e+001 226621 -8.1409e+005 -2.6826e+006  4.9035e+005 114972 226497,226549,226523
 9.2000e+001 226598 -6.1467e+005 -1.5003e+007 -5.6868e+005 114972 226445,226549,226497
 9.2000e+001 226575  5.6903e+005 -6.6507e+006  7.7276e+005 114972 226445,226497,226471
 9.2000e+001 226773 -1.2137e+006 -4.9820e+006 -1.7441e+006 114670 226646,226698,226672
 9.2000e+001 226750  6.7627e+005 -1.0249e+007  1.0904e+006 114670 226646,226724,226698
 9.2000e+001 226974  4.4255e+004 -3.9246e+006  3.3355e+005 114082 226798,226850,226824
 9.2000e+001 226951  1.0908e+005 -3.6237e+006  2.0497e+005 114082 226798,226902,226850
 9.2000e+001 226928 -4.3413e+005 -5.9225e+006  3.1400e+005 114082 226850,226902,226876
 9.2000e+001 227175 -6.5450e+005 -7.6115e+006 -2.9262e+006 113678 226999,227051,227025
 9.2000e+001 227152 -1.3248e+006 -9.8978e+006 -3.4769e+006 113678 226999,227077,227051
 9.2000e+001 227129 -2.7215e+006 -4.7921e+006 -2.8147e+006 113678 226999,227103,227077
 9.2000e+001 227425 -3.9118e+006 -7.3134e+006 -6.9841e+006 113274 227226,227278,227252
 9.2000e+001 227402  1.6734e+003 -7.0241e+006 -1.0396e+006 113274 227226,227330,227278
 9.2000e+001 227379 -3.1981e+006 -2.1254e+006 -4.9679e+005 113274 227200,227330,227226
 9.2000e+001 227356 -1.1758e+006 -3.9312e+005 -6.7979e+005 113274 227278,227330,227304
 9.2000e+001 227626 -1.9169e+006 -2.8486e+006 -3.1408e+006 112934 227502,227554,227528
 9.2000e+001 227603  5.6545e+005 -2.5829e+006 -3.9935e+005 112934 227450,227554,227502
 9.2000e+001 227580 -2.2579e+006 -4.6510e+005  1.0193e+006 112934 227450,227502,227476
 9.2000e+001 227876 -4.0354e+005 -1.2587e+006 -2.6363e+005 112437 227677,227755,227703
 9.2000e+001 227853 -9.0686e+005 -1.4251e+006  1.0229e+006 112437 227677,227781,227755
 9.2000e+001 227830 -2.7098e+005 -3.9565e+005  2.1527e+005 112437 227703,227755,227729
 9.2000e+001 227807  1.2286e+006 -8.1138e+006 -7.4669e+005 112437 227651,227781,227677
 9.2000e+001 228126 -2.3203e+005 -3.9967e+006 -6.7939e+005 112041 227927,228005,227953
 9.2000e+001 228103 -5.0426e+005 -3.7132e+006 -5.3777e+005 112041 227927,228031,228005
 9.2000e+001 228080  8.1636e+004 -5.0663e+006 -4.8086e+005 112041 227953,228005,227979
 9.2000e+001 228057 -1.1171e+006 -2.9864e+006 -9.5659e+005 112041 227901,228031,227927
 9.2000e+001 228327 -2.9006e+006 -3.0054e+006  5.0317e+004 111693 228151,228203,228177
 9.2000e+001 228304 -1.1905e+006 -2.5577e+006 -1.0164e+006 111693 228151,228229,228203
 9.2000e+001 228281  1.9550e+005 -5.0903e+006  8.4644e+005 111693 228151,228255,228229
 9.2000e+001 228479  1.4400e+002 -6.7617e+001  2.9159e+002 111253 228352,228404,228378
 9.2000e+001 228456  9.0552e+001 -1.7148e+002  1.4131e+002 111253 228352,228430,228404
 9.2000e+001 228582 -1.6642e-221 -3.4518e-222  1.8421e-221 110906 228504,228556,228530
 9.2000e+001 228783  4.8934e+004 -5.4397e+005 -8.3707e+004 110416 228633,228711,228659
 9.2000e+001 228760 -2.0786e+004 -8.9075e+005 -4.8799e+004 110416 228607,228711,228633
 9.2000e+001 228737  6.4505e+004 -1.2503e+006 -8.9522e+004 110416 228659,228711,228685
 9.2000e+001 228935 -5.5793e+005 -3.3530e+006 -1.7003e+006 110012 228808,228860,228834
 9.2000e+001 228912 -2.1419e+006 -6.6441e+006 -2.9753e+006 110012 228808,228886,228860
 9.2000e+001 229087 -2.6769e+006 -2.4768e+006 -2.1063e+006 109672 228960,229012,228986
 9.2000e+001 229064  4.7194e+005 -6.0745e+006 -1.3949e+006 109672 228960,229038,229012
 9.2000e+001 229190  4.6863e-028 -2.7089e-027  1.7305e-027 109332 229112,229164,229138
 9.2000e+001 229391 -1.7882e+002 -2.8651e+001  1.3741e+001 109156 229267,229319,229293
 9.2000e+001 229368 -6.2521e+002  3.0160e+002 -5.5293e+002 109156 229215,229319,229267
 9.2000e+001 229345 -8.3684e+002  3.4710e+001 -1.0135e+002 109156 229215,229267,229241
 9.2000e+001 229543  7.8700e+005 -7.4886e+006  1.0155e+006 108752 229416,229468,229442
 9.2000e+001 229520 -2.8470e+005 -3.0806e+006 -4.7755e+005 108752 229416,229494,229468
 9.2000e+001 229744 -1.4288e+005 -4.4008e+006 -3.9438e+004 108198 229594,229646,229620
 9.2000e+001 229721  7.4922e+004 -4.3399e+006 -1.3222e+005 108198 229594,229672,229646
 9.2000e+001 229698 -6.6572e+005 -4.0069e+006 -8.1480e+003 108198 229568,229672,229594
 9.2000e+001 229847 -1.0118e+005 -9.8545e+004 -8.2712e+004 107758 229769,229821,229795
 9.2000e+001 230048 -5.0786e+005 -1.5162e+006 -5.2918e+005 107468 229898,229950,229924
 9.2000e+001 230025 -6.8546e+004 -1.0538e+006  2.2118e+005 107468 229872,229950,229898
 9.2000e+001 230002 -1.5672e+005 -5.6333e+005 -2.2153e+005 107468 229872,229976,229950
 9.2000e+001 230298  1.7508e+005 -9.0836e+005  5.6158e+005 107121 230099,230203,230177
 9.2000e+001 230275 -1.8898e+005 -6.1432e+005  2.8391e+005 107121 230073,230203,230099
 9.2000e+001 230252  6.6132e+005 -1.3904e+006 -5.1335e+005 107121 230099,230177,230151
 9.2000e+001 230229 -1.8700e+005 -1.4864e+006 -5.2733e+005 107121 230099,230151,230125
 9.2000e+001 230450 -3.3826e+005 -6.2876e+004  7.8951e+004 106823 230349,230401,230375
 9.2000e+001 230427 -1.2896e+005 -2.4171e+005  9.5872e+004 106823 230323,230401,230349
 9.2000e+001 230602 -5.3831e+006 -5.0047e+006 -7.7758e+006 106533 230501,230553,230527
 9.2000e+001 230579  2.3593e+006 -1.3047e+007  2.7331e+006 106533 230475,230553,230501
 9.2000e+001 230803 -6.8063e+004 -9.2981e+005 -6.5218e+004 106029 230679,230731,230705
 9.2000e+001 230780  3.3148e+004 -5.1379e+005 -4.5971e+004 106029 230653,230731,230679
 9.2000e+001 230757  8.6600e+003 -1.1264e+006 -1.2887e+005 106029 230627,230731,230653
 9.2000e+001 231004 -1.1590e+005 -2.4027e+006  2.7523e+005 105689 230854,230906,230880
 9.2000e+001 230981  2.8532e+004 -2.5603e+006  8.9790e+004 105689 230828,230906,230854
 9.2000e+001 230958 -5.2392e+005 -1.4804e+006 -7.6758e+005 105689 230828,230932,230906
 9.2000e+001 231156  2.0787e+005 -5.9072e+006 -2.2424e+005 105377 231055,231107,231081
 9.2000e+001 231133 -5.2153e+005 -3.5090e+006  3.9715e+005 105377 231029,231107,231055
 9.2000e+001 231406 -1.0846e+006 -6.6585e+006 -9.8836e+005 104858 231207,231259,231233
 9.2000e+001 231383 -1.6391e+006 -6.2282e+006 -1.7421e+006 104858 231207,231311,231259
 9.2000e+001 231360 -1.1306e+006 -7.4415e+006 -2.2313e+006 104858 231259,231311,231285
 9.2000e+001 231337 -9.7939e+005 -7.2475e+006 -1.9032e+006 104858 231181,231311,231207
 9.2000e+001 231558 -1.9426e+004 -1.4571e+007 -5.3355e+005 104418 231457,231509,231483
 9.2000e+001 231535 -5.5585e+006 -1.5122e+007 -9.5464e+006 104418 231431,231509,231457
 9.2000e+001 231710 -3.6368e+006 -5.1592e+004  4.3518e+005 103978 231583,231635,231609
 9.2000e+001 231687 -2.3855e+006 -1.2808e+005 -2.7047e+005 103978 231583,231661,231635
 9.2000e+001 231862 -9.9539e+005 -6.6536e+006 -8.0752e+005 103588 231761,231813,231787
 9.2000e+001 231839  2.5423e+005 -2.0662e+006 -1.8350e+005 103588 231735,231813,231761
 9.2000e+001 232014 -1.8505e+006 -6.3796e+006 -2.8305e+006 103248 231887,231939,231913
 9.2000e+001 231991 -3.4861e+006 -1.0416e+007 -5.6741e+006 103248 231887,231965,231939
 9.2000e+001 232215 -3.1476e+002 -3.4520e+003 -1.4094e+003 102844 232039,232117,232065
 9.2000e+001 232192 -2.8816e+002 -5.5318e+002 -3.3561e+002 102844 232039,232143,232117
 9.2000e+001 232169 -1.0644e+003 -3.1332e+003 -1.6224e+003 102844 232065,232117,232091
 9.2000e+001 232416 -3.5331e+006 -6.3799e+006 -3.3324e+006 102554 232240,232318,232292
 9.2000e+001 232393  4.8893e+005 -1.0927e+007 -5.9950e+005 102554 232240,232344,232318
 9.2000e+001 232370 -5.0192e+006 -2.5817e+006 -3.3006e+005 102554 232240,232292,232266
 9.2000e+001 232568 -3.7666e+004 -2.3395e+006  1.7243e+005 102100 232441,232493,232467
 9.2000e+001 232545 -2.3539e+005 -2.3927e+006  1.9460e+005 102100 232441,232519,232493
 9.2000e+001 232769 -1.6222e+005 -1.8567e+006  3.2300e+005 101596 232645,232697,232671
 9.2000e+001 232746  4.2987e+004 -1.1131e+006  1.8573e+005 101596 232593,232697,232645
 9.2000e+001 232723 -1.2528e+005 -1.5736e+006  3.3326e+005 101596 232593,232645,232619
 9.2000e+001 232921 -4.6469e+005 -3.2517e+005  5.9552e+004 101420 232794,232846,232820
 9.2000e+001 232898 -5.0577e+005 -4.9657e+005  7.8296e+004 101420 232794,232872,232846
 9.2000e+001 233073 -6.5409e+005 -1.6089e+006 -3.4928e+005 101023 232946,232998,232972
 9.2000e+001 233050  2.1878e+005 -3.5965e+006  1.3851e+006 101023 232946,233024,232998
 9.2000e+001 233225  8.9624e+002 -5.2957e+003 -4.0296e+002 100661 233098,233150,233124
 9.2000e+001 233202 -8.3002e+002  3.0182e+003 -9.1689e+002 100661 233098,233176,233150
 9.2000e+001 233426 -1.0939e+006 -6.1424e+006 -2.3321e+006 100265 233276,233328,233302
 9.2000e+001 233403 -1.2012e+006 -5.7741e+006 -1.2389e+006 100265 233276,233354,233328
 9.2000e+001 233380 -1.0753e+006 -5.6769e+006 -1.1681e+006 100265 233250,233354,233276
 9.2000e+001 233578 -9.8954e+003 -1.7858e+006  1.3297e+005 100032 233451,233503,233477
 9.2000e+001 233555 -2.1188e+005 -1.8011e+006  3.1605e+005 100032 233451,233529,233503
 9.2000e+001 233681 -2.9937e+006 -2.9487e+005 -2.9836e+004 99742 233603,233655,233629
 9.2000e+001 233784 -4.3002e+005 -9.2588e+005  5.5140e+005 99402 233706,233758,233732
 9.2000e+001 233936 -5.6271e+005 -9.1542e+005  6.4339e+005 99062 233835,233887,233861
 9.2000e+001 233913 -4.9657e+005 -5.0905e+005  7.0610e+004 99062 233809,233887,233835
 9.2000e+001 234088 -3.4259e+002 -3.9767e+002  3.0786e+002 98772 233987,234039,234013
 9.2000e+001 234065 -6.7616e+002 -3.3419e+002  5.5427e+002 98772 233961,234039,233987
 9.2000e+001 234240 -1.9665e+001 -1.3293e+001 -1.3996e+001 98160 234139,234191,234165
 9.2000e+001 234217 -1.7709e+001  8.6020e+000 -6.2763e+000 98160 234113,234191,234139
 9.2000e+001 234441  8.3235e+001 -2.1545e+002  6.0685e+000 97820 234317,234369,234343
 9.2000e+001 234418  4.2853e+000 -6.8816e+002 -1.8063e+002 97820 234291,234369,234317
 9.2000e+001 234395 -1.8985e+002 -1.3639e+003 -3.5607e+002 97820 234265,234369,234291
 9.2000e+001 234593 -8.9770e+002 -5.7605e+002 -1.5512e+002 97366 234466,234518,234492
 9.2000e+001 234570 -2.0893e+002 -6.1490e+002 -5.4066e+002 97366 234466,234544,234518
 9.2000e+001 234794 -4.0884e+005  1.3843e+005 -3.2548e+004 96976 234618,234670,234644
 9.2000e+001 234771 -7.0192e+004 -8.0340e+004 -7.3719e+004 96976 234618,234722,234670
 9.2000e+001 234748 -4.3851e+004  1.3122e+004 -6.0573e+004 96976 234670,234722,234696
 9.2000e+001 234946 -8.4400e+005 -2.5465e+005  3.7340e+005 96568 234845,234897,234871
 9.2000e+001 234923 -7.5021e+005 -5.4983e+005  9.0908e+005 96568 234819,234897,234845
 9.2000e+001 235196  5.9797e+002 -8.2443e+003  9.5387e+002 96216 234997,235075,235049
 9.2000e+001 235173 -1.3766e+003 -8.3552e+003  1.3793e+003 96216 234997,235101,235075
 9.2000e+001 235150  1.8971e+002 -9.7517e+003  1.1202e+003 96216 234997,235049,235023
 9.2000e+001 235127  3.6847e+002 -8.0962e+003  1.1372e+003 96216 234971,235101,234997
 9.2000e+001 235348 -9.3351e+005 -1.8284e+006 -3.8407e+005 95863 235247,235299,235273
 9.2000e+001 235325 -1.3116e+006 -1.8830e+006 -9.5632e+005 95863 235221,235299,235247
 9.2000e+001 235500 -6.7876e+002  2.6501e+003  1.2744e+003 95339 235373,235425,235399
 9.2000e+001 235477 -2.0002e+003  2.6373e+003 -5.4980e+002 95339 235373,235451,235425
 9.2000e+001 235701  1.7682e+003 -5.5463e+003  1.5493e+003 95023 235525,235577,235551
 9.2000e+001 235678  4.2610e+002 -2.5919e+003 -1.0112e+003 95023 235525,235629,235577
 9.2000e+001 235655 -8.5663e+002 -2.3134e+003 -5.8887e+002 95023 235577,235629,235603
 9.2000e+001 235853 -1.6338e+005 -1.1294e+007 -7.1984e+005 94671 235726,235778,235752
 9.2000e+001 235830  3.0459e+005 -1.3065e+007  6.0898e+005 94671 235726,235804,235778
 9.2000e+001 236005 -2.6101e+006 -5.2199e+006  1.6116e+006 94261 235904,235956,235930
 9.2000e+001 235982 -1.2905e+006 -1.0570e+007 -3.7114e+006 94261 235878,235956,235904
 9.2000e+001 236206 -2.5832e+006 -5.1523e+005  3.6434e+005 93853 236056,236134,236082
 9.2000e+001 236183 -2.2943e+006 -4.5824e+005  4.5013e+004 93853 236030,236134,236056
 9.2000e+001 236160 -2.2227e+006 -3.5112e+005  5.3294e+005 93853 236082,236134,236108
 9.2000e+001 236407 -1.2937e+006 -2.4627e+006  5.7439e+005 93557 236257,236309,236283
 9.2000e+001 236384 -2.3482e+006 -3.3055e+006 -2.2511e+006 93557 236231,236309,236257
 9.2000e+001 236361  1.5866e+006 -1.6970e+007  2.1304e+006 93557 236231,236335,236309
 9.2000e+001 236559 -1.7702e+001 -5.6773e-001  3.4786e-001 93149 236432,236484,236458
 9.2000e+001 236536  1.9661e+001 -2.6931e+000 -7.1362e+000 93149 236432,236510,236484
 9.2000e+001 236711 -8.2823e+002  1.3239e+002 -2.3308e+002 92853 236584,236636,236610
 9.2000e+001 236688 -2.7873e+002 -1.6971e+002 -3.8248e+002 92853 236584,236662,236636
 9.2000e+001 236912 -2.1430e+005 -1.3491e+005  1.2608e+005 92501 236736,236788,236762
 9.2000e+001 236889 -4.6335e+005 -1.0431e+005  1.3350e+005 92501 236736,236840,236788
 9.2000e+001 236866 -8.3102e+005 -7.4884e+005  7.5630e+005 92501 236788,236840,236814
 9.2000e+001 237113 -4.3977e+004 -2.4747e+006 -2.3097e+003 92291 236963,237041,237015
 9.2000e+001 237090  1.6799e+005 -1.5455e+006  7.3423e+004 92291 236937,237041,236963
 9.2000e+001 237067 -1.3040e+005 -2.2224e+006  4.7447e+005 92291 236963,237015,236989
 9.2000e+001 237265 -1.3387e+005  2.0945e+004 -3.5878e+004 91871 237138,237190,237164
 9.2000e+001 237242 -9.0114e+004 -5.8202e+003  1.9361e+004 91871 237138,237216,237190
 9.2000e+001 237368 -2.1090e+005 -1.1328e+006 -1.4321e+005 91581 237290,237342,237316
 9.2000e+001 237520  1.1802e+002  2.3477e+002  2.1800e+001 91184 237419,237471,237445
 9.2000e+001 237497 -5.8225e+002  2.8633e+002  1.0992e+002 91184 237393,237471,237419
 9.2000e+001 237672 -9.7665e+002 -2.6512e+003 -1.3091e+003 90894 237545,237597,237571
 9.2000e+001 237649 -4.8769e+002 -5.0370e+003 -2.0415e+002 90894 237545,237623,237597
 9.2000e+001 237873 -2.8603e+005 -9.1466e+005  4.7503e+005 90490 237749,237801,237775
 9.2000e+001 237850 -1.9882e+005 -2.0462e+006  6.2227e+005 90490 237723,237801,237749
 9.2000e+001 237827 -8.6161e+005 -2.2162e+006  9.4277e+005 90490 237697,237801,237723
 9.2000e+001 238074 -3.4875e+005 -3.2030e+006 -2.8511e+005 90100 237898,237976,237950
 9.2000e+001 238051 -1.7136e+006 -3.3421e+006 -4.5609e+005 90100 237898,238002,237976
 9.2000e+001 238028 -7.7253e+005 -8.8248e+005  9.3414e+004 90100 237898,237950,237924
 9.2000e+001 238275 -1.7930e+001 -1.0192e+003  8.1896e+002 89696 238125,238177,238151
 9.2000e+001 238252  4.2597e+002 -6.3767e+002  7.2355e+001 89696 238099,238177,238125
 9.2000e+001 238229 -2.6966e+003  1.8089e+003  2.0386e+003 89696 238099,238203,238177
 9.2000e+001 238427 -9.2629e+004 -2.3828e+004 -2.2023e+003 89206 238326,238378,238352
 9.2000e+001 238404 -3.6232e+005 -7.5671e+004 -1.8154e+005 89206 238300,238378,238326
 9.2000e+001 238579 -1.1807e+004 -2.3023e+003  8.2931e+003 88908 238452,238504,238478
 9.2000e+001 238556 -2.0263e+004 -6.6377e+003  1.3566e+004 88908 238452,238530,238504
 9.2000e+001 238682 -2.0905e+002 -1.8301e+002 -2.5264e+002 88568 238604,238656,238630
 9.2000e+001 238883 -1.1948e+006 -2.4094e+006  1.5316e+006 88278 238733,238811,238785
 9.2000e+001 238860 -7.4280e+005 -2.8332e+006  1.7192e+006 88278 238707,238811,238733
 9.2000e+001 238837 -8.3286e+004 -2.6405e+006  4.6907e+005 88278 238733,238785,238759
 9.2000e+001 239035 -1.8956e+006 -1.8413e+006 -6.3279e+005 87988 238908,238960,238934
 9.2000e+001 239012 -1.9459e+006 -8.0171e+005 -3.3128e+005 87988 238908,238986,238960
 9.2000e+001 239138  7.0298e+002 -6.1656e+003 -1.8102e+003 87648 239060,239112,239086
 9.2000e+001 239339 -4.5539e+006 -2.0042e+006 -2.3533e+006 87358 239163,239215,239189
 9.2000e+001 239316 -4.5504e+006 -1.3828e+005  3.0383e+004 87358 239163,239241,239215
 9.2000e+001 239293 -1.7495e+006 -6.2434e+005 -4.0856e+005 87358 239163,239267,239241
 9.2000e+001 239589 -5.1779e+001 -1.2351e+003  1.4720e+001 86961 239390,239468,239416
 9.2000e+001 239566  5.0930e+002 -8.7427e+002  4.3972e+002 86961 239390,239494,239468
 9.2000e+001 239543  7.2558e+001 -2.2817e+002  9.5764e+001 86961 239416,239468,239442
 9.2000e+001 239520 -6.7163e+002 -4.2655e+002  2.2057e+002 86961 239364,239494,239390
 9.2000e+001 239741 -1.1764e+006 -7.7688e+005  1.4774e+005 86621 239640,239692,239666
 9.2000e+001 239718 -8.2871e+005 -2.3423e+006 -9.4560e+005 86621 239614,239692,239640
 9.2000e+001 239893 -4.1725e+005 -1.5312e+006  6.9595e+005 86217 239792,239844,239818
 9.2000e+001 239870 -3.3687e+005 -3.4464e+006  1.3914e+006 86217 239766,239844,239792
 9.2000e+001 240045 -8.6171e+005 -2.5915e+006  8.4958e+005 85827 239918,239970,239944
 9.2000e+001 240022 -3.7967e+005 -2.4422e+006  1.0644e+005 85827 239918,239996,239970
 9.2000e+001 240197 -7.7272e+005 -3.8272e+006  1.0493e+006 85437 240096,240148,240122
 9.2000e+001 240174 -9.8124e+005 -7.2462e+005  5.7763e+005 85437 240070,240148,240096
 9.2000e+001 240349 -7.9443e+002 -3.0399e+003  3.4537e+003 85147 240222,240274,240248
 9.2000e+001 240326 -5.8041e+002 -1.4528e+002  3.8864e+002 85147 240222,240300,240274
 9.2000e+001 240501 -8.1177e+003 -9.6849e+002  9.5150e+002 84807 240374,240426,240400
 9.2000e+001 240478 -1.4084e+004 -5.7045e+003  5.2418e+003 84807 240374,240452,240426
 9.2000e+001 240653 -3.1876e-001 -1.4364e-002  5.4679e-002 84303 240552,240604,240578
 9.2000e+001 240630  2.8739e-001  1.1249e-002 -5.3905e-002 84303 240526,240604,240552
 9.2000e+001 240854 -1.6763e+006 -7.3508e+006 -4.1527e+006 83929 240704,240756,240730
 9.2000e+001 240831  1.2248e+006 -5.1465e+006  2.4836e+006 83929 240704,240782,240756
 9.2000e+001 240808 -2.9798e+006  2.7420e+006  2.4718e+006 83929 240678,240782,240704
 9.2000e+001 241055 -2.1264e+001 -7.8507e+001 -3.1176e+002 83539 240879,240957,240931
 9.2000e+001 241032  4.0297e+001 -2.8769e+002  2.3708e+001 83539 240879,240983,240957
 9.2000e+001 241009 -3.3426e+002 -2.1254e+002 -1.5260e+002 83539 240879,240931,240905
 9.2000e+001 241207  1.8319e+003 -5.4290e+003 -7.2540e+001 83079 241106,241158,241132
 9.2000e+001 241184  4.2500e+002 -1.2400e+003 -2.9253e+002 83079 241080,241158,241106
 9.2000e+001 241408 -5.5917e+005 -5.1566e+005 -8.7057e+005 82665 241232,241284,241258
 9.2000e+001 241385 -6.1113e+004  2.5274e+006 -2.5309e+006 82665 241232,241336,241284
 9.2000e+001 241362 -2.5631e+006 -1.1808e+007  4.3339e+006 82665 241284,241336,241310
 9.2000e+001 241658 -3.6930e+005 -3.4919e+006  3.3470e+005 82375 241485,241563,241511
 9.2000e+001 241635 -9.2532e+004 -2.2859e+006  3.6412e+005 82375 241433,241563,241485
 9.2000e+001 241612 -1.6154e+005 -2.6044e+006  3.3880e+005 82375 241433,241485,241459
 9.2000e+001 241589 -5.5599e+005 -4.1387e+006  5.6400e+005 82375 241511,241563,241537
 9.2000e+001 241810 -3.8778e+005 -3.2535e+005 -1.7891e+005 82035 241683,241735,241709
 9.2000e+001 241787 -1.8321e+005 -3.4097e+005 -1.1673e+005 82035 241683,241761,241735
 9.2000e+001 241962 -9.8098e+005 -1.4599e+006  5.3437e+005 81695 241861,241913,241887
 9.2000e+001 241939 -6.1625e+005 -2.1088e+006 -6.7665e+005 81695 241835,241913,241861
 9.2000e+001 242114 -8.4480e+005 -3.7965e+006  1.4763e+006 81355 242013,242065,242039
 9.2000e+001 242091 -1.7234e+005 -1.8117e+006  5.7117e+005 81355 241987,242065,242013
 9.2000e+001 242266  2.5748e+002 -1.5603e+003 -3.3111e+002 80951 242139,242191,242165
 9.2000e+001 242243 -2.9648e+002 -3.8271e+003  1.3705e+002 80951 242139,242217,242191
 9.2000e+001 242467 -3.8896e+005 -4.5714e+006  6.5665e+005 80311 242291,242369,242343
 9.2000e+001 242444  1.6880e+005 -2.3902e+006  4.5948e+005 80311 242291,242395,242369
 9.2000e+001 242421 -2.2150e+005 -1.1445e+006  2.5147e+005 80311 242291,242343,242317
 9.2000e+001 242619 -1.6622e+006 -2.3028e+006  4.3744e+005 80021 242492,242544,242518
 9.2000e+001 242596 -1.6492e+006 -2.2450e+006  1.6730e+006 80021 242492,242570,242544
 9.2000e+001 242869  4.6495e+002 -5.0050e+002 -1.1304e+003 79631 242644,242722,242696
 9.2000e+001 242846  2.3948e+002 -2.2009e+003 -5.3543e+002 79631 242644,242774,242722
 9.2000e+001 242823  7.8951e+002 -1.4457e+003 -1.6780e+003 79631 242722,242774,242748
 9.2000e+001 242800  7.6761e+002 -2.1726e+002  3.0485e+002 79631 242644,242696,242670
 9.2000e+001 243070  7.9035e+005 -1.4862e+007  3.6019e+006 79341 242920,242972,242946
 9.2000e+001 243047 -7.6489e+005 -6.0807e+006 -9.8980e+005 79341 242920,242998,242972
 9.2000e+001 243024 -6.4755e+005 -3.1952e+006  1.4387e+006 79341 242894,242998,242920
 9.2000e+001 243222 -3.6916e+005 -2.3694e+006  1.0857e+006 78801 243121,243173,243147
 9.2000e+001 243199 -2.8186e+005 -2.2017e+006  8.7970e+005 78801 243095,243173,243121
 9.2000e+001 243423  1.3479e+005 -2.0273e+006 -4.8472e+005 78511 243273,243325,243299
 9.2000e+001 243400  1.1908e+005 -1.9502e+006 -5.2492e+005 78511 243273,243351,243325
 9.2000e+001 243377 -6.5342e+002 -1.9565e+006  3.3997e+004 78511 243247,243351,243273
 9.2000e+001 243624 -2.5548e+005 -2.3453e+006 -8.9873e+005 78107 243474,243552,243526
 9.2000e+001 243601 -2.9599e+005 -2.6243e+006 -8.8142e+005 78107 243448,243552,243474
 9.2000e+001 243578 -2.1945e+005 -1.4872e+006 -1.2446e+005 78107 243474,243526,243500
 9.2000e+001 243776 -5.4189e+005 -2.7711e+006 -8.0155e+005 77653 243649,243701,243675
 9.2000e+001 243753 -7.3826e+005 -1.8969e+006 -2.6040e+005 77653 243649,243727,243701
 9.2000e+001 243977 -4.9440e+005 -5.8127e+006  6.4361e+004 77093 243801,243853,243827
 9.2000e+001 243954 -1.0600e+005 -4.5639e+006  7.8657e+005 77093 243801,243879,243853
 9.2000e+001 243931 -3.5859e+005 -1.6121e+006 -1.3866e+005 77093 243801,243905,243879
 9.2000e+001 244080 -4.6855e+005 -5.2255e+006  3.3861e+005 76791 244002,244054,244028
 9.2000e+001 244232 -1.2569e+005 -2.2284e+006 -3.2898e+005 76311 244131,244183,244157
 9.2000e+001 244209 -7.0053e+004 -9.0831e+005 -3.7408e+005 76311 244105,244183,244131
 9.2000e+001 244433  4.3840e+005 -1.6020e+007  4.9932e+006 75903 244283,244335,244309
 9.2000e+001 244410 -9.5990e+005 -8.8868e+006 -6.0531e+005 75903 244283,244361,244335
 9.2000e+001 244387 -1.3804e+006 -7.0008e+006  6.8725e+005 75903 244257,244361,244283
 9.2000e+001 244585  2.8751e+005 -1.5415e+007  1.9174e+006 75419 244458,244510,244484
 9.2000e+001 244562 -9.2461e+005 -6.8743e+006 -1.6084e+005 75419 244458,244536,244510
 9.2000e+001 244737 -3.7392e+005 -5.4828e+005 -1.6978e+005 75215 244636,244688,244662
 9.2000e+001 244714 -2.7933e+005 -2.4755e+006 -1.6246e+005 75215 244610,244688,244636
 9.2000e+001 244889 -1.0379e+006 -4.0151e+006 -7.5520e+005 74857 244788,244840,244814
 9.2000e+001 244866 -3.9859e+005 -1.7317e+006 -3.0348e+005 74857 244762,244840,244788
 9.2000e+001 245041 -7.1926e+005 -2.6480e+006 -1.2709e+006 74653 244940,244992,244966
 9.2000e+001 245018 -6.6140e+005 -9.0421e+005  9.5871e+005 74653 244914,244992,244940
 9.2000e+001 245144 -6.1766e+005 -3.9468e+006 -8.9007e+005 74359 245066,245118,245092
 9.2000e+001 245296 -1.0047e+004 -2.0785e+005 -7.5094e+004 74007 245169,245221,245195
 9.2000e+001 245273 -6.3754e+004 -3.6346e+005 -1.1213e+005 74007 245169,245247,245221
 9.2000e+001 245448 -2.6623e+006 -4.3214e+006 -1.0664e+006 73711 245321,245373,245347
 9.2000e+001 245425 -2.5269e+006 -4.2903e+006 -9.5427e+005 73711 245321,245399,245373
 9.2000e+001 245600  1.5901e+006 -1.4101e+007 -2.1681e+006 73301 245499,245551,245525
 9.2000e+001 245577 -1.8168e+006 -8.0462e+006  2.3300e+006 73301 245473,245551,245499
 9.2000e+001 245752 -2.7508e+006 -4.1971e+006 -2.5804e+006 72995 245625,245677,245651
 9.2000e+001 245729  6.7829e+005 -1.4982e+007 -2.0594e+006 72995 245625,245703,245677
 9.2000e+001 245953 -1.5193e+006 -1.2360e+007  6.6038e+005 72585 245777,245829,245803
 9.2000e+001 245930 -6.6188e+005 -1.3962e+007  2.2514e+006 72585 245777,245855,245829
 9.2000e+001 245907 -1.1168e+006 -8.1508e+006  3.8134e+005 72585 245777,245881,245855
 9.2000e+001 246154 -6.1213e+005 -7.3402e+006  1.5327e+006 72127 246030,246082,246056
 9.2000e+001 246131 -1.1307e+006 -7.7608e+006  5.8734e+005 72127 245978,246082,246030
 9.2000e+001 246108 -1.9093e+005 -1.0853e+007  4.7205e+005 72127 245978,246030,246004
 9.2000e+001 246257 -1.3051e+006 -2.1059e+005 -1.8618e+005 71737 246179,246231,246205
 9.2000e+001 246360  1.6325e+004 -2.7271e+006  5.2202e+005 71447 246282,246334,246308
 9.2000e+001 246512 -2.4370e+005 -1.6779e+006  9.0574e+005 71157 246385,246437,246411
 9.2000e+001 246489 -6.3540e+004 -1.1445e+006 -4.0343e+004 71157 246385,246463,246437
 9.2000e+001 246664 -1.6765e+005 -2.1374e+006 -7.2407e+005 70753 246537,246589,246563
 9.2000e+001 246641 -8.2019e+005 -5.3097e+005 -4.4305e+005 70753 246537,246615,246589
 9.2000e+001 246865 -1.6960e+006 -8.2606e+006  4.3240e+006 70249 246715,246767,246741
 9.2000e+001 246842 -2.8945e+006 -8.0536e+006 -3.5535e+005 70249 246715,246793,246767
 9.2000e+001 246819 -9.0086e+004 -1.4265e+007 -3.8384e+006 70249 246689,246793,246715
 9.2000e+001 247066  5.2553e+004 -1.5449e+006  1.0676e+005 70023 246916,246994,246942
 9.2000e+001 247043 -2.3048e+005 -8.7400e+005  3.7905e+005 70023 246890,246994,246916
 9.2000e+001 247020  1.0420e+005 -1.5735e+006  3.3482e+005 70023 246942,246994,246968
 9.2000e+001 247267 -3.7418e+005 -3.4138e+006 -8.4920e+005 69633 247091,247143,247117
 9.2000e+001 247244 -1.6599e+005 -2.6683e+006 -7.1236e+005 69633 247091,247169,247143
 9.2000e+001 247221 -2.0019e+005 -2.0510e+006 -5.5929e+005 69633 247091,247195,247169
 9.2000e+001 247419 -1.2620e+006 -4.1094e+006  4.3284e+005 69457 247318,247370,247344
 9.2000e+001 247396 -1.2069e+006 -1.7241e+006  7.6491e+005 69457 247292,247370,247318
 9.2000e+001 247522 -6.1952e+002 -8.2217e+002  8.5849e+002 69209 247444,247496,247470
 9.2000e+001 247625 -8.0970e+005 -6.7512e+005 -3.0356e+005 68919 247547,247599,247573
 9.2000e+001 247777  7.8906e+004 -2.5320e+006 -1.0988e+005 68579 247650,247702,247676
 9.2000e+001 247754  1.1219e+005 -5.5787e+005 -1.8653e+005 68579 247650,247728,247702
 9.2000e+001 247929 -3.1998e+005 -3.7134e+006  2.6638e+005 68289 247802,247854,247828
 9.2000e+001 247906 -8.7609e+005 -2.2784e+006 -1.0418e+006 68289 247802,247880,247854
 9.2000e+001 248081 -1.8123e+005 -1.9912e+006  6.4825e+005 67949 247980,248032,248006
 9.2000e+001 248058 -2.4579e+005 -2.9312e+005  4.4256e+004 67949 247954,248032,247980
 9.2000e+001 248233 -1.4512e+006 -4.8520e+006 -7.5982e+005 67616 248132,248184,248158
 9.2000e+001 248210 -7.4060e+005 -3.9766e+006 -2.9029e+005 67616 248106,248184,248132
 9.2000e+001 248434 -4.9785e+004 -1.6736e+006 -1.1110e+005 67212 248284,248336,248310
 9.2000e+001 248411 -2.4625e+005 -1.6881e+006 -4.1960e+003 67212 248258,248336,248284
 9.2000e+001 248388 -6.3285e+005 -5.9731e+005 -2.7415e+005 67212 248258,248362,248336
 9.2000e+001 248586 -2.3619e+005 -2.7445e+006 -1.7932e+005 66872 248485,248537,248511
 9.2000e+001 248563 -2.4325e+005 -1.1125e+006 -3.1804e+005 66872 248459,248537,248485
 9.2000e+001 248738 -4.5215e+005 -4.8615e+006  1.9641e+005 66510 248637,248689,248663
 9.2000e+001 248715 -5.9203e+005 -4.7623e+006  6.8347e+004 66510 248611,248689,248637
 9.2000e+001 248890 -2.5332e+004 -6.8766e+005  1.3203e+005 66220 248789,248841,248815
 9.2000e+001 248867 -4.0426e+004 -8.9987e+005 -3.0035e+005 66220 248763,248841,248789
 9.2000e+001 249091 -1.1917e+006 -7.9208e+006  1.5943e+006 65759 248915,248967,248941
 9.2000e+001 249068 -1.0212e+006 -4.9283e+006  2.0357e+006 65759 248915,248993,248967
 9.2000e+001 249045 -4.4596e+005 -3.6484e+006  3.4685e+005 65759 248915,249019,248993
 9.2000e+001 249243 -1.3239e+005 -6.5059e+006  1.4509e+006 65419 249142,249194,249168
 9.2000e+001 249220  1.5988e+005 -1.1445e+006  3.2950e+005 65419 249116,249194,249142
 9.2000e+001 249395 -2.2936e+005 -2.6982e+006 -7.4138e+005 65079 249268,249320,249294
 9.2000e+001 249372 -4.0118e+005 -3.0794e+006 -5.8580e+005 65079 249268,249346,249320
 9.2000e+001 249547 -1.6636e+006 -7.0574e+006  1.7032e+006 64739 249420,249472,249446
 9.2000e+001 249524 -8.5334e+005 -5.0821e+006 -2.4083e+006 64739 249420,249498,249472
 9.2000e+001 249650 -1.2178e+006 -4.0198e+006 -1.8932e+006 64342 249572,249624,249598
 9.2000e+001 249851 -4.8798e+004 -3.0895e+006 -2.6380e+005 63938 249701,249779,249753
 9.2000e+001 249828 -3.0309e+005 -3.2381e+006  2.4954e+005 63938 249675,249779,249701
 9.2000e+001 249805 -3.6422e+005 -8.4628e+005 -2.1430e+005 63938 249701,249753,249727
 9.2000e+001 250052 -2.8168e+005 -2.3683e+006 -7.4078e+005 63341 249876,249954,249902
 9.2000e+001 250029 -8.3603e+005 -2.3230e+006 -1.3301e+005 63341 249876,249980,249954
 9.2000e+001 250006 -1.8434e+005 -3.6687e+006  3.2813e+005 63341 249902,249954,249928
 9.2000e+001 250253 -7.7792e+005 -4.6758e+005 -8.5288e+004 63058 250077,250129,250103
 9.2000e+001 250230 -2.5262e+006 -2.7149e+006  1.3397e+006 63058 250077,250155,250129
 9.2000e+001 250207 -4.3775e+005 -1.7404e+006  3.8550e+005 63058 250077,250181,250155
 9.2000e+001 250454 -5.1996e+005 -4.8733e+006  3.9417e+005 62832 250304,250382,250330
 9.2000e+001 250431 -2.5617e+004 -5.9137e+006 -1.6131e+006 62832 250278,250382,250304
 9.2000e+001 250408 -9.9693e+005 -3.7928e+006  2.8483e+004 62832 250330,250382,250356
 9.2000e+001 250606 -1.2664e+006 -3.1225e+006 -1.2890e+006 62428 250479,250531,250505
 9.2000e+001 250583 -1.9034e+005 -9.6159e+006 -1.6511e+006 62428 250479,250557,250531
 9.2000e+001 250758 -2.8317e+005 -6.1805e+006  8.8339e+005 62202 250631,250683,250657
 9.2000e+001 250735 -6.5478e+005 -5.4004e+006 -3.7529e+005 62202 250631,250709,250683
 9.2000e+001 250861 -4.0796e+005 -1.4364e+006 -1.5307e+005 61954 250783,250835,250809
 9.2000e+001 251062 -3.0172e+006 -2.8681e+006  4.8359e+005 61557 250912,250990,250938
 9.2000e+001 251039  3.2351e+005 -1.0019e+007 -3.1535e+006 61557 250886,250990,250912
 9.2000e+001 251016 -2.8469e+006 -4.5660e+006 -3.8867e+006 61557 250938,250990,250964
 9.2000e+001 251263 -6.3528e+005 -4.5667e+006 -8.9056e+004 61167 251113,251165,251139
 9.2000e+001 251240 -9.5842e+005 -3.8535e+006 -4.7474e+004 61167 251113,251191,251165
 9.2000e+001 251217 -1.2769e+006 -3.9019e+006  1.1494e+005 61167 251087,251191,251113
 9.2000e+001 251415 -7.7467e+005 -2.8892e+006  1.2837e+006 60827 251288,251340,251314
 9.2000e+001 251392 -2.1778e+005 -1.1144e+006 -1.8496e+005 60827 251288,251366,251340
 9.2000e+001 251567 -9.1695e+004 -2.4621e+006  4.6005e+004 60487 251466,251518,251492
 9.2000e+001 251544 -3.1271e+005 -2.1551e+006 -4.6408e+005 60487 251440,251518,251466
 9.2000e+001 251719  1.4892e+005 -5.2820e+006  1.3933e+005 59983 251592,251644,251618
 9.2000e+001 251696 -1.0066e+005 -3.1811e+006 -1.7951e+004 59983 251592,251670,251644
 9.2000e+001 251920 -8.1675e+004 -1.1027e+006 -6.0080e+004 59807 251770,251848,251796
 9.2000e+001 251897 -3.9292e+004 -8.0229e+005 -7.7746e+004 59807 251744,251848,251770
 9.2000e+001 251874 -7.0738e+004 -9.4269e+005  8.2719e+003 59807 251796,251848,251822
 9.2000e+001 252023  4.1404e+005 -3.5913e+006 -2.7374e+005 59517 251945,251997,251971
 9.2000e+001 252175  1.0240e+006 -8.7003e+006 -1.3929e+005 59269 252074,252126,252100
 9.2000e+001 252152 -2.5774e+004 -6.0873e+006  2.2082e+004 59269 252048,252126,252074
 9.2000e+001 252278 -8.9814e+005 -4.1606e+006  5.3828e+005 58979 252200,252252,252226
 9.2000e+001 252381 -2.4745e+006 -1.4805e+006  1.1599e+006 58689 252303,252355,252329
 9.2000e+001 252533 -7.2836e+005 -3.4096e+006 -8.3662e+005 58249 252432,252484,252458
 9.2000e+001 252510 -7.7957e+005 -3.8410e+006 -9.9077e+005 58249 252406,252484,252432
 9.2000e+001 252734  1.9496e+005 -2.3448e+006 -1.4929e+005 57902 252584,252662,252610
 9.2000e+001 252711  1.0671e+005 -2.3782e+006 -1.7804e+005 57902 252558,252662,252584
 9.2000e+001 252688  4.4183e+005 -1.8683e+006  2.5252e+005 57902 252610,252662,252636
 9.2000e+001 252886  2.0661e+005 -5.1993e+006 -3.0272e+005 57540 252785,252837,252811
 9.2000e+001 252863  6.1811e+004 -3.4472e+006  1.7565e+005 57540 252759,252837,252785
 9.2000e+001 253038 -9.4808e+005 -5.7604e+006  1.6278e+006 57086 252937,252989,252963
 9.2000e+001 253015 -3.1506e+005 -8.8177e+005  3.9332e+005 57086 252911,252989,252937
 9.2000e+001 253239 -6.9795e+005 -4.6826e+006 -4.9754e+005 56796 253063,253141,253115
 9.2000e+001 253216 -1.9965e+005 -4.6793e+006 -2.0620e+005 56796 253063,253167,253141
 9.2000e+001 253193 -5.4247e+006 -5.1502e+005  5.4226e+005 56796 253063,253115,253089
 9.2000e+001 253342 -6.4706e+005 -1.1276e+007 -1.4636e+005 56349 253264,253316,253290
 9.2000e+001 253543 -2.3014e+005 -2.9684e+006 -1.2135e+006 56009 253367,253419,253393
 9.2000e+001 253520 -5.2654e+005 -1.3235e+006 -6.2555e+005 56009 253367,253445,253419
 9.2000e+001 253497 -4.0056e+005 -1.2920e+006 -6.5699e+005 56009 253367,253471,253445
 9.2000e+001 253695 -2.0952e+005 -7.9351e+005  3.9965e+005 55733 253594,253646,253620
 9.2000e+001 253672 -4.9762e+005 -2.9116e+005  3.6936e+005 55733 253568,253646,253594
 9.2000e+001 253798 -8.6406e+005 -1.1498e+006 -2.0834e+005 55557 253720,253772,253746
 9.2000e+001 253950 -6.0807e+005 -2.4710e+006  1.5169e+004 55153 253849,253901,253875
 9.2000e+001 253927 -2.7418e+005 -2.8766e+006 -4.5775e+005 55153 253823,253901,253849
 9.2000e+001 254151 -1.0351e+006 -3.2320e+006  3.0229e+005 54863 253975,254053,254001
 9.2000e+001 254128 -9.9281e+005 -2.8976e+006  3.1110e+005 54863 253975,254079,254053
 9.2000e+001 254105 -1.1538e+006 -5.1093e+006  1.1824e+006 54863 254001,254053,254027
 9.2000e+001 254303 -2.0697e+005 -4.1181e+005  2.8123e+005 54373 254176,254228,254202
 9.2000e+001 254280 -3.1430e+005 -5.1039e+005  3.4676e+005 54373 254176,254254,254228
 9.2000e+001 254455 -1.1825e+005 -3.7921e+006 -4.1012e+005 53975 254354,254406,254380
 9.2000e+001 254432 -2.6343e+005 -8.2157e+005  1.0779e+005 53975 254328,254406,254354
 9.2000e+001 254607 -1.8482e+005 -4.7719e+006  3.9793e+004 53585 254480,254532,254506
 9.2000e+001 254584 -4.0282e+005 -3.9012e+006 -4.0420e+004 53585 254480,254558,254532
 9.2000e+001 254808 -5.7211e+005 -3.5529e+006  2.8706e+005 53245 254658,254736,254684
 9.2000e+001 254785 -8.7186e+005 -6.2558e+005 -4.3651e+005 53245 254632,254736,254658
 9.2000e+001 254762 -3.0740e+005 -1.1450e+006  6.2229e+005 53245 254684,254736,254710
 9.2000e+001 254911 -1.5291e+005 -1.4725e+006 -3.2127e+005 52955 254833,254885,254859
 9.2000e+001 255063 -4.6212e+005 -6.4653e+006  1.0800e+005 52551 254962,255014,254988
 9.2000e+001 255040 -6.5224e+005 -6.6310e+006  1.1084e+003 52551 254936,255014,254962
 9.2000e+001 255264 -1.0543e+006 -1.0056e+006 -5.9369e+005 52261 255114,255166,255140
 9.2000e+001 255241 -1.1592e+006 -2.1418e+006 -1.9303e+005 52261 255114,255192,255166
 9.2000e+001 255218 -4.8510e+006 -1.1941e+006  6.2534e+005 52261 255088,255192,255114
 9.2000e+001 255416 -1.0314e+006 -5.3012e+006  2.1721e+006 51971 255289,255341,255315
 9.2000e+001 255393 -3.7329e+005 -4.5727e+006 -5.1303e+005 51971 255289,255367,255341
 9.2000e+001 255568  1.2440e+005 -1.4297e+006 -4.9712e+005 51681 255441,255493,255467
 9.2000e+001 255545 -1.1997e+005 -1.1113e+006 -5.0267e+005 51681 255441,255519,255493
 9.2000e+001 255769 -2.5772e+005 -2.5510e+006  9.1591e+004 51291 255619,255697,255671
 9.2000e+001 255746 -2.3802e+005 -2.2098e+006 -2.3611e+005 51291 255593,255697,255619
 9.2000e+001 255723 -3.1201e+005 -5.8069e+006 -6.9967e+005 51291 255619,255671,255645
 9.2000e+001 255921 -6.7427e+005 -2.9099e+006  8.6348e+005 50951 255820,255872,255846
 9.2000e+001 255898 -1.4820e+005 -1.1457e+006  3.4123e+004 50951 255794,255872,255820
 9.2000e+001 256171 -6.1030e+005 -5.4029e+006  9.2680e+005 50547 256024,256076,256050
 9.2000e+001 256148 -8.1380e+005 -3.9474e+006  2.3155e+005 50547 255972,256076,256024
 9.2000e+001 256125 -2.5944e+005 -3.4830e+006  5.7603e+005 50547 255946,256076,255972
 9.2000e+001 256102 -7.5785e+005 -5.0316e+006  5.6903e+005 50547 255972,256024,255998
 9.2000e+001 256323  1.1017e+005 -3.7052e+006  3.2324e+005 50093 256196,256248,256222
 9.2000e+001 256300 -9.6842e+005 -2.4087e+006 -7.1261e+005 50093 256196,256274,256248
 9.2000e+001 256426 -7.9984e+001 -9.8386e+001 -4.8315e+001 49845 256348,256400,256374
 9.2000e+001 256627  9.2996e+004 -5.8046e+006  9.0592e+004 49555 256477,256555,256503
 9.2000e+001 256604 -6.0607e+003 -2.7532e+006  2.4917e+005 49555 256451,256555,256477
 9.2000e+001 256581 -3.6892e+005 -5.0937e+006  3.6264e+005 49555 256503,256555,256529
 9.2000e+001 256828 -4.1913e+005 -2.3779e+006 -4.3581e+005 49056 256652,256730,256678
 9.2000e+001 256805 -7.1733e+005 -2.0607e+006 -2.4727e+005 49056 256652,256756,256730
 9.2000e+001 256782 -3.2730e+005 -3.7005e+006  5.2419e+005 49056 256678,256730,256704
 9.2000e+001 256931 -4.2135e+004 -1.4361e+005  2.2981e+004 48766 256853,256905,256879
 9.2000e+001 257083 -1.7578e+006 -5.1460e+006 -7.5893e+005 48568 256982,257034,257008
 9.2000e+001 257060 -6.9327e+005 -9.0909e+005 -2.2015e+005 48568 256956,257034,256982
 9.2000e+001 257186  5.2682e+002 -4.2226e+006 -2.8778e+002 48228 257108,257160,257134
 9.2000e+001 257338 -1.1369e+006 -4.6201e+005  2.5885e+005 47888 257237,257289,257263
 9.2000e+001 257315 -4.4416e+005 -3.2851e+006  1.6456e+006 47888 257211,257289,257237
 9.2000e+001 257539 -4.4550e+005 -2.9895e+006  9.5926e+004 47548 257363,257441,257415
 9.2000e+001 257516 -7.4008e+005 -2.7753e+006 -3.2091e+005 47548 257363,257467,257441
 9.2000e+001 257493 -8.4441e+005 -2.0608e+006 -8.7698e+004 47548 257363,257415,257389
 9.2000e+001 257740  4.0765e+003 -5.5717e+006  5.3759e+005 46994 257564,257642,257616
 9.2000e+001 257717 -4.5170e+005 -3.6838e+006 -1.8083e+005 46994 257564,257668,257642
 9.2000e+001 257694 -9.1304e+005 -5.5692e+006 -2.1816e+005 46994 257564,257616,257590
 9.2000e+001 257843 -3.1228e+005 -8.6847e+005 -1.6570e+005 46654 257765,257817,257791
 9.2000e+001 257995 -5.6880e+005 -2.5366e+006  3.7463e+005 46364 257894,257946,257920
 9.2000e+001 257972 -6.8364e+005 -2.6028e+006  3.2603e+005 46364 257868,257946,257894
 9.2000e+001 258147 -4.4908e+004 -3.2236e+006  1.3070e+005 46024 258046,258098,258072
 9.2000e+001 258124 -4.0576e+005 -2.1970e+006  4.6408e+005 46024 258020,258098,258046
 9.2000e+001 258250 -5.0651e+005 -7.2948e+005  4.5807e+005 45741 258172,258224,258198
 9.2000e+001 258402 -8.6347e+005 -2.7879e+006  5.6742e+005 45401 258301,258353,258327
 9.2000e+001 258379 -3.3307e+005 -2.6882e+006  7.9902e+005 45401 258275,258353,258301
 9.2000e+001 258603 -6.5047e+005 -1.6298e+006  2.9170e+004 45071 258427,258505,258479
 9.2000e+001 258580 -2.9745e+005 -3.7482e+006  2.4997e+005 45071 258427,258531,258505
 9.2000e+001 258557 -3.2560e+005 -2.3921e+006  1.7049e+005 45071 258427,258479,258453
 9.2000e+001 258755 -2.0088e+005 -4.0544e+006 -3.6074e+005 44681 258654,258706,258680
 9.2000e+001 258732 -4.0728e+005 -2.7837e+006 -3.6981e+005 44681 258628,258706,258654
 9.2000e+001 258907 -2.3002e+005 -3.1629e+006 -2.1894e+005 44157 258806,258858,258832
 9.2000e+001 258884 -6.7493e+005 -2.4983e+006 -1.6214e+005 44157 258780,258858,258806
 9.2000e+001 259010 -5.6950e+005 -2.1437e+006 -4.9272e+004 43705 258932,258984,258958
 9.2000e+001 259113 -6.4545e+005 -1.9997e+006 -1.1137e+004 43284 259035,259087,259061
 9.2000e+001 259216 -3.6557e+005 -4.5488e+006 -1.6422e+005 42954 259138,259190,259164
 9.2000e+001 259319 -5.7365e+005 -1.2365e+006 -6.5280e+004 42116 259241,259293,259267
 9.2000e+001 259422 -5.4887e+005 -6.4248e+006  9.5718e+005 41804 259344,259396,259370
 9.2000e+001 259525 -6.6555e+005 -6.4728e+006  1.0277e+006 41219 259447,259499,259473
 9.2000e+001 259628 -4.6734e+005 -2.7465e+006 -6.5988e+005 385 259550,259602,259576
 9.4000e+001 190120 -1.3819e+005 -3.0055e+006 -4.1214e+005 189630 189993,190045,190019
 9.4000e+001 190097 -7.3991e+005 -2.3650e+006 -2.6053e+005 189630 189993,190071,190045
 9.4000e+001 190319 -1.3574e+006 -4.1488e+006 -2.7814e+005 189312 190169,190221,190195
 9.4000e+001 190296 -7.0097e+005 -3.4519e+006 -8.9488e+005 189312 190169,190247,190221
 9.4000e+001 190273 -8.9280e+005 -2.8498e+006  2.3944e+005 189312 190143,190247,190169
 9.4000e+001 190518 -4.4588e+005 -3.4927e+005 -8.7302e+004 189124 190368,190446,190420
 9.4000e+001 190495 -5.9236e+005 -1.5019e+005  6.4958e+004 189124 190342,190446,190368
 9.4000e+001 190472 -8.5480e+005 -4.2342e+005 -1.6331e+005 189124 190368,190420,190394
 9.4000e+001 190619 -4.5475e+005 -3.0829e+005 -1.1494e+004 188926 190541,190593,190567
 9.4000e+001 190771 -5.0118e+005 -4.6015e+005 -1.9653e+004 188614 190670,190722,190696
 9.4000e+001 190748 -4.8671e+005 -2.0314e+004  1.0325e+005 188614 190644,190722,190670
 9.4000e+001 190972 -5.2701e+005 -4.5762e+005 -2.7010e+005 188324 190848,190900,190874
 9.4000e+001 190949 -5.5649e+005 -1.0663e+006 -6.1802e+005 188324 190796,190900,190848
 9.4000e+001 190926  9.0467e+003 -2.8815e+005 -2.2334e+005 188324 190796,190848,190822
 9.4000e+001 191124 -5.9913e+005 -1.5087e+006 -1.7381e+005 188034 191023,191075,191049
 9.4000e+001 191101 -2.3737e+005 -1.5738e+006 -1.5940e+005 188034 190997,191075,191023
 9.4000e+001 191276 -1.8830e+005 -8.1711e+005 -2.4672e+004 187836 191149,191201,191175
 9.4000e+001 191253 -2.4903e+005 -4.7123e+005  1.6118e+005 187836 191149,191227,191201
 9.4000e+001 191379 -4.5951e+005 -3.3444e+005 -9.9563e+004 187546 191301,191353,191327
 9.4000e+001 191531 -2.3656e+005 -3.1797e+006  2.7529e+005 187256 191430,191482,191456
 9.4000e+001 191508 -1.1956e+006 -4.6356e+006 -1.4548e+006 187256 191404,191482,191430
 9.4000e+001 191634 -7.6651e+005 -2.1604e+005  1.3230e+005 187058 191556,191608,191582
 9.4000e+001 191835 -5.8953e+005 -2.4902e+005  5.8026e+004 186860 191659,191711,191685
 9.4000e+001 191812 -4.0980e+005 -9.8268e+005 -6.7664e+004 186860 191659,191737,191711
 9.4000e+001 191789 -4.2126e+005 -7.6614e+005  9.3873e+004 186860 191659,191763,191737
 9.4000e+001 191987 -5.9256e+005 -6.1758e+004  9.2741e+004 186662 191886,191938,191912
 9.4000e+001 191964 -2.9322e+005 -1.0052e+005  1.0483e+005 186662 191860,191938,191886
 9.4000e+001 192090 -6.7762e+005 -4.4181e+005  6.8055e+004 186486 192012,192064,192038
 9.4000e+001 192242 -1.5605e+005 -6.6020e+006 -3.0576e+005 186288 192115,192167,192141
 9.4000e+001 192219 -7.7583e+005 -3.9748e+006  1.0954e+005 186288 192115,192193,192167
 9.4000e+001 192394 -1.1646e+004 -5.2689e+006 -3.0080e+005 185935 192293,192345,192319
 9.4000e+001 192371 -4.9491e+005 -3.7217e+006 -6.6092e+005 185935 192267,192345,192293
 9.4000e+001 192546 -4.2503e+005 -3.4211e+006 -5.2343e+005 185675 192419,192471,192445
 9.4000e+001 192523 -9.1884e+005 -1.5927e+006 -5.4187e+005 185675 192419,192497,192471
 9.4000e+001 192649 -7.8636e+005 -1.2714e+006  9.1628e+004 185499 192571,192623,192597
 9.4000e+001 192801 -1.8750e+005 -1.5325e+006  3.0376e+005 185301 192674,192726,192700
 9.4000e+001 192778 -2.9438e+005 -1.5155e+006  1.9378e+005 185301 192674,192752,192726
 9.4000e+001 193002 -8.3578e+004 -5.5705e+005 -3.7548e+005 185046 192852,192930,192878
 9.4000e+001 192979 -3.4602e+005 -1.4546e+006 -2.0485e+005 185046 192826,192930,192852
 9.4000e+001 192956  4.1490e+005 -1.8476e+006 -1.8930e+004 185046 192878,192930,192904
 9.4000e+001 193203  2.1855e+005 -4.4885e+006 -6.8141e+005 184798 193079,193131,193105
 9.4000e+001 193180 -1.0299e+006 -2.9263e+006 -5.9955e+004 184798 193027,193131,193079
 9.4000e+001 193157 -1.8486e+006 -3.1419e+006  1.0431e+005 184798 193027,193079,193053
 9.4000e+001 193404 -1.2454e+005 -4.6081e+006 -9.5234e+005 184600 193254,193306,193280
 9.4000e+001 193381 -3.6482e+005 -2.2859e+006 -1.8088e+005 184600 193254,193332,193306
 9.4000e+001 193358 -9.7022e+005 -6.3541e+005 -4.9775e+005 184600 193228,193332,193254
 9.4000e+001 193556 -3.4736e+005 -1.0780e+006 -5.6283e+005 184402 193429,193481,193455
 9.4000e+001 193533 -8.1846e+005 -7.7143e+005 -7.9204e+005 184402 193429,193507,193481
 9.4000e+001 193708 -1.6231e+005 -1.5503e+006  1.1109e+005 184204 193607,193659,193633
 9.4000e+001 193685 -5.9272e+005 -5.3491e+006 -9.4878e+005 184204 193581,193659,193607
 9.4000e+001 193860 -5.7487e+005 -1.0744e+006  6.1030e+005 183908 193759,193811,193785
 9.4000e+001 193837 -8.2197e+004 -1.8580e+006  6.4712e+005 183908 193733,193811,193759
 9.4000e+001 194061 -6.1448e+005 -2.9212e+004  6.6639e+004 183710 193911,193989,193937
 9.4000e+001 194038 -4.4129e+005 -9.1447e+002 -1.7408e+005 183710 193885,193989,193911
 9.4000e+001 194015 -4.6312e+005 -8.5880e+003 -2.4458e+003 183710 193937,193989,193963
 9.4000e+001 194262 -6.9375e+005 -2.4802e+006 -4.8744e+005 183420 194086,194164,194112
 9.4000e+001 194239 -5.7297e+005 -1.8962e+006 -3.3552e+005 183420 194086,194190,194164
 9.4000e+001 194216  4.5701e+005 -6.3822e+006  1.3545e+006 183420 194112,194164,194138
 9.4000e+001 194414 -6.7193e+005 -5.4808e+006 -5.0124e+004 183222 194287,194339,194313
 9.4000e+001 194391 -3.9391e+005 -1.3249e+006 -2.1935e+005 183222 194287,194365,194339
 9.4000e+001 194517 -8.1468e+005 -1.0193e+006  9.0005e+004 183024 194439,194491,194465
 9.4000e+001 194718  1.5059e+006 -1.2988e+007  1.4892e+006 182734 194568,194620,194594
 9.4000e+001 194695 -1.1679e+006 -3.3671e+006 -2.6675e+006 182734 194542,194620,194568
 9.4000e+001 194672 -2.9345e+006 -1.9804e+006 -1.3360e+006 182734 194542,194646,194620
 9.4000e+001 194870 -3.8625e+005 -7.3983e+005  2.5714e+005 182444 194769,194821,194795
 9.4000e+001 194847 -4.5889e+005 -1.8572e+006  9.1839e+005 182444 194743,194821,194769
 9.4000e+001 195071 -3.8551e+005 -1.7104e+006  1.0281e+006 182154 194895,194947,194921
 9.4000e+001 195048 -4.6363e+005 -6.1915e+005  2.0740e+005 182154 194895,194999,194947
 9.4000e+001 195025 -4.2888e+005 -1.7777e+005  2.6705e+005 182154 194947,194999,194973
 9.4000e+001 195223 -2.6250e+005 -2.2080e+005 -6.2699e+004 181814 195096,195148,195122
 9.4000e+001 195200 -5.1110e+005 -1.6396e+006 -9.3871e+005 181814 195096,195174,195148
 9.4000e+001 195375 -9.8091e+003 -1.5700e+004 -8.9464e+003 181524 195248,195300,195274
 9.4000e+001 195352  5.4390e+003 -7.7465e+004 -1.2918e+003 181524 195248,195326,195300
 9.4000e+001 195527 -1.8349e+005 -1.4729e+006 -6.8506e+005 181326 195426,195478,195452
 9.4000e+001 195504 -6.9376e+005 -6.2927e+005 -4.3412e+005 181326 195400,195478,195426
 9.4000e+001 195679  2.9263e+004 -8.3981e+006 -3.4704e+005 180936 195578,195630,195604
 9.4000e+001 195656 -5.4188e+005 -3.3772e+006 -2.1456e+005 180936 195552,195630,195578
 9.4000e+001 195831 -5.6781e+005 -5.2658e+005 -2.7958e+005 180646 195704,195756,195730
 9.4000e+001 195808 -6.7872e+005 -1.3745e+005 -5.1266e+004 180646 195704,195782,195756
 9.4000e+001 196032 -3.4132e+005 -2.1559e+006  4.7041e+005 180306 195882,195960,195934
 9.4000e+001 196009 -4.9153e+005 -8.2970e+005 -3.6184e+005 180306 195856,195960,195882
 9.4000e+001 195986  3.4706e+004 -2.3812e+006  1.8798e+005 180306 195882,195934,195908
 9.4000e+001 196233 -2.7553e+005 -2.7942e+005 -7.7845e+005 179944 196057,196109,196083
 9.4000e+001 196210 -9.6236e+005 -3.5200e+006  4.2914e+005 179944 196057,196135,196109
 9.4000e+001 196187 -1.9184e+006  3.8362e+006 -1.3487e+006 179944 196057,196161,196135
 9.4000e+001 196385 -5.6791e+005 -5.2854e+005 -2.4314e+005 179604 196258,196310,196284
 9.4000e+001 196362 -1.0291e+006 -1.2708e+006 -1.2095e+006 179604 196258,196336,196310
 9.4000e+001 196586 -7.0409e+005 -4.7336e+005 -5.5576e+005 179114 196410,196488,196436
 9.4000e+001 196563 -3.8554e+005 -2.0209e+006 -5.7412e+005 179114 196410,196514,196488
 9.4000e+001 196540 -4.2198e+003 -4.3446e+005 -4.3895e+004 179114 196436,196488,196462
 9.4000e+001 196738 -7.2654e+005 -1.6050e+006 -6.7872e+005 178674 196611,196663,196637
 9.4000e+001 196715 -1.1515e+003 -3.6342e+006 -1.4129e+005 178674 196611,196689,196663
 9.4000e+001 196939  1.1908e+006 -8.5488e+006 -9.3889e+005 178334 196789,196867,196841
 9.4000e+001 196916 -3.6037e+005 -8.9328e+006 -9.2439e+005 178334 196763,196867,196789
 9.4000e+001 196893 -1.3520e+006 -6.2197e+006 -2.8999e+006 178334 196789,196841,196815
 9.4000e+001 197091 -1.3056e+006 -3.2620e+006 -1.0158e+006 177930 196990,197042,197016
 9.4000e+001 197068 -1.8365e+006 -5.3151e+006 -8.1970e+005 177930 196964,197042,196990
 9.4000e+001 197194  8.9112e+000 -1.3647e+002  1.1310e+002 177732 197116,197168,197142
 9.4000e+001 197346 -4.0724e+005 -5.4162e+006  2.3490e+005 177534 197219,197271,197245
 9.4000e+001 197323 -1.7691e+005 -5.8082e+006  4.3367e+005 177534 197219,197297,197271
 9.4000e+001 197547 -1.1179e+006 -6.8650e+006 -2.6846e+006 177130 197397,197449,197423
 9.4000e+001 197524 -2.5504e+006 -7.7451e+006 -1.6722e+006 177130 197397,197475,197449
 9.4000e+001 197501 -1.2558e+006 -1.2149e+007 -2.3061e+006 177130 197371,197475,197397
 9.4000e+001 197748 -7.1670e+005 -5.3220e+006  4.4197e+005 176790 197598,197676,197624
 9.4000e+001 197725 -4.8793e+005 -3.9390e+006  6.7483e+005 176790 197572,197676,197598
 9.4000e+001 197702 -7.3706e+005 -4.5425e+006  5.9382e+005 176790 197624,197676,197650
 9.4000e+001 197900 -2.7592e+005 -2.8187e+006 -4.7778e+005 176300 197773,197825,197799
 9.4000e+001 197877 -5.2103e+004 -4.1660e+006 -3.6214e+005 176300 197773,197851,197825
 9.4000e+001 198052 -1.3938e+006 -3.8808e+006 -1.1786e+006 176010 197925,197977,197951
 9.4000e+001 198029 -4.8338e+005 -7.2470e+006 -2.1407e+006 176010 197925,198003,197977
 9.4000e+001 198204 -1.2283e+006 -6.5090e+006 -2.7974e+006 175670 198103,198155,198129
 9.4000e+001 198181 -1.7421e+006 -4.5153e+006 -5.9915e+005 175670 198077,198155,198103
 9.4000e+001 198405 -4.6103e+005 -3.3851e+006 -5.5581e+005 175266 198255,198307,198281
 9.4000e+001 198382 -1.8285e+005 -5.5939e+006 -2.4342e+006 175266 198229,198307,198255
 9.4000e+001 198359 -1.3734e+006 -5.4711e+006 -2.5154e+006 175266 198229,198333,198307
 9.4000e+001 198606 -5.4424e+003 -1.5416e+005  2.5672e+004 174876 198430,198508,198482
 9.4000e+001 198583 -4.5761e+004 -1.6500e+005  3.3257e+004 174876 198430,198534,198508
 9.4000e+001 198560 -2.3804e+004 -9.8900e+004  9.4368e+003 174876 198430,198482,198456
 9.4000e+001 198758 -3.4577e+002 -2.7823e+002 -5.1719e+002 174536 198657,198709,198683
 9.4000e+001 198735 -5.3856e+002 -9.5125e+002 -8.2352e+001 174536 198631,198709,198657
 9.4000e+001 199008 -9.4203e+005 -4.8032e+006 -4.9677e+004 174132 198835,198913,198887
 9.4000e+001 198985 -4.5117e+005 -1.7930e+006  3.9000e+005 174132 198809,198913,198835
 9.4000e+001 198962 -5.6955e+005 -2.0785e+006 -1.3151e+006 174132 198783,198913,198809
 9.4000e+001 198939 -3.8497e+005 -5.1553e+006 -1.5893e+004 174132 198835,198887,198861
 9.4000e+001 199160 -1.1608e+006 -2.6349e+006 -7.2378e+005 173842 199059,199111,199085
 9.4000e+001 199137 -3.1587e+005 -9.7514e+005 -2.0908e+004 173842 199033,199111,199059
 9.4000e+001 199361 -5.7381e+005 -4.1360e+006  1.0770e+006 173438 199237,199289,199263
 9.4000e+001 199338 -3.5582e+005 -4.2888e+006  1.1271e+006 173438 199211,199289,199237
 9.4000e+001 199315 -2.4940e+004 -6.2944e+006 -5.7649e+005 173438 199185,199289,199211
 9.4000e+001 199513 -9.9194e+005 -5.4593e+006 -3.6385e+004 173190 199386,199438,199412
 9.4000e+001 199490 -2.1001e+006 -5.7050e+006  1.6326e+005 173190 199386,199464,199438
 9.4000e+001 199665 -4.5109e+005 -1.4703e+006  2.4283e+005 172750 199564,199616,199590
 9.4000e+001 199642 -8.5515e+005 -8.2424e+005 -1.6727e+004 172750 199538,199616,199564
 9.4000e+001 199817 -2.5401e+005 -3.2845e+006 -1.1014e+006 172524 199690,199742,199716
 9.4000e+001 199794 -1.5528e+006 -1.0041e+006 -6.3580e+005 172524 199690,199768,199742
 9.4000e+001 199969 -5.9961e+003 -5.4491e+006 -1.8667e+005 172348 199842,199894,199868
 9.4000e+001 199946  1.7920e+005 -5.4248e+006  6.4514e+004 172348 199842,199920,199894
 9.4000e+001 200121  1.1351e+005 -2.6053e+006 -3.9822e+005 172008 199994,200046,200020
 9.4000e+001 200098 -1.5415e+005 -1.2555e+006 -5.6449e+004 172008 199994,200072,200046
 9.4000e+001 200273 -2.1870e+006 -4.1308e+006 -2.2460e+006 171668 200172,200224,200198
 9.4000e+001 200250 -1.2759e+006 -4.2375e+006 -7.3005e+005 171668 200146,200224,200172
 9.4000e+001 200474  1.8006e+005 -4.2906e+006 -7.9612e+005 171264 200350,200402,200376
 9.4000e+001 200451 -2.5863e+005 -4.5707e+006 -1.0078e+006 171264 200324,200402,200350
 9.4000e+001 200428 -3.0376e+005 -2.9720e+006  9.5012e+005 171264 200298,200402,200324
 9.4000e+001 200626 -8.7410e+005 -4.7676e+006 -7.2674e+005 170832 200525,200577,200551
 9.4000e+001 200603 -2.9234e+005 -2.5418e+006 -2.0973e+005 170832 200499,200577,200525
 9.4000e+001 200827  3.5266e+003 -2.7654e+006  6.7287e+005 170492 200677,200729,200703
 9.4000e+001 200804 -1.4935e+006 -1.0202e+006 -7.3118e+005 170492 200651,200729,200677
 9.4000e+001 200781 -1.2869e+006 -1.5089e+006 -8.8024e+005 170492 200651,200755,200729
 9.4000e+001 201077 -7.1054e+005 -3.0287e+006 -2.0737e+005 170088 200878,200956,200904
 9.4000e+001 201054 -4.6970e+005 -1.4166e+006 -1.9831e+005 170088 200852,200956,200878
 9.4000e+001 201031 -8.1550e+005 -1.4523e+006  2.2147e+006 170088 200904,200956,200930
 9.4000e+001 201008  1.6947e+005 -1.9267e+006  1.5310e+005 170088 200852,200982,200956
 9.4000e+001 201278  4.5605e+004 -1.7653e+006  2.9085e+005 169798 201102,201154,201128
 9.4000e+001 201255  4.6364e+004 -1.6874e+006  1.4893e+005 169798 201102,201206,201154
 9.4000e+001 201232 -2.3507e+005 -7.7345e+005  2.8012e+005 169798 201154,201206,201180
 9.4000e+001 201430 -6.6068e+005 -4.4995e+006 -9.6633e+005 169337 201303,201355,201329
 9.4000e+001 201407 -5.1071e+005 -1.5458e+006 -5.6009e+004 169337 201303,201381,201355
 9.4000e+001 201631 -2.3799e+005 -3.3468e+006  4.6090e+005 168883 201481,201559,201507
 9.4000e+001 201608 -5.2600e+005 -2.5864e+006  9.1247e+005 168883 201455,201559,201481
 9.4000e+001 201585 -1.2350e+005 -2.0587e+006  5.8709e+005 168883 201507,201559,201533
 9.4000e+001 201832  3.0513e+005 -6.3063e+006  4.1755e+005 168479 201682,201734,201708
 9.4000e+001 201809 -2.1483e+006 -4.5722e+006 -1.1147e+006 168479 201656,201734,201682
 9.4000e+001 201786 -1.8637e+006 -3.4553e+006  8.3132e+003 168479 201656,201760,201734
 9.4000e+001 202033 -3.4396e+005 -2.3402e+006  3.5250e+004 167825 201883,201935,201909
 9.4000e+001 202010 -1.8532e+006 -3.6533e+006 -2.3334e+006 167825 201857,201935,201883
 9.4000e+001 201987 -4.0391e+005 -9.7895e+006 -1.4720e+006 167825 201857,201961,201935
 9.4000e+001 202234 -1.2112e+005 -9.4305e+005 -2.2762e+005 167435 202058,202136,202084
 9.4000e+001 202211 -2.3056e+005 -1.8480e+006  7.0947e+005 167435 202058,202162,202136
 9.4000e+001 202188 -6.4221e+004 -5.6273e+005  7.2674e+004 167435 202084,202136,202110
 9.4000e+001 202386  9.9073e+004 -2.7750e+006  3.4204e+005 167002 202285,202337,202311
 9.4000e+001 202363 -4.2974e+005 -6.6936e+005  3.8786e+005 167002 202259,202337,202285
 9.4000e+001 202538 -1.3700e+006 -3.4664e+006 -2.0083e+006 166662 202411,202463,202437
 9.4000e+001 202515 -1.0269e+006 -2.9462e+006 -2.2605e+006 166662 202411,202489,202463
 9.4000e+001 202690 -1.2316e+005 -1.8146e+006  1.4969e+005 166322 202589,202641,202615
 9.4000e+001 202667  2.2327e+005 -2.4861e+006 -5.4442e+005 166322 202563,202641,202589
 9.4000e+001 202891 -4.9580e+004 -1.0705e+006  1.1558e+004 165918 202715,202767,202741
 9.4000e+001 202868 -1.3050e+005 -1.5080e+006 -1.9877e+005 165918 202715,202793,202767
 9.4000e+001 202845 -1.0288e+006 -1.0879e+006 -2.8202e+005 165918 202715,202819,202793
 9.4000e+001 203092 -8.2613e+005 -1.2977e+006 -7.1990e+005 165628 202916,202968,202942
 9.4000e+001 203069  2.9841e+004 -2.6234e+006 -8.6851e+005 165628 202916,202994,202968
 9.4000e+001 203046 -1.4420e+005 -4.3055e+006  6.3098e+005 165628 202916,203020,202994
 9.4000e+001 203293 -3.3599e+006 -1.7940e+006 -2.4154e+006 165266 203143,203195,203169
 9.4000e+001 203270 -1.3470e+006 -4.7718e+006 -5.4743e+005 165266 203143,203221,203195
 9.4000e+001 203247 -9.0956e+005 -5.0987e+006 -9.2936e+005 165266 203117,203221,203143
 9.4000e+001 203445 -2.8086e+005 -1.9144e+006  6.0697e+005 164826 203318,203370,203344
 9.4000e+001 203422 -1.3760e+005 -1.2876e+006 -1.3682e+005 164826 203318,203396,203370
 9.4000e+001 203597 -1.1048e+006 -5.2213e+005 -8.6604e+004 164386 203470,203522,203496
 9.4000e+001 203574 -1.5831e+006 -2.2915e+006 -2.8164e+005 164386 203470,203548,203522
 9.4000e+001 203798 -3.4907e+005 -7.8297e+003  1.0831e+004 163996 203622,203674,203648
 9.4000e+001 203775 -8.5463e+005 -1.2651e+004  1.6980e+005 163996 203622,203726,203674
 9.4000e+001 203752 -8.1621e+005 -3.2953e+003 -5.2869e+004 163996 203674,203726,203700
 9.4000e+001 203901 -3.6654e+005 -7.5445e+005  1.0162e+005 163770 203823,203875,203849
 9.4000e+001 204053 -1.6842e+006 -3.0194e+006 -1.2628e+006 163474 203952,204004,203978
 9.4000e+001 204030 -1.3230e+006 -2.7870e+006 -9.8852e+005 163474 203926,204004,203952
 9.4000e+001 204205  1.9423e+005 -1.0863e+006 -4.4780e+005 163034 204104,204156,204130
 9.4000e+001 204182 -3.8434e+005 -1.7862e+006 -1.1577e+006 163034 204078,204156,204104
 9.4000e+001 204357 -6.5630e+004 -7.8469e+003  2.2956e+004 162624 204256,204308,204282
 9.4000e+001 204334 -6.5631e+004 -8.0871e+003  2.3033e+004 162624 204230,204308,204256
 9.4000e+001 204509 -3.0044e+005 -5.4342e+004  1.1752e+005 162200 204382,204434,204408
 9.4000e+001 204486 -2.4393e+005 -1.6887e+005  2.4895e+005 162200 204382,204460,204434
 9.4000e+001 204710 -2.1568e+006 -4.2279e+005  4.3072e+005 161810 204560,204638,204586
 9.4000e+001 204687 -1.3021e+006 -1.5323e+006 -1.1163e+006 161810 204534,204638,204560
 9.4000e+001 204664 -1.9687e+006 -3.2567e+005  6.4805e+005 161810 204586,204638,204612
 9.4000e+001 204862 -7.2164e+005 -7.6498e+005 -2.3138e+005 161406 204735,204787,204761
 9.4000e+001 204839 -2.1173e+004 -1.6356e+006  2.1541e+004 161406 204735,204813,204787
 9.4000e+001 205014  1.3434e+002  2.1456e+002 -1.4601e+002 161180 204887,204939,204913
 9.4000e+001 204991  1.5266e+002  2.6448e+002 -1.7919e+002 161180 204887,204965,204939
 9.4000e+001 205215 -4.3805e+005 -1.6791e+006 -1.7748e+006 160726 205039,205091,205065
 9.4000e+001 205192 -6.5099e+005 -2.6330e+006 -1.4674e+006 160726 205039,205143,205091
 9.4000e+001 205169 -1.5485e+006 -4.1975e+006 -2.1351e+006 160726 205091,205143,205117
 9.4000e+001 205416 -3.6808e+002  1.4484e+002 -2.4985e+002 160272 205292,205344,205318
 9.4000e+001 205393  6.4762e+001 -1.3038e+001  7.0275e+001 160272 205240,205344,205292
 9.4000e+001 205370  5.9519e+001  2.7999e+002  4.2800e+002 160272 205240,205292,205266
 9.4000e+001 205568  9.8556e+002  3.3183e+003  7.2858e+002 159932 205441,205493,205467
 9.4000e+001 205545  7.6727e+002  4.3931e+003  1.3010e+003 159932 205441,205519,205493
 9.4000e+001 205720 -1.0103e+002 -6.1391e+002  7.4052e+002 159542 205593,205645,205619
 9.4000e+001 205697 -2.7192e+000 -2.2739e+002  5.7571e+002 159542 205593,205671,205645
 9.4000e+001 205872 -7.1872e+002  6.4810e+002  8.4152e+002 159252 205745,205797,205771
 9.4000e+001 205849 -8.3613e+002  3.6747e+002  3.1877e+002 159252 205745,205823,205797
 9.4000e+001 206024 -1.5881e+005 -1.3497e+006  4.4400e+005 159004 205923,205975,205949
 9.4000e+001 206001 -8.8165e+004 -2.3000e+006  6.4272e+005 159004 205897,205975,205923
 9.4000e+001 206127 -4.4026e+006 -3.7143e+006  3.5222e+003 158364 206049,206101,206075
 9.4000e+001 206328 -2.4612e+005 -7.3851e+003  1.4501e+005 157960 206178,206256,206204
 9.4000e+001 206305 -9.0315e+004 -7.2086e+004  6.5599e+004 157960 206152,206256,206178
 9.4000e+001 206282 -2.4226e+005 -8.4532e+004  1.4248e+005 157960 206204,206256,206230
 9.4000e+001 206529 -1.5369e+006 -3.8803e+006  1.0426e+006 157648 206405,206457,206431
 9.4000e+001 206506 -2.4869e+006 -1.0626e+006  8.9625e+005 157648 206379,206457,206405
 9.4000e+001 206483 -2.5559e+006 -7.6848e+005  1.2662e+006 157648 206353,206457,206379
 9.4000e+001 206730  2.1659e+003 -2.1287e+005  7.9194e+004 157208 206554,206606,206580
 9.4000e+001 206707 -4.9939e+004 -1.6410e+005  9.2727e+004 157208 206554,206632,206606
 9.4000e+001 206684 -6.8345e+004 -1.9328e+005 -7.8003e+004 157208 206554,206658,206632
 9.4000e+001 206882  1.3870e+002 -8.0487e+001  8.4201e+001 157010 206755,206807,206781
 9.4000e+001 206859 -6.7723e+001  2.0381e+002 -4.5183e+001 157010 206755,206833,206807
 9.4000e+001 207034 -2.7616e+004  1.0985e+005 -1.7869e+004 156620 206907,206959,206933
 9.4000e+001 207011  2.0337e+004 -4.6770e+005  1.1838e+004 156620 206907,206985,206959
 9.4000e+001 207186 -2.4409e+005 -1.6957e+006 -2.0349e+005 156330 207085,207137,207111
 9.4000e+001 207163 -5.4696e+005 -1.8832e+006 -1.4905e+006 156330 207059,207137,207085
 9.4000e+001 207387 -9.2756e+004 -1.0521e+006 -2.4810e+005 155890 207211,207289,207237
 9.4000e+001 207364 -1.1530e+006 -1.3431e+006 -7.3791e+005 155890 207211,207315,207289
 9.4000e+001 207341 -2.9345e+005 -6.5832e+005 -1.6731e+004 155890 207237,207289,207263
 9.4000e+001 207588 -7.8764e+005 -1.9154e+007  7.5716e+006 155436 207438,207490,207464
 9.4000e+001 207565 -1.3742e+006 -1.3092e+007 -9.6018e+005 155436 207412,207490,207438
 9.4000e+001 207542 -2.7058e+006 -6.1526e+006 -1.1038e+006 155436 207412,207516,207490
 9.4000e+001 207789  1.6361e+006 -2.7917e+007 -1.8980e+006 155260 207639,207691,207665
 9.4000e+001 207766 -3.6570e+006 -8.3546e+006  4.2866e+006 155260 207613,207691,207639
 9.4000e+001 207743 -1.5025e+006 -6.0981e+006 -7.6955e+004 155260 207613,207717,207691
 9.4000e+001 207990  1.2320e+003  6.1395e+002  2.4600e+002 154920 207840,207918,207892
 9.4000e+001 207967 -8.2368e+002  4.4689e+001 -9.7438e+002 154920 207814,207918,207840
 9.4000e+001 207944  1.6198e+003  2.9166e+002  2.9470e+002 154920 207840,207892,207866
 9.4000e+001 208191 -1.5761e+004 -3.1801e+005  3.4194e+004 154630 208015,208093,208041
 9.4000e+001 208168 -2.6039e+003 -3.1809e+005  1.7181e+004 154630 208015,208119,208093
 9.4000e+001 208145 -4.8715e+004 -8.9889e+004 -6.6857e+004 154630 208041,208093,208067
 9.4000e+001 208343  3.6664e+000 -5.2886e-002 -6.9027e-001 154240 208216,208268,208242
 9.4000e+001 208320 -6.4738e+000 -4.1943e-001  1.8715e+000 154240 208216,208294,208268
 9.4000e+001 208495  4.2758e+005 -3.0835e+006 -7.0335e+005 153950 208394,208446,208420
 9.4000e+001 208472 -1.9538e+005 -5.7765e+005  2.3210e+005 153950 208368,208446,208394
 9.4000e+001 208647 -5.5157e+005 -3.1167e+005  8.5027e+005 153603 208520,208572,208546
 9.4000e+001 208624 -6.6221e+005 -7.9744e+005 -6.4094e+005 153603 208520,208598,208572
 9.4000e+001 208848 -1.1058e+006 -4.8687e+005  1.5319e+005 153149 208698,208776,208724
 9.4000e+001 208825 -2.6081e+006 -1.2147e+005  1.6352e+005 153149 208672,208776,208698
 9.4000e+001 208802 -6.4176e+005 -3.2665e+005  4.2783e+005 153149 208724,208776,208750
 9.4000e+001 209000 -4.6089e+004 -1.2661e+006 -9.5376e+004 152859 208873,208925,208899
 9.4000e+001 208977 -3.7684e+005 -8.8364e+005 -6.4422e+004 152859 208873,208951,208925
 9.4000e+001 209152  3.3158e+004 -1.4689e+006 -1.2884e+005 152569 209051,209103,209077
 9.4000e+001 209129 -1.3879e+005 -8.5781e+005  1.8995e+005 152569 209025,209103,209051
 9.4000e+001 209304  1.0759e+002 -1.6394e+002  3.3077e+002 152065 209177,209229,209203
 9.4000e+001 209281  4.4266e+002 -2.1239e+002  1.3811e+002 152065 209177,209255,209229
 9.4000e+001 209456 -2.5730e+006 -1.4069e+006 -5.3496e+005 151775 209355,209407,209381
 9.4000e+001 209433 -1.2531e+006 -1.4040e+006  2.5867e+005 151775 209329,209407,209355
 9.4000e+001 209608 -1.1315e+006 -2.6354e+006 -9.5984e+005 151371 209481,209533,209507
 9.4000e+001 209585  5.0412e+005 -4.9091e+006 -4.7023e+005 151371 209481,209559,209533
 9.4000e+001 209760 -1.8587e+005 -2.1246e+004 -7.4319e+004 150981 209659,209711,209685
 9.4000e+001 209737 -3.3528e+005 -6.4746e+004 -9.8054e+004 150981 209633,209711,209659
 9.4000e+001 209912  2.1255e+006 -2.8867e+007 -2.5768e+006 150619 209811,209863,209837
 9.4000e+001 209889 -2.6949e+006 -1.1858e+007  3.2672e+006 150619 209785,209863,209811
 9.4000e+001 210064 -1.8686e+005 -3.4191e+005  2.2646e+004 150279 209937,209989,209963
 9.4000e+001 210041 -8.2798e+004 -8.0643e+004 -5.6807e+004 150279 209937,210015,209989
 9.4000e+001 210265 -2.5746e+006 -3.8288e+006 -3.2630e+005 149989 210115,210167,210141
 9.4000e+001 210242 -1.8526e+006 -5.2686e+006 -1.9631e+006 149989 210115,210193,210167
 9.4000e+001 210219 -5.9770e+005 -3.8557e+006 -1.0586e+006 149989 210089,210193,210115
 9.4000e+001 210417 -3.5586e+004 -2.5412e+005 -7.1594e+004 149599 210316,210368,210342
 9.4000e+001 210394 -1.8484e+004 -7.8498e+004  1.3898e+003 149599 210290,210368,210316
 9.4000e+001 210618 -3.1721e+006 -1.2890e+007  4.0758e+006 149095 210468,210520,210494
 9.4000e+001 210595 -2.8626e+006 -1.2696e+007  2.8686e+006 149095 210442,210520,210468
 9.4000e+001 210572 -1.3823e+006 -1.4009e+007  2.4583e+006 149095 210442,210546,210520
 9.4000e+001 210819 -4.4927e-001  1.2115e-001  8.2151e-002 148748 210695,210747,210721
 9.4000e+001 210796  1.0570e+000  1.9567e+000 -1.1070e+000 148748 210669,210747,210695
 9.4000e+001 210773 -1.9796e+000 -5.7217e+000  3.1959e+000 148748 210643,210747,210669
 9.4000e+001 210971  1.0112e+000 -8.9785e+001 -2.0828e+002 148408 210870,210922,210896
 9.4000e+001 210948 -7.4984e+001 -7.2292e+002 -2.7096e+002 148408 210844,210922,210870
 9.4000e+001 211123 -1.0451e+005 -8.3579e+005  2.3352e+005 148118 210996,211048,211022
 9.4000e+001 211100 -3.6634e+005 -7.9862e+005  5.5950e+005 148118 210996,211074,211048
 9.4000e+001 211275 -1.9635e+005 -5.1419e+005  5.3943e+004 147778 211148,211200,211174
 9.4000e+001 211252 -4.5421e+005 -1.3554e+006  7.4202e+005 147778 211148,211226,211200
 9.4000e+001 211427 -5.6050e+004 -3.1290e+005  9.9510e+004 147324 211326,211378,211352
 9.4000e+001 211404  1.7639e+004 -5.7480e+005 -6.4072e+004 147324 211300,211378,211326
 9.4000e+001 211628 -2.2480e+006 -1.3129e+006  9.5363e+005 147012 211452,211504,211478
 9.4000e+001 211605 -2.2207e+006  7.9077e+005  1.3414e+006 147012 211452,211556,211504
 9.4000e+001 211582 -2.1675e+006 -4.5520e+005  1.8045e+006 147012 211504,211556,211530
 9.4000e+001 211829 -1.9640e+005 -4.4585e+005  3.2725e+005 146636 211679,211757,211731
 9.4000e+001 211806 -1.2799e+005 -1.0953e+006  1.4925e+005 146636 211653,211757,211679
 9.4000e+001 211783 -1.5456e+005 -2.9907e+005  9.8391e+004 146636 211679,211731,211705
 9.4000e+001 211981 -7.0159e+002 -1.1472e+003 -3.6719e+002 146246 211880,211932,211906
 9.4000e+001 211958 -6.9600e+002 -3.9087e+002 -3.6956e+002 146246 211854,211932,211880
 9.4000e+001 212133 -1.5662e+002  3.1734e+002 -1.2924e+002 145956 212006,212058,212032
 9.4000e+001 212110  3.7658e+002  7.6823e+002 -4.2190e+002 145956 212006,212084,212058
 9.4000e+001 212285 -1.9205e+003  1.1392e+003 -4.7396e+002 145544 212184,212236,212210
 9.4000e+001 212262 -1.4013e+003  2.1637e+002  7.0806e+001 145544 212158,212236,212184
 9.4000e+001 212486 -3.7128e+005 -1.6214e+007  3.9575e+006 144990 212362,212414,212388
 9.4000e+001 212463  3.0318e+005 -1.2927e+007  5.8105e+006 144990 212310,212414,212362
 9.4000e+001 212440 -5.6671e+006 -2.9249e+006  1.6448e+006 144990 212310,212362,212336
 9.4000e+001 212638 -1.5638e+005 -1.6396e+005  1.2720e+005 144600 212537,212589,212563
 9.4000e+001 212615 -1.0829e+005 -1.1122e+005  5.5424e+004 144600 212511,212589,212537
 9.4000e+001 212839 -1.5432e+005 -1.2917e+006  2.3970e+005 144210 212689,212741,212715
 9.4000e+001 212816 -3.3709e+005 -1.5757e+006  7.1290e+005 144210 212663,212741,212689
 9.4000e+001 212793 -3.1514e+005 -1.5144e+006  6.2951e+005 144210 212663,212767,212741
 9.4000e+001 212991 -2.4606e-001 -2.1479e-001  2.1446e-001 143920 212890,212942,212916
 9.4000e+001 212968 -1.4746e-001  2.3235e-001 -1.5513e-002 143920 212864,212942,212890
 9.4000e+001 213143 -2.5109e+001 -1.0453e+003  9.0929e+002 143480 213016,213068,213042
 9.4000e+001 213120 -1.6135e+002 -4.4910e+001 -5.1637e+001 143480 213016,213094,213068
 9.4000e+001 213295 -2.9346e+004 -4.5900e+005  9.7335e+004 142990 213194,213246,213220
 9.4000e+001 213272 -2.3401e+004 -4.4402e+005  8.1546e+004 142990 213168,213246,213194
 9.4000e+001 213447  8.4110e+004 -2.5123e+005  1.9778e+005 142600 213320,213372,213346
 9.4000e+001 213424 -2.1338e+005 -3.3003e+005  2.4671e+005 142600 213320,213398,213372
 9.4000e+001 213599 -1.8431e+004 -3.1643e+005  1.4449e+005 142260 213472,213524,213498
 9.4000e+001 213576 -6.9225e+004 -3.3149e+005  1.1822e+005 142260 213472,213550,213524
 9.4000e+001 213751 -4.8278e+004  2.9849e+004  6.1453e+003 141870 213624,213676,213650
 9.4000e+001 213728 -2.7455e+005 -1.8871e+004  3.0608e+003 141870 213624,213702,213676
 9.4000e+001 213903 -1.4644e+006 -1.6599e+006 -1.5699e+006 141530 213776,213828,213802
 9.4000e+001 213880 -3.9618e+005 -1.9509e+006 -7.7379e+005 141530 213776,213854,213828
 9.4000e+001 214055 -5.1325e+006 -7.9378e+004  6.2733e+005 141218 213928,213980,213954
 9.4000e+001 214032 -3.1001e+006 -6.1856e+005  1.8409e+005 141218 213928,214006,213980
 9.4000e+001 214207 -1.5623e+003 -1.5839e+003  1.6844e+003 140928 214080,214132,214106
 9.4000e+001 214184  1.0342e+003 -5.0190e+002  5.2113e+002 140928 214080,214158,214132
 9.4000e+001 214359 -2.4344e+004 -2.1259e+005 -1.7062e+004 140538 214232,214284,214258
 9.4000e+001 214336 -1.1939e+005 -4.5034e+005  2.6264e+005 140538 214232,214310,214284
 9.4000e+001 214560 -4.7670e+005 -5.1894e+006  1.2630e+006 140248 214384,214462,214410
 9.4000e+001 214537  5.5758e+004 -2.6848e+006  5.0782e+005 140248 214384,214488,214462
 9.4000e+001 214514 -3.8393e+005 -3.5336e+006  1.9067e+004 140248 214410,214462,214436
 9.4000e+001 214712 -7.0440e+004 -4.7861e+004  3.0162e+004 140000 214611,214663,214637
 9.4000e+001 214689 -6.4114e+004 -1.6470e+005  1.3211e+005 140000 214585,214663,214611
 9.4000e+001 214913 -2.4699e+005 -1.7570e+006 -3.8515e+005 139596 214737,214815,214763
 9.4000e+001 214890 -2.1718e+005 -1.0453e+006  3.5832e+004 139596 214737,214841,214815
 9.4000e+001 214867  6.5815e+005 -5.8634e+006  6.9152e+005 139596 214763,214815,214789
 9.4000e+001 215016 -7.1116e+002 -9.9675e+002  3.7338e+001 139420 214938,214990,214964
 9.4000e+001 215168 -4.1599e+006 -9.4903e+006  6.4314e+006 139130 215067,215119,215093
 9.4000e+001 215145 -2.7787e+006 -1.0548e+007  4.8021e+006 139130 215041,215119,215067
 9.4000e+001 215320 -2.8336e+006 -4.3249e+006  2.8787e+006 138790 215219,215271,215245
 9.4000e+001 215297 -2.6591e+006 -1.1301e+007  6.6858e+006 138790 215193,215271,215219
 9.4000e+001 215472 -2.2662e+004 -1.2875e+005  4.6947e+004 138514 215345,215397,215371
 9.4000e+001 215449 -3.4777e+004 -1.6448e+005  7.7792e+004 138514 215345,215423,215397
 9.4000e+001 215624 -4.1138e+005 -7.2245e+006  2.0662e+006 138174 215497,215549,215523
 9.4000e+001 215601 -7.1767e+005 -6.0206e+006  1.9191e+006 138174 215497,215575,215549
 9.4000e+001 215776  2.3385e+003 -1.7170e+003 -4.8907e+003 137734 215649,215701,215675
 9.4000e+001 215753 -2.3946e+001 -4.1731e+003  1.9954e+003 137734 215649,215727,215701
 9.4000e+001 215977  1.6852e+006 -6.5497e+006 -1.6893e+005 137344 215801,215879,215827
 9.4000e+001 215954 -1.0642e+006 -1.4074e+006 -7.9970e+005 137344 215801,215905,215879
 9.4000e+001 215931 -2.5368e+005 -8.3387e+006 -4.7086e+006 137344 215827,215879,215853
 9.4000e+001 216129 -1.7668e+005 -3.0871e+005 -1.7347e+004 136940 216028,216080,216054
 9.4000e+001 216106 -1.3716e+005 -5.5144e+005  2.3046e+005 136940 216002,216080,216028
 9.4000e+001 216330 -6.4899e+005 -8.0643e+006  4.5225e+005 136600 216180,216232,216206
 9.4000e+001 216307 -1.7758e+006 -8.2978e+006  4.2846e+006 136600 216154,216232,216180
 9.4000e+001 216284 -9.2208e+005 -4.6720e+006  1.8696e+006 136600 216154,216258,216232
 9.4000e+001 216482  8.6800e+005 -4.7849e+006  1.0645e+006 136260 216381,216433,216407
 9.4000e+001 216459  6.0961e+005 -2.9208e+006  1.1061e+006 136260 216355,216433,216381
 9.4000e+001 216634 -1.3676e+005 -3.1642e+004  5.1531e+004 135970 216533,216585,216559
 9.4000e+001 216611 -9.7798e+004 -1.8487e+005  1.7489e+005 135970 216507,216585,216533
 9.4000e+001 216835 -7.5070e+004 -2.7105e+006  2.8845e+005 135608 216685,216763,216711
 9.4000e+001 216812  1.6836e+005 -3.1149e+006 -3.5592e+005 135608 216659,216763,216685
 9.4000e+001 216789 -1.0595e+004 -6.4215e+005  4.0867e+003 135608 216711,216763,216737
 9.4000e+001 217036 -1.5885e+005 -9.7545e+004  7.0081e+004 135312 216912,216964,216938
 9.4000e+001 217013 -1.0522e+005 -4.3453e+005  2.7834e+005 135312 216886,216964,216912
 9.4000e+001 216990  7.3842e+004 -8.4208e+005  1.7827e+005 135312 216860,216964,216886
 9.4000e+001 217237 -1.8415e+005 -8.8187e+005  3.3495e+005 134908 217061,217139,217113
 9.4000e+001 217214 -3.7735e+005 -9.7601e+005  6.6739e+005 134908 217061,217165,217139
 9.4000e+001 217191 -4.7270e+005 -1.1446e+006  5.0376e+005 134908 217061,217113,217087
 9.4000e+001 217438 -8.1370e+005 -7.8631e+006 -2.3032e+006 134568 217288,217366,217314
 9.4000e+001 217415 -1.6362e+006 -8.3346e+006 -2.6496e+006 134568 217262,217366,217288
 9.4000e+001 217392 -1.5376e+006 -1.0588e+007 -3.4426e+006 134568 217314,217366,217340
 9.4000e+001 217590 -1.5886e+004 -1.3689e+005  1.7675e+004 134106 217463,217515,217489
 9.4000e+001 217567 -3.4908e+004 -1.7968e+005  8.9668e+004 134106 217463,217541,217515
 9.4000e+001 217791 -2.1495e+003 -7.1632e+003 -3.9239e+003 133816 217641,217693,217667
 9.4000e+001 217768 -1.6588e+006 -1.1407e+007 -4.3499e+006 133816 217641,217719,217693
 9.4000e+001 217745 -6.5115e+006 -1.5600e+006  3.1872e+006 133816 217615,217719,217641
 9.4000e+001 217992 -4.7789e+006 -4.1182e+006  4.7031e+006 133355 217842,217920,217894
 9.4000e+001 217969 -1.5581e+006 -8.4649e+006  3.5502e+006 133355 217816,217920,217842
 9.4000e+001 217946 -1.3001e+006 -2.3597e+006  1.3987e+006 133355 217842,217894,217868
 9.4000e+001 218193 -3.9757e+005 -6.5785e+006  7.9609e+005 132851 218017,218095,218069
 9.4000e+001 218170 -6.2794e+006 -6.3839e+006  6.5054e+006 132851 218017,218121,218095
 9.4000e+001 218147 -1.5285e+006 -2.9005e+006 -6.9033e+005 132851 218017,218069,218043
 9.4000e+001 218345  4.2800e-002  3.0923e-003 -1.1504e-002 132511 218244,218296,218270
 9.4000e+001 218322 -5.3533e-002 -3.8677e-003  1.4389e-002 132511 218218,218296,218244
 9.4000e+001 218497  2.9803e+006 -1.9106e+007  2.1231e+006 132235 218396,218448,218422
 9.4000e+001 218474  1.4953e+006 -1.0264e+007  2.1877e+006 132235 218370,218448,218396
 9.4000e+001 218698 -3.1104e+005 -5.7592e+006 -8.5363e+005 131945 218574,218626,218600
 9.4000e+001 218675 -1.5089e+006 -9.1782e+006 -2.1803e+006 131945 218522,218626,218574
 9.4000e+001 218652 -2.4036e+006 -5.2307e+006 -3.1051e+006 131945 218522,218574,218548
 9.4000e+001 218850 -1.1391e+006 -1.0485e+007  2.1233e+006 131655 218723,218775,218749
 9.4000e+001 218827 -3.4942e+005 -1.1969e+007  1.4730e+006 131655 218723,218801,218775
 9.4000e+001 218953 -1.5031e+005 -4.7942e+004 -1.0296e+005 131215 218875,218927,218901
 9.4000e+001 219105 -7.2010e+004 -1.7667e+006 -3.5122e+005 130875 218978,219030,219004
 9.4000e+001 219082 -2.1131e+005 -6.2820e+005 -5.0805e+004 130875 218978,219056,219030
 9.4000e+001 219306 -2.3158e+005 -1.2078e+006  2.4834e+005 130429 219156,219234,219208
 9.4000e+001 219283 -4.2594e+005 -7.1606e+005  2.7712e+005 130429 219130,219234,219156
 9.4000e+001 219260 -1.8427e+006 -1.5999e+006  7.9688e+005 130429 219156,219208,219182
 9.4000e+001 219507 -5.5378e+005 -1.2774e+006  8.0798e+005 130025 219383,219435,219409
 9.4000e+001 219484 -5.6220e+005 -1.9090e+006  1.0334e+006 130025 219331,219435,219383
 9.4000e+001 219461 -5.5534e+005 -1.2050e+006  6.8057e+005 130025 219331,219383,219357
 9.4000e+001 219659 -1.1204e-002 -8.0417e-001  9.4919e-002 129685 219558,219610,219584
 9.4000e+001 219636  2.5788e-002  1.8510e+000 -2.1848e-001 129685 219532,219610,219558
 9.4000e+001 219860 -4.0148e+005 -9.3966e+005  6.7880e+005 129395 219710,219788,219762
 9.4000e+001 219837 -4.7563e+005 -1.2828e+006  6.1544e+005 129395 219684,219788,219710
 9.4000e+001 219814 -3.3099e+005 -1.0704e+006  5.9515e+005 129395 219710,219762,219736
 9.4000e+001 220061 -1.6578e+000 -7.9296e-001  1.1466e+000 128991 219937,219989,219963
 9.4000e+001 220038  3.7217e+000  7.0603e-001 -1.0550e+000 128991 219885,219989,219937
 9.4000e+001 220015 -3.6527e+000 -8.8382e-004  5.6818e-002 128991 219885,219937,219911
 9.4000e+001 220262  5.9819e-001  1.5322e+001 -7.9832e+000 128701 220086,220164,220112
 9.4000e+001 220239  1.3866e+000  3.2697e+000  2.1293e+000 128701 220086,220190,220164
 9.4000e+001 220216 -7.7247e+000 -7.4153e+001  2.3933e+001 128701 220112,220164,220138
 9.4000e+001 220463 -3.2644e+006 -8.2717e+006  4.1880e+006 128297 220339,220391,220365
 9.4000e+001 220440 -1.9134e+006 -1.1914e+007  3.1911e+006 128297 220313,220391,220339
 9.4000e+001 220417 -5.1783e+005 -1.5132e+007 -2.9863e+006 128297 220287,220391,220313
 9.4000e+001 220615 -5.8776e-002 -2.1001e-002 -3.5133e-002 128007 220488,220540,220514
 9.4000e+001 220592  6.3940e-002  2.2846e-002  3.8220e-002 128007 220488,220566,220540
 9.4000e+001 220767 -1.4182e+005 -2.3777e+006  4.4443e+005 127567 220640,220692,220666
 9.4000e+001 220744 -2.2349e+005 -1.6047e+006  3.5355e+005 127567 220640,220718,220692
 9.4000e+001 220919 -6.1262e+005 -1.1382e+007 -9.9244e+005 127163 220792,220844,220818
 9.4000e+001 220896 -1.7031e+006 -1.4992e+007  3.6503e+006 127163 220792,220870,220844
 9.4000e+001 221071 -3.3503e+006 -2.5064e+006  2.4403e+006 126915 220970,221022,220996
 9.4000e+001 221048 -1.6688e+006 -4.7908e+006  2.3252e+006 126915 220944,221022,220970
 9.4000e+001 221272 -1.7917e+006 -5.8834e+006  3.1533e+006 126461 221122,221174,221148
 9.4000e+001 221249 -9.9986e+005 -5.6980e+006  3.1667e+006 126461 221122,221200,221174
 9.4000e+001 221226 -2.4559e+006 -4.7410e+006  3.4129e+006 126461 221096,221200,221122
 9.4000e+001 221375  3.4649e+000 -3.1950e+001  2.9355e+000 126213 221297,221349,221323
 9.4000e+001 221478  1.2508e-076 -2.4564e-077  2.2464e-077 125766 221400,221452,221426
 9.4000e+001 221679 -5.1592e-002 -2.5848e-003 -1.1548e-002 125212 221503,221555,221529
 9.4000e+001 221656  9.2018e-002  1.2411e-001  8.8452e-002 125212 221503,221581,221555
 9.4000e+001 221633 -1.8364e-001 -4.3400e-001 -2.8231e-001 125212 221503,221607,221581
 9.4000e+001 221929 -1.3876e+000 -1.2192e-001 -5.0223e-001 124872 221782,221834,221808
 9.4000e+001 221906  3.9662e+000  1.6924e-001  1.2221e-001 124872 221756,221834,221782
 9.4000e+001 221883  1.4204e+000  6.2319e-002  1.9544e+000 124872 221704,221834,221756
 9.4000e+001 221860 -2.7288e+000 -5.8622e-001 -9.1062e-001 124872 221704,221756,221730
 9.4000e+001 222130 -6.3292e+005 -4.1443e+006  3.0593e+004 124582 221980,222058,222006
 9.4000e+001 222107 -1.7788e+006 -3.7224e+006  3.2412e+005 124582 221954,222058,221980
 9.4000e+001 222084 -1.5097e+006 -4.1764e+006 -3.8969e+005 124582 222006,222058,222032
 9.4000e+001 222282 -2.2714e+006 -3.7340e+006 -2.3423e+005 124192 222181,222233,222207
 9.4000e+001 222259 -3.4556e+005 -3.6196e+006 -2.3588e+005 124192 222155,222233,222181
 9.4000e+001 222483  1.2922e+002 -6.1084e+002 -1.5311e+002 123702 222333,222385,222359
 9.4000e+001 222460 -1.8723e+002 -4.4002e+002  6.0124e+001 123702 222333,222411,222385
 9.4000e+001 222437 -3.4072e+002  1.4892e+002 -4.0485e+002 123702 222307,222411,222333
 9.4000e+001 222635 -1.7807e+002 -2.7138e+002  2.1955e+002 123312 222508,222560,222534
 9.4000e+001 222612 -5.0497e+002 -4.2693e+002  3.9255e+002 123312 222508,222586,222560
 9.4000e+001 222787 -6.8105e+000 -8.5061e-002  7.6112e-001 122858 222686,222738,222712
 9.4000e+001 222764  2.3577e+000  2.9448e-002 -2.6350e-001 122858 222660,222738,222686
 9.4000e+001 222939 -2.0534e+001 -1.3602e+002  7.7993e+000 122568 222812,222864,222838
 9.4000e+001 222916  5.8629e+000 -2.1990e+001  7.2988e+000 122568 222812,222890,222864
 9.4000e+001 223091  3.9748e+002 -6.9099e+001  3.1434e+001 122392 222964,223016,222990
 9.4000e+001 223068 -2.4584e+002 -1.5562e+002  2.1217e+001 122392 222964,223042,223016
 9.4000e+001 223292 -1.3482e+006 -7.4178e+005  6.3236e+005 121852 223142,223220,223194
 9.4000e+001 223269 -1.7678e+006 -9.2517e+005  4.8090e+005 121852 223116,223220,223142
 9.4000e+001 223246 -2.1392e+006 -8.1613e+005 -1.9204e+005 121852 223142,223194,223168
 9.4000e+001 223493 -1.6781e+006 -2.9001e+005  7.2198e+005 121406 223343,223395,223369
 9.4000e+001 223470 -1.4309e+006 -1.4883e+005  5.5287e+005 121406 223343,223421,223395
 9.4000e+001 223447 -6.0108e+005 -3.5800e+005  3.5250e+005 121406 223317,223421,223343
 9.4000e+001 223645  2.1063e+005 -1.5413e+007  4.0001e+006 121002 223544,223596,223570
 9.4000e+001 223622 -1.2747e+006 -1.3591e+007  3.6651e+006 121002 223518,223596,223544
 9.4000e+001 223846  7.3295e+001 -9.1063e+001  9.8302e+001 120662 223670,223748,223696
 9.4000e+001 223823  1.5200e+002 -2.1531e+001  3.4354e+001 120662 223670,223774,223748
 9.4000e+001 223800 -9.7179e+001 -1.2688e+002  1.0388e+002 120662 223696,223748,223722
 9.4000e+001 224047 -1.6615e+000 -2.1679e+000  1.8979e+000 120222 223897,223949,223923
 9.4000e+001 224024  1.0966e+000  3.2707e+000 -1.2296e-001 120222 223871,223949,223897
 9.4000e+001 224001 -7.7731e-001 -5.9680e+000 -2.1538e+000 120222 223871,223975,223949
 9.4000e+001 224248  1.9840e+000  2.1325e+001 -1.5697e+001 119875 224124,224176,224150
 9.4000e+001 224225 -2.9987e+001  4.1073e+001 -2.7739e+001 119875 224098,224176,224124
 9.4000e+001 224202 -1.9435e+000  5.7710e+001  5.1131e+000 119875 224072,224176,224098
 9.4000e+001 224449  1.4994e+000  7.0374e-005 -1.0272e-002 119677 224325,224377,224351
 9.4000e+001 224426  1.4225e+000  1.1828e+000 -2.4389e+000 119677 224299,224377,224325
 9.4000e+001 224403 -1.3562e+001 -3.1252e+000  6.5104e+000 119677 224273,224377,224299
 9.4000e+001 224552  2.8245e-076  1.0342e-076  2.6808e-076 119273 224474,224526,224500
 9.4000e+001 224704 -3.0119e+001 -3.1849e+002 -2.8806e+002 118983 224603,224655,224629
 9.4000e+001 224681 -3.3947e+001 -2.4348e+002 -2.3579e+002 118983 224577,224655,224603
 9.4000e+001 224856 -4.9951e+002 -3.1449e+002 -6.3795e+001 118529 224755,224807,224781
 9.4000e+001 224833 -4.3627e+002 -6.7005e+002 -6.9718e+001 118529 224729,224807,224755
 9.4000e+001 225008 -1.6568e+000 -3.6415e-001 -7.7674e-001 118353 224881,224933,224907
 9.4000e+001 224985  1.2556e+000  2.7596e-001  5.8864e-001 118353 224881,224959,224933
 9.4000e+001 225209 -1.0186e+006 -5.0574e+006 -1.9387e+006 117949 225059,225137,225111
 9.4000e+001 225186 -2.2248e+005 -3.0052e+006  8.1769e+005 117949 225033,225137,225059
 9.4000e+001 225163  9.6551e+005 -1.2659e+007  2.3587e+006 117949 225059,225111,225085
 9.4000e+001 225410  1.5124e+005 -8.4282e+006  3.0883e+005 117559 225260,225338,225312
 9.4000e+001 225387 -3.7492e+006 -9.4080e+006  7.6845e+004 117559 225234,225338,225260
 9.4000e+001 225364 -6.8262e+005 -6.5448e+006 -2.1139e+006 117559 225260,225312,225286
 9.4000e+001 225611 -2.5465e+006 -1.1462e+007 -3.1435e+006 117361 225461,225513,225487
 9.4000e+001 225588 -4.3820e+006 -1.2944e+007  2.9076e+006 117361 225461,225539,225513
 9.4000e+001 225565 -2.8326e+005 -1.6846e+007  5.0754e+005 117361 225435,225539,225461
 9.4000e+001 225812  3.8067e+005 -1.1140e+007  1.8810e+005 116900 225636,225714,225662
 9.4000e+001 225789 -2.7202e+006 -2.6083e+006 -1.3809e+006 116900 225636,225740,225714
 9.4000e+001 225766 -3.7719e+003 -1.1235e+007  2.0759e+005 116900 225662,225714,225688
 9.4000e+001 225964  1.3565e+005 -8.2034e+006  1.3841e+005 116560 225837,225889,225863
 9.4000e+001 225941  4.4937e+005 -7.8864e+006 -5.1048e+004 116560 225837,225915,225889
 9.4000e+001 226165 -2.7480e+001 -7.1569e+001  2.4487e+000 116106 226015,226093,226041
 9.4000e+001 226142 -1.4010e+002 -1.2319e+002 -1.0330e+001 116106 225989,226093,226015
 9.4000e+001 226119 -2.1602e+002 -1.1717e+002 -8.6019e+001 116106 226041,226093,226067
 9.4000e+001 226268 -1.7007e+006 -3.8734e+006  1.6247e+006 115716 226190,226242,226216
 9.4000e+001 226420 -5.7015e+005 -1.4367e+007  2.3211e+006 115376 226293,226345,226319
 9.4000e+001 226397 -1.0736e+006 -1.6222e+007  5.6356e+006 115376 226293,226371,226345
 9.4000e+001 226621 -7.8009e+005 -2.6308e+006  4.6038e+005 114972 226497,226549,226523
 9.4000e+001 226598 -5.9836e+005 -1.4928e+007 -6.1344e+005 114972 226445,226549,226497
 9.4000e+001 226575  6.3902e+005 -6.5228e+006  6.4640e+005 114972 226445,226497,226471
 9.4000e+001 226773 -1.2632e+006 -4.9341e+006 -1.7423e+006 114670 226646,226698,226672
 9.4000e+001 226750  6.5972e+005 -1.0124e+007  1.1119e+006 114670 226646,226724,226698
 9.4000e+001 226974  4.4174e+004 -3.8478e+006  2.9805e+005 114082 226798,226850,226824
 9.4000e+001 226951  1.1085e+005 -3.6051e+006  1.9101e+005 114082 226798,226902,226850
 9.4000e+001 226928 -4.1190e+005 -5.8534e+006  2.8086e+005 114082 226850,226902,226876
 9.4000e+001 227175 -5.8261e+005 -7.5713e+006 -2.7702e+006 113678 226999,227051,227025
 9.4000e+001 227152 -1.2337e+006 -9.8229e+006 -3.2936e+006 113678 226999,227077,227051
 9.4000e+001 227129 -2.6219e+006 -4.6255e+006 -2.6798e+006 113678 226999,227103,227077
 9.4000e+001 227425 -3.8285e+006 -7.1467e+006 -6.8482e+006 113274 227226,227278,227252
 9.4000e+001 227402 -5.6740e+003 -6.8852e+006 -9.3188e+005 113274 227226,227330,227278
 9.4000e+001 227379 -3.2899e+006 -1.9253e+006 -3.9076e+005 113274 227200,227330,227226
 9.4000e+001 227356 -1.0830e+006 -3.6046e+005 -6.2486e+005 113274 227278,227330,227304
 9.4000e+001 227626 -2.0439e+006 -2.7300e+006 -3.0698e+006 112934 227502,227554,227528
 9.4000e+001 227603  5.0858e+005 -2.5735e+006 -5.0380e+005 112934 227450,227554,227502
 9.4000e+001 227580 -2.2002e+006 -5.4795e+005  1.0021e+006 112934 227450,227502,227476
 9.4000e+001 227876 -3.6723e+005 -1.2968e+006 -2.5081e+005 112437 227677,227755,227703
 9.4000e+001 227853 -7.8996e+005 -1.4407e+006  9.3042e+005 112437 227677,227781,227755
 9.4000e+001 227830 -2.5508e+005 -4.6549e+005  2.0909e+005 112437 227703,227755,227729
 9.4000e+001 227807  1.2299e+006 -7.9337e+006 -8.0392e+005 112437 227651,227781,227677
 9.4000e+001 228126 -2.3315e+005 -3.9094e+006 -7.0066e+005 112041 227927,228005,227953
 9.4000e+001 228103 -5.0989e+005 -3.6718e+006 -5.8605e+005 112041 227927,228031,228005
 9.4000e+001 228080  6.6678e+004 -4.9838e+006 -5.1237e+005 112041 227953,228005,227979
 9.4000e+001 228057 -1.1010e+006 -3.0113e+006 -9.9050e+005 112041 227901,228031,227927
 9.4000e+001 228327 -2.9446e+006 -2.8387e+006  8.4057e+004 111693 228151,228203,228177
 9.4000e+001 228304 -1.1459e+006 -2.4912e+006 -1.0284e+006 111693 228151,228229,228203
 9.4000e+001 228281  2.2080e+005 -5.0615e+006  8.6298e+005 111693 228151,228255,228229
 9.4000e+001 228479  4.0725e+002  6.4821e+001  3.7663e+002 111253 228352,228404,228378
 9.4000e+001 228456  2.0477e+002 -3.9784e+002 -1.6720e+002 111253 228352,228430,228404
 9.4000e+001 228582 -5.4133e-272 -1.3834e-271 -9.9517e-272 110906 228504,228556,228530
 9.4000e+001 228783  5.2347e+004 -5.3728e+005 -9.3883e+004 110416 228633,228711,228659
 9.4000e+001 228760 -2.3526e+004 -9.0954e+005 -5.7017e+004 110416 228607,228711,228633
 9.4000e+001 228737  7.3858e+004 -1.2578e+006 -1.0059e+005 110416 228659,228711,228685
 9.4000e+001 228935 -6.2282e+005 -3.3660e+006 -1.8094e+006 110012 228808,228860,228834
 9.4000e+001 228912 -2.2774e+006 -6.7195e+006 -3.1208e+006 110012 228808,228886,228860
 9.4000e+001 229087 -2.8892e+006 -2.3632e+006 -2.1605e+006 109672 228960,229012,228986
 9.4000e+001 229064  4.7644e+005 -6.1580e+006 -1.4217e+006 109672 228960,229038,229012
 9.4000e+001 229190  7.3653e-079 -2.4044e-077  3.6753e-078 109332 229112,229164,229138
 9.4000e+001 229391 -4.8316e+004 -2.3375e+004  1.4752e+004 109156 229267,229319,229293
 9.4000e+001 229368 -5.6890e+004 -1.8620e+005  3.1873e+004 109156 229215,229319,229267
 9.4000e+001 229345 -1.2262e+004 -3.9744e+004  4.7713e+002 109156 229215,229267,229241
 9.4000e+001 229543  7.8472e+005 -7.2350e+006  9.7277e+005 108752 229416,229468,229442
 9.4000e+001 229520 -2.3426e+005 -3.0058e+006 -4.6127e+005 108752 229416,229494,229468
 9.4000e+001 229744 -1.5027e+005 -4.2556e+006 -5.2657e+004 108198 229594,229646,229620
 9.4000e+001 229721  4.6616e+004 -4.2013e+006 -1.2416e+005 108198 229594,229672,229646
 9.4000e+001 229698 -6.8830e+005 -3.9121e+006 -2.4483e+004 108198 229568,229672,229594
 9.4000e+001 229847 -7.5176e+004 -3.2805e+005 -1.4434e+005 107758 229769,229821,229795
 9.4000e+001 230048 -3.8999e+005 -1.2919e+006 -4.2780e+005 107468 229898,229950,229924
 9.4000e+001 230025 -4.4836e+004 -9.1746e+005  1.8399e+005 107468 229872,229950,229898
 9.4000e+001 230002 -8.8029e+004 -4.8273e+005 -2.0645e+005 107468 229872,229976,229950
 9.4000e+001 230298  1.7196e+005 -8.3304e+005  4.8539e+005 107121 230099,230203,230177
 9.4000e+001 230275 -9.9897e+004 -7.3465e+005  2.7551e+005 107121 230073,230203,230099
 9.4000e+001 230252  6.3488e+005 -1.2630e+006 -4.6190e+005 107121 230099,230177,230151
 9.4000e+001 230229 -1.6604e+005 -1.3568e+006 -4.7489e+005 107121 230099,230151,230125
 9.4000e+001 230450 -5.6847e+005 -1.1923e+004  9.6700e+004 106823 230349,230401,230375
 9.4000e+001 230427 -3.2932e+005 -2.7806e+005  9.8714e+004 106823 230323,230401,230349
 9.4000e+001 230602 -5.3290e+006 -4.6251e+006 -7.4381e+006 106533 230501,230553,230527
 9.4000e+001 230579  2.5726e+006 -1.2836e+007  2.6911e+006 106533 230475,230553,230501
 9.4000e+001 230803 -6.3067e+004 -8.9722e+005 -7.9033e+004 106029 230679,230731,230705
 9.4000e+001 230780  2.8320e+004 -5.1693e+005 -5.5437e+004 106029 230653,230731,230679
 9.4000e+001 230757 -2.5197e+003 -1.1155e+006 -1.3753e+005 106029 230627,230731,230653
 9.4000e+001 231004 -1.0252e+005 -2.0316e+006  2.3302e+005 105689 230854,230906,230880
 9.4000e+001 230981 -4.6454e+003 -2.1866e+006  5.6512e+004 105689 230828,230906,230854
 9.4000e+001 230958 -4.5992e+005 -1.2888e+006 -6.5721e+005 105689 230828,230932,230906
 9.4000e+001 231156  1.8327e+005 -5.7022e+006 -1.9759e+005 105377 231055,231107,231081
 9.4000e+001 231133 -5.5523e+005 -3.4217e+006  3.8150e+005 105377 231029,231107,231055
 9.4000e+001 231406 -1.1415e+006 -6.4631e+006 -9.0927e+005 104858 231207,231259,231233
 9.4000e+001 231383 -1.6651e+006 -5.9615e+006 -1.7566e+006 104858 231207,231311,231259
 9.4000e+001 231360 -1.1798e+006 -7.2479e+006 -2.2295e+006 104858 231259,231311,231285
 9.4000e+001 231337 -1.0950e+006 -7.1020e+006 -1.9822e+006 104858 231181,231311,231207
 9.4000e+001 231558 -1.9573e+004 -1.4079e+007 -5.3139e+005 104418 231457,231509,231483
 9.4000e+001 231535 -5.3478e+006 -1.4579e+007 -9.2508e+006 104418 231431,231509,231457
 9.4000e+001 231710 -3.7288e+006 -2.1041e+004  4.5395e+005 103978 231583,231635,231609
 9.4000e+001 231687 -2.4160e+006 -5.5396e+004 -2.9058e+005 103978 231583,231661,231635
 9.4000e+001 231862 -9.2962e+005 -6.3492e+006 -7.9351e+005 103588 231761,231813,231787
 9.4000e+001 231839  2.9931e+005 -1.8607e+006 -1.2850e+005 103588 231735,231813,231761
 9.4000e+001 232014 -1.6779e+006 -6.0198e+006 -2.7527e+006 103248 231887,231939,231913
 9.4000e+001 231991 -3.2215e+006 -9.7054e+006 -5.2252e+006 103248 231887,231965,231939
 9.4000e+001 232215 -1.3264e+003 -7.3003e+002 -4.2439e+002 102844 232039,232117,232065
 9.4000e+001 232192 -1.2840e+003 -1.1862e+000 -2.2337e+002 102844 232039,232143,232117
 9.4000e+001 232169 -2.3619e+002 -6.9819e+002 -4.7481e+002 102844 232065,232117,232091
 9.4000e+001 232416 -3.2866e+006 -6.0163e+006 -3.0409e+006 102554 232240,232318,232292
 9.4000e+001 232393  5.4377e+005 -1.0336e+007 -4.4868e+005 102554 232240,232344,232318
 9.4000e+001 232370 -4.6982e+006 -2.4155e+006 -1.8666e+005 102554 232240,232292,232266
 9.4000e+001 232568 -3.6987e+004 -2.0697e+006  1.5293e+005 102100 232441,232493,232467
 9.4000e+001 232545 -3.3907e+005 -2.1536e+006  1.9764e+005 102100 232441,232519,232493
 9.4000e+001 232769 -1.4937e+005 -1.7126e+006  2.9205e+005 101596 232645,232697,232671
 9.4000e+001 232746  3.7015e+004 -1.0416e+006  1.6719e+005 101596 232593,232697,232645
 9.4000e+001 232723 -1.5658e+005 -1.4251e+006  3.1724e+005 101596 232593,232645,232619
 9.4000e+001 232921 -7.0842e+005 -3.0795e+005  7.4354e+004 101420 232794,232846,232820
 9.4000e+001 232898 -7.5148e+005 -5.2233e+005  8.7835e+004 101420 232794,232872,232846
 9.4000e+001 233073 -6.4830e+005 -1.4268e+006 -2.5655e+005 101023 232946,232998,232972
 9.4000e+001 233050  1.5877e+005 -3.1069e+006  1.2228e+006 101023 232946,233024,232998
 9.4000e+001 233225  8.0370e+002  1.9623e+003  6.2322e+002 100661 233098,233150,233124
 9.4000e+001 233202  1.5055e+003 -5.4919e+003  1.4659e+003 100661 233098,233176,233150
 9.4000e+001 233426 -1.0743e+006 -5.9927e+006 -2.2945e+006 100265 233276,233328,233302
 9.4000e+001 233403 -1.2429e+006 -5.6674e+006 -1.2820e+006 100265 233276,233354,233328
 9.4000e+001 233380 -1.0444e+006 -5.4958e+006 -1.1664e+006 100265 233250,233354,233276
 9.4000e+001 233578 -1.0145e+004 -1.6712e+006  1.3264e+005 100032 233451,233503,233477
 9.4000e+001 233555 -2.3836e+005 -1.7045e+006  2.4484e+005 100032 233451,233529,233503
 9.4000e+001 233681 -3.0660e+006 -2.3199e+005 -8.9779e+004 99742 233603,233655,233629
 9.4000e+001 233784 -3.8459e+005 -8.2853e+005  4.1613e+005 99402 233706,233758,233732
 9.4000e+001 233936 -5.3466e+005 -7.5310e+005  5.4237e+005 99062 233835,233887,233861
 9.4000e+001 233913 -4.9857e+005 -4.7600e+005  3.0582e+003 99062 233809,233887,233835
 9.4000e+001 234088 -5.3142e+001  6.2160e+002  9.1648e+002 98772 233987,234039,234013
 9.4000e+001 234065 -9.8136e+002 -2.7984e+001 -8.9957e+001 98772 233961,234039,233987
 9.4000e+001 234240  1.1296e+002 -1.4125e+002 -5.3862e+001 98160 234139,234191,234165
 9.4000e+001 234217  7.7576e+000 -6.9710e+001  2.3801e+002 98160 234113,234191,234139
 9.4000e+001 234441 -2.7781e+002 -2.1369e+002  7.6970e+001 97820 234317,234369,234343
 9.4000e+001 234418 -2.8471e+002 -2.8531e+002  3.7891e+001 97820 234291,234369,234317
 9.4000e+001 234395 -2.5510e+002  4.2963e+001  9.3012e+001 97820 234265,234369,234291
 9.4000e+001 234593  2.9349e+002 -2.5878e+002 -2.2099e+002 97366 234466,234518,234492
 9.4000e+001 234570  1.9097e+002  1.4867e+002 -1.9989e+002 97366 234466,234544,234518
 9.4000e+001 234794 -4.5353e+005  1.1439e+005  1.7448e+004 96976 234618,234670,234644
 9.4000e+001 234771 -7.3622e+004 -5.4490e+004 -5.7773e+004 96976 234618,234722,234670
 9.4000e+001 234748 -4.5587e+004  2.0573e+004 -3.5790e+004 96976 234670,234722,234696
 9.4000e+001 234946 -8.4246e+005 -2.5130e+005  3.7203e+005 96568 234845,234897,234871
 9.4000e+001 234923 -7.4799e+005 -5.3349e+005  9.0004e+005 96568 234819,234897,234845
 9.4000e+001 235196 -1.1360e+002 -1.9982e+002  7.2161e+001 96216 234997,235075,235049
 9.4000e+001 235173  1.1883e+002  1.6459e+001 -6.3179e+001 96216 234997,235101,235075
 9.4000e+001 235150 -6.8526e+001 -1.1767e+002 -2.3073e+000 96216 234997,235049,235023
 9.4000e+001 235127  5.6968e+001  1.3221e+001 -3.0827e+001 96216 234971,235101,234997
 9.4000e+001 235348 -7.5839e+005 -1.7978e+006 -2.3903e+005 95863 235247,235299,235273
 9.4000e+001 235325 -1.1441e+006 -1.6861e+006 -8.7138e+005 95863 235221,235299,235247
 9.4000e+001 235500  4.7585e+001  3.7464e+002  1.1195e+002 95339 235373,235425,235399
 9.4000e+001 235477  2.8561e+002  3.7934e+002  3.7788e+002 95339 235373,235451,235425
 9.4000e+001 235701 -7.6154e+002  1.8319e+003 -1.3083e+003 95023 235525,235577,235551
 9.4000e+001 235678 -1.1505e+003 -1.2242e+003  1.5317e+003 95023 235525,235629,235577
 9.4000e+001 235655  1.2442e+003  1.4135e+003  2.3245e+001 95023 235577,235629,235603
 9.4000e+001 235853 -1.9204e+005 -1.0987e+007 -7.7457e+005 94671 235726,235778,235752
 9.4000e+001 235830  3.2392e+005 -1.2883e+007  6.4827e+005 94671 235726,235804,235778
 9.4000e+001 236005 -2.6845e+006 -5.0504e+006  1.6186e+006 94261 235904,235956,235930
 9.4000e+001 235982 -1.3522e+006 -1.0362e+007 -3.6678e+006 94261 235878,235956,235904
 9.4000e+001 236206 -2.6010e+006 -4.6671e+005  2.5198e+005 93853 236056,236134,236082
 9.4000e+001 236183 -2.2992e+006 -4.0211e+005  2.5956e+004 93853 236030,236134,236056
 9.4000e+001 236160 -2.1774e+006 -3.1778e+005  4.3914e+005 93853 236082,236134,236108
 9.4000e+001 236407 -1.1956e+006 -2.3288e+006  4.9853e+005 93557 236257,236309,236283
 9.4000e+001 236384 -2.3124e+006 -3.1589e+006 -2.1926e+006 93557 236231,236309,236257
 9.4000e+001 236361  1.5936e+006 -1.6675e+007  2.1384e+006 93557 236231,236335,236309
 9.4000e+001 236559 -9.9666e+001 -1.5307e+002  1.0363e+002 93149 236432,236484,236458
 9.4000e+001 236536 -4.1478e+001  5.7199e+001  4.9707e+001 93149 236432,236510,236484
 9.4000e+001 236711 -1.4605e+004 -3.5521e+004 -6.9329e+003 92853 236584,236636,236610
 9.4000e+001 236688  4.6875e+003 -7.3630e+004 -6.2524e+003 92853 236584,236662,236636
 9.4000e+001 236912 -2.0589e+005 -1.2639e+005  1.1641e+005 92501 236736,236788,236762
 9.4000e+001 236889 -4.6025e+005 -9.4485e+004  1.2361e+005 92501 236736,236840,236788
 9.4000e+001 236866 -8.3206e+005 -7.4294e+005  7.5548e+005 92501 236788,236840,236814
 9.4000e+001 237113 -4.2040e+004 -2.3214e+006 -2.0822e+004 92291 236963,237041,237015
 9.4000e+001 237090  1.5344e+005 -1.4935e+006  5.5460e+004 92291 236937,237041,236963
 9.4000e+001 237067 -1.2364e+005 -2.0735e+006  4.4676e+005 92291 236963,237015,236989
 9.4000e+001 237265 -5.0908e+004 -1.5074e+003  7.9777e+003 91871 237138,237190,237164
 9.4000e+001 237242 -4.7082e+004 -3.2174e+003  1.2498e+004 91871 237138,237216,237190
 9.4000e+001 237368 -5.4512e+005 -1.1689e+006 -1.2813e+005 91581 237290,237342,237316
 9.4000e+001 237520 -7.2455e+003 -5.0467e+004  1.3712e+004 91184 237419,237471,237445
 9.4000e+001 237497 -1.0700e+003 -8.6236e+004 -1.8491e+004 91184 237393,237471,237419
 9.4000e+001 237672  3.0049e+003  4.2093e+002  2.4982e+003 90894 237545,237597,237571
 9.4000e+001 237649  1.9428e+003  2.4225e+003  1.5325e+003 90894 237545,237623,237597
 9.4000e+001 237873 -2.8076e+005 -8.5501e+005  4.5091e+005 90490 237749,237801,237775
 9.4000e+001 237850 -1.9053e+005 -1.9480e+006  5.9825e+005 90490 237723,237801,237749
 9.4000e+001 237827 -7.9846e+005 -2.1042e+006  9.0638e+005 90490 237697,237801,237723
 9.4000e+001 238074 -3.1797e+005 -2.8898e+006 -2.3330e+005 90100 237898,237976,237950
 9.4000e+001 238051 -1.5401e+006 -3.0501e+006 -3.3215e+005 90100 237898,238002,237976
 9.4000e+001 238028 -6.9275e+005 -8.1436e+005  1.0254e+005 90100 237898,237950,237924
 9.4000e+001 238275  5.7562e+001  2.6565e+002 -5.0502e+001 89696 238125,238177,238151
 9.4000e+001 238252 -1.1337e+002  1.8829e+002 -2.1341e+002 89696 238099,238177,238125
 9.4000e+001 238229  1.6506e+003 -1.4521e+003 -1.1860e+003 89696 238099,238203,238177
 9.4000e+001 238427 -1.5584e+005 -3.5612e+004  1.0952e+004 89206 238326,238378,238352
 9.4000e+001 238404 -4.8925e+005 -1.0325e+005 -2.1389e+005 89206 238300,238378,238326
 9.4000e+001 238579 -1.1936e+004 -2.0943e+003  6.3715e+003 88908 238452,238504,238478
 9.4000e+001 238556 -1.7113e+004 -5.4525e+003  1.1087e+004 88908 238452,238530,238504
 9.4000e+001 238682  5.0676e+002 -2.3196e+002  1.4826e+002 88568 238604,238656,238630
 9.4000e+001 238883 -1.1800e+006 -2.3043e+006  1.4876e+006 88278 238733,238811,238785
 9.4000e+001 238860 -7.3501e+005 -2.7091e+006  1.6737e+006 88278 238707,238811,238733
 9.4000e+001 238837 -7.9585e+004 -2.5270e+006  4.4850e+005 88278 238733,238785,238759
 9.4000e+001 239035 -1.8852e+006 -1.7071e+006 -7.3770e+005 87988 238908,238960,238934
 9.4000e+001 239012 -1.9423e+006 -7.1032e+005 -4.3673e+005 87988 238908,238986,238960
 9.4000e+001 239138 -6.1123e+002  3.2832e+002  8.8161e+001 87648 239060,239112,239086
 9.4000e+001 239339 -4.6446e+006 -2.0388e+006 -2.3923e+006 87358 239163,239215,239189
 9.4000e+001 239316 -4.6492e+006 -1.8577e+005  1.9561e+004 87358 239163,239241,239215
 9.4000e+001 239293 -1.8304e+006 -6.3787e+005 -4.3666e+005 87358 239163,239267,239241
 9.4000e+001 239589  1.0915e+002 -9.4559e+003  1.0564e+003 86961 239390,239468,239416
 9.4000e+001 239566 -1.1373e+003 -7.5912e+003  4.5706e+003 86961 239390,239494,239468
 9.4000e+001 239543 -1.9422e+002 -1.9377e+003  6.1200e+002 86961 239416,239468,239442
 9.4000e+001 239520 -3.9338e+003 -6.6497e+003  4.0035e+003 86961 239364,239494,239390
 9.4000e+001 239741 -1.0868e+006 -7.1722e+005  1.6497e+005 86621 239640,239692,239666
 9.4000e+001 239718 -7.1914e+005 -2.1075e+006 -8.0404e+005 86621 239614,239692,239640
 9.4000e+001 239893 -3.9810e+005 -1.4498e+006  6.6330e+005 86217 239792,239844,239818
 9.4000e+001 239870 -3.2139e+005 -3.2760e+006  1.3261e+006 86217 239766,239844,239792
 9.4000e+001 240045 -9.1435e+005 -2.4801e+006  9.5020e+005 85827 239918,239970,239944
 9.4000e+001 240022 -3.9584e+005 -2.3190e+006  1.3016e+005 85827 239918,239996,239970
 9.4000e+001 240197 -7.6135e+005 -3.6069e+006  9.7823e+005 85437 240096,240148,240122
 9.4000e+001 240174 -9.4177e+005 -6.8509e+005  5.4968e+005 85437 240070,240148,240096
 9.4000e+001 240349 -1.6508e+000  3.7365e+001 -9.7042e+001 85147 240222,240274,240248
 9.4000e+001 240326  7.1461e+001 -4.3148e+001 -2.7060e+000 85147 240222,240300,240274
 9.4000e+001 240501 -4.0873e+003  5.8531e+002 -3.0949e+003 84807 240374,240426,240400
 9.4000e+001 240478 -5.0842e+002  1.0399e+003 -3.1597e+003 84807 240374,240452,240426
 9.4000e+001 240653  7.4513e+002 -2.4649e+002  1.0730e+002 84303 240552,240604,240578
 9.4000e+001 240630  8.6775e+002 -3.8850e+001  2.6267e+002 84303 240526,240604,240552
 9.4000e+001 240854 -1.6950e+006 -7.4146e+006 -4.1734e+006 83929 240704,240756,240730
 9.4000e+001 240831  1.2274e+006 -5.2003e+006  2.4844e+006 83929 240704,240782,240756
 9.4000e+001 240808 -2.9864e+006  2.7289e+006  2.4776e+006 83929 240678,240782,240704
 9.4000e+001 241055  2.3564e+002 -6.6997e+003 -1.4789e+003 83539 240879,240957,240931
 9.4000e+001 241032 -7.2762e+002 -8.5215e+003  1.0936e+003 83539 240879,240983,240957
 9.4000e+001 241009 -2.0168e+003 -1.8925e+003 -1.3564e+003 83539 240879,240931,240905
 9.4000e+001 241207  1.2173e+002 -2.1067e+002 -1.1541e+002 83079 241106,241158,241132
 9.4000e+001 241184  2.5380e+002 -3.4924e+001 -2.7079e+001 83079 241080,241158,241106
 9.4000e+001 241408 -5.8058e+005 -4.7594e+005 -8.0950e+005 82665 241232,241284,241258
 9.4000e+001 241385 -5.6580e+004  2.6955e+006 -2.5074e+006 82665 241232,241336,241284
 9.4000e+001 241362 -2.5391e+006 -1.1746e+007  4.2932e+006 82665 241284,241336,241310
 9.4000e+001 241658 -3.5183e+005 -3.4380e+006  3.4513e+005 82375 241485,241563,241511
 9.4000e+001 241635 -8.8371e+004 -2.2452e+006  3.5173e+005 82375 241433,241563,241485
 9.4000e+001 241612 -1.5744e+005 -2.5635e+006  3.2684e+005 82375 241433,241485,241459
 9.4000e+001 241589 -5.4896e+005 -4.0557e+006  5.7078e+005 82375 241511,241563,241537
 9.4000e+001 241810 -4.4457e+005 -3.2410e+005 -2.1874e+005 82035 241683,241735,241709
 9.4000e+001 241787 -1.5001e+005 -3.4970e+005 -1.2527e+005 82035 241683,241761,241735
 9.4000e+001 241962 -9.6598e+005 -1.3473e+006  5.2237e+005 81695 241861,241913,241887
 9.4000e+001 241939 -6.3384e+005 -1.9627e+006 -6.2054e+005 81695 241835,241913,241861
 9.4000e+001 242114 -7.9087e+005 -3.5651e+006  1.3838e+006 81355 242013,242065,242039
 9.4000e+001 242091 -1.5847e+005 -1.7026e+006  5.4261e+005 81355 241987,242065,242013
 9.4000e+001 242266  2.7042e+001  6.5338e+001  1.1112e+002 80951 242139,242191,242165
 9.4000e+001 242243  6.2742e+001  2.2272e+002 -1.0157e+002 80951 242139,242217,242191
 9.4000e+001 242467 -3.8480e+005 -4.5060e+006  6.4331e+005 80311 242291,242369,242343
 9.4000e+001 242444  1.6423e+005 -2.3510e+006  4.5207e+005 80311 242291,242395,242369
 9.4000e+001 242421 -2.1672e+005 -1.1257e+006  2.4611e+005 80311 242291,242343,242317
 9.4000e+001 242619 -1.6891e+006 -2.2433e+006  4.2767e+005 80021 242492,242544,242518
 9.4000e+001 242596 -1.6851e+006 -2.2133e+006  1.6969e+006 80021 242492,242570,242544
 9.4000e+001 242869 -7.4275e+001  2.0177e+001  4.3637e+000 79631 242644,242722,242696
 9.4000e+001 242846  4.7886e+000 -1.5731e+002  3.7648e+001 79631 242644,242774,242722
 9.4000e+001 242823  5.7650e+001  1.9281e+002  1.1848e+002 79631 242722,242774,242748
 9.4000e+001 242800 -1.0680e+002 -1.9753e+002  1.5354e+002 79631 242644,242696,242670
 9.4000e+001 243070  7.0038e+005 -1.5143e+007  3.8308e+006 79341 242920,242972,242946
 9.4000e+001 243047 -7.0988e+005 -5.9298e+006 -1.0371e+006 79341 242920,242998,242972
 9.4000e+001 243024 -6.2344e+005 -3.0467e+006  1.3784e+006 79341 242894,242998,242920
 9.4000e+001 243222 -3.4474e+005 -2.2227e+006  1.0113e+006 78801 243121,243173,243147
 9.4000e+001 243199 -2.6817e+005 -2.0784e+006  8.3094e+005 78801 243095,243173,243121
 9.4000e+001 243423  1.1358e+005 -2.2497e+006 -5.1239e+005 78511 243273,243325,243299
 9.4000e+001 243400  1.1302e+005 -2.1141e+006 -5.8609e+005 78511 243273,243351,243325
 9.4000e+001 243377 -5.5580e+002 -2.1158e+006  3.6997e+004 78511 243247,243351,243273
 9.4000e+001 243624 -2.7749e+005 -2.5568e+006 -9.8803e+005 78107 243474,243552,243526
 9.4000e+001 243601 -3.2661e+005 -2.8824e+006 -9.6980e+005 78107 243448,243552,243474
 9.4000e+001 243578 -2.0366e+005 -1.6525e+006 -1.8024e+005 78107 243474,243526,243500
 9.4000e+001 243776 -5.7896e+005 -2.9570e+006 -8.5355e+005 77653 243649,243701,243675
 9.4000e+001 243753 -7.6286e+005 -2.0475e+006 -3.2150e+005 77653 243649,243727,243701
 9.4000e+001 243977 -4.7265e+005 -5.7828e+006  7.0973e+004 77093 243801,243853,243827
 9.4000e+001 243954 -7.9355e+004 -4.5013e+006  7.7342e+005 77093 243801,243879,243853
 9.4000e+001 243931 -3.5151e+005 -1.5873e+006 -1.3605e+005 77093 243801,243905,243879
 9.4000e+001 244080 -4.4399e+005 -5.0380e+006  3.7614e+005 76791 244002,244054,244028
 9.4000e+001 244232 -1.4047e+005 -2.4560e+006 -3.6834e+005 76311 244131,244183,244157
 9.4000e+001 244209 -6.3249e+004 -9.6819e+005 -4.0584e+005 76311 244105,244183,244131
 9.4000e+001 244433  3.8932e+005 -1.6433e+007  5.1691e+006 75903 244283,244335,244309
 9.4000e+001 244410 -1.0184e+006 -8.8848e+006 -8.0260e+005 75903 244283,244361,244335
 9.4000e+001 244387 -1.3857e+006 -7.0288e+006  4.6054e+005 75903 244257,244361,244283
 9.4000e+001 244585  3.4724e+005 -1.5997e+007  1.9194e+006 75419 244458,244510,244484
 9.4000e+001 244562 -9.7658e+005 -6.6163e+006 -3.9105e+005 75419 244458,244536,244510
 9.4000e+001 244737 -3.8172e+005 -5.1135e+005 -1.7440e+005 75215 244636,244688,244662
 9.4000e+001 244714 -2.9149e+005 -2.3136e+006 -1.6633e+005 75215 244610,244688,244636
 9.4000e+001 244889 -1.0304e+006 -3.9998e+006 -7.2534e+005 74857 244788,244840,244814
 9.4000e+001 244866 -3.9109e+005 -1.7070e+006 -2.8581e+005 74857 244762,244840,244788
 9.4000e+001 245041 -7.1320e+005 -2.7379e+006 -1.3211e+006 74653 244940,244992,244966
 9.4000e+001 245018 -6.6158e+005 -9.1668e+005  1.0093e+006 74653 244914,244992,244940
 9.4000e+001 245144 -6.5804e+005 -3.7521e+006 -8.6513e+005 74359 245066,245118,245092
 9.4000e+001 245296 -1.1316e+004 -2.2764e+005 -8.2645e+004 74007 245169,245221,245195
 9.4000e+001 245273 -7.1380e+004 -4.0035e+005 -1.2417e+005 74007 245169,245247,245221
 9.4000e+001 245448 -2.8306e+006 -4.2906e+006 -1.0777e+006 73711 245321,245373,245347
 9.4000e+001 245425 -2.5778e+006 -4.2333e+006 -8.4682e+005 73711 245321,245399,245373
 9.4000e+001 245600  1.7425e+006 -1.4382e+007 -2.3924e+006 73301 245499,245551,245525
 9.4000e+001 245577 -1.8974e+006 -7.9388e+006  2.3662e+006 73301 245473,245551,245499
 9.4000e+001 245752 -2.8009e+006 -4.3194e+006 -2.6503e+006 72995 245625,245677,245651
 9.4000e+001 245729  6.6562e+005 -1.5167e+007 -2.0696e+006 72995 245625,245703,245677
 9.4000e+001 245953 -1.4837e+006 -1.2258e+007  5.7447e+005 72585 245777,245829,245803
 9.4000e+001 245930 -6.1967e+005 -1.4146e+007  2.2809e+006 72585 245777,245855,245829
 9.4000e+001 245907 -9.9192e+005 -7.8421e+006  1.9038e+005 72585 245777,245881,245855
 9.4000e+001 246154 -6.4215e+005 -7.3685e+006  1.5772e+006 72127 246030,246082,246056
 9.4000e+001 246131 -1.1677e+006 -7.6750e+006  5.5679e+005 72127 245978,246082,246030
 9.4000e+001 246108 -2.0823e+005 -1.1308e+007  5.0061e+005 72127 245978,246030,246004
 9.4000e+001 246257 -1.2181e+006 -1.9664e+005 -1.7698e+005 71737 246179,246231,246205
 9.4000e+001 246360  2.3931e+004 -2.6897e+006  5.1437e+005 71447 246282,246334,246308
 9.4000e+001 246512 -2.5018e+005 -1.7101e+006  9.2545e+005 71157 246385,246437,246411
 9.4000e+001 246489 -6.4864e+004 -1.1658e+006 -4.0619e+004 71157 246385,246463,246437
 9.4000e+001 246664 -1.6076e+005 -2.2046e+006 -7.1972e+005 70753 246537,246589,246563
 9.4000e+001 246641 -8.0953e+005 -5.8855e+005 -4.4203e+005 70753 246537,246615,246589
 9.4000e+001 246865 -1.6921e+006 -8.2939e+006  4.2306e+006 70249 246715,246767,246741
 9.4000e+001 246842 -2.8368e+006 -8.1299e+006 -4.2095e+005 70249 246715,246793,246767
 9.4000e+001 246819 -6.4108e+004 -1.4336e+007 -3.8470e+006 70249 246689,246793,246715
 9.4000e+001 247066  5.0728e+004 -1.6218e+006  9.5580e+004 70023 246916,246994,246942
 9.4000e+001 247043 -2.3101e+005 -9.4154e+005  3.7218e+005 70023 246890,246994,246916
 9.4000e+001 247020  9.6973e+004 -1.6714e+006  3.2292e+005 70023 246942,246994,246968
 9.4000e+001 247267 -4.1084e+005 -3.6205e+006 -8.7913e+005 69633 247091,247143,247117
 9.4000e+001 247244 -1.7823e+005 -2.8780e+006 -7.1974e+005 69633 247091,247169,247143
 9.4000e+001 247221 -2.0366e+005 -2.2172e+006 -5.6953e+005 69633 247091,247195,247169
 9.4000e+001 247419 -1.2488e+006 -4.1336e+006  3.9256e+005 69457 247318,247370,247344
 9.4000e+001 247396 -1.2218e+006 -1.6287e+006  7.2493e+005 69457 247292,247370,247318
 9.4000e+001 247522 -4.1845e+001 -6.0592e+001  1.3217e+002 69209 247444,247496,247470
 9.4000e+001 247625 -8.1353e+005 -8.9443e+005 -6.7643e+005 68919 247547,247599,247573
 9.4000e+001 247777  9.1103e+004 -3.0284e+006 -1.3182e+005 68579 247650,247702,247676
 9.4000e+001 247754  4.5786e+004 -6.9453e+005 -1.6790e+005 68579 247650,247728,247702
 9.4000e+001 247929 -3.2493e+005 -3.9078e+006  2.9310e+005 68289 247802,247854,247828
 9.4000e+001 247906 -8.5376e+005 -2.3885e+006 -1.0880e+006 68289 247802,247880,247854
 9.4000e+001 248081 -1.8768e+005 -2.0197e+006  6.6248e+005 67949 247980,248032,248006
 9.4000e+001 248058 -2.5035e+005 -2.9833e+005  4.4374e+004 67949 247954,248032,247980
 9.4000e+001 248233 -1.3246e+006 -5.0020e+006 -7.8142e+005 67616 248132,248184,248158
 9.4000e+001 248210 -7.8115e+005 -3.8482e+006 -3.0357e+005 67616 248106,248184,248132
 9.4000e+001 248434 -5.9756e+004 -1.9883e+006 -1.2742e+005 67212 248284,248336,248310
 9.4000e+001 248411 -1.8939e+005 -1.9936e+006 -4.4042e+004 67212 248258,248336,248284
 9.4000e+001 248388 -7.0384e+005 -7.3930e+005 -3.3923e+005 67212 248258,248362,248336
 9.4000e+001 248586 -2.3928e+005 -2.7908e+006 -1.8273e+005 66872 248485,248537,248511
 9.4000e+001 248563 -2.4173e+005 -1.1370e+006 -3.2199e+005 66872 248459,248537,248485
 9.4000e+001 248738 -4.8627e+005 -5.0347e+006  2.1140e+005 66510 248637,248689,248663
 9.4000e+001 248715 -6.3519e+005 -4.5549e+006  5.4166e+004 66510 248611,248689,248637
 9.4000e+001 248890 -2.5942e+004 -6.9589e+005  1.3369e+005 66220 248789,248841,248815
 9.4000e+001 248867 -4.1713e+004 -9.1149e+005 -3.0517e+005 66220 248763,248841,248789
 9.4000e+001 249091 -1.1640e+006 -7.5417e+006  1.6252e+006 65759 248915,248967,248941
 9.4000e+001 249068 -9.9685e+005 -4.7832e+006  2.0152e+006 65759 248915,248993,248967
 9.4000e+001 249045 -4.3803e+005 -3.5254e+006  3.4784e+005 65759 248915,249019,248993
 9.4000e+001 249243 -1.0768e+005 -6.5209e+006  1.4177e+006 65419 249142,249194,249168
 9.4000e+001 249220  1.8414e+005 -1.0989e+006  2.7579e+005 65419 249116,249194,249142
 9.4000e+001 249395 -2.0216e+005 -2.8596e+006 -7.4538e+005 65079 249268,249320,249294
 9.4000e+001 249372 -3.6378e+005 -3.2909e+006 -6.2058e+005 65079 249268,249346,249320
 9.4000e+001 249547 -1.7065e+006 -7.3898e+006  1.7593e+006 64739 249420,249472,249446
 9.4000e+001 249524 -8.1010e+005 -5.3099e+006 -2.5382e+006 64739 249420,249498,249472
 9.4000e+001 249650 -1.2131e+006 -4.0707e+006 -1.8927e+006 64342 249572,249624,249598
 9.4000e+001 249851 -4.3499e+004 -3.2459e+006 -2.6138e+005 63938 249701,249779,249753
 9.4000e+001 249828 -2.5821e+005 -3.3904e+006  2.8542e+005 63938 249675,249779,249701
 9.4000e+001 249805 -3.6492e+005 -9.0782e+005 -2.1435e+005 63938 249701,249753,249727
 9.4000e+001 250052 -2.8367e+005 -1.9579e+006 -9.2753e+005 63341 249876,249954,249902
 9.4000e+001 250029 -9.6598e+005 -2.2555e+006 -2.2998e+005 63341 249876,249980,249954
 9.4000e+001 250006  3.8670e+004 -3.7167e+006  5.2848e+005 63341 249902,249954,249928
 9.4000e+001 250253 -7.7517e+005 -4.8077e+005 -7.6520e+004 63058 250077,250129,250103
 9.4000e+001 250230 -2.5706e+006 -2.8217e+006  1.3844e+006 63058 250077,250155,250129
 9.4000e+001 250207 -4.5012e+005 -1.8233e+006  3.9975e+005 63058 250077,250181,250155
 9.4000e+001 250454 -4.9653e+005 -4.8605e+006  3.5861e+005 62832 250304,250382,250330
 9.4000e+001 250431 -3.4467e+004 -5.9035e+006 -1.6392e+006 62832 250278,250382,250304
 9.4000e+001 250408 -9.8688e+005 -3.7592e+006 -1.7864e+004 62832 250330,250382,250356
 9.4000e+001 250606 -1.2695e+006 -2.9532e+006 -1.2645e+006 62428 250479,250531,250505
 9.4000e+001 250583 -2.7350e+005 -9.2103e+006 -1.6980e+006 62428 250479,250557,250531
 9.4000e+001 250758 -2.4079e+005 -6.1923e+006  8.4931e+005 62202 250631,250683,250657
 9.4000e+001 250735 -6.5692e+005 -5.3760e+006 -4.7652e+005 62202 250631,250709,250683
 9.4000e+001 250861 -4.3095e+005 -1.1845e+006 -1.6770e+005 61954 250783,250835,250809
 9.4000e+001 251062 -3.0255e+006 -2.7495e+006  5.2687e+005 61557 250912,250990,250938
 9.4000e+001 251039  2.5627e+005 -9.6194e+006 -3.1551e+006 61557 250886,250990,250912
 9.4000e+001 251016 -2.9868e+006 -4.3590e+006 -3.9139e+006 61557 250938,250990,250964
 9.4000e+001 251263 -5.4887e+005 -4.5738e+006 -5.2501e+004 61167 251113,251165,251139
 9.4000e+001 251240 -9.0287e+005 -3.7420e+006 -1.5028e+004 61167 251113,251191,251165
 9.4000e+001 251217 -1.2754e+006 -3.8346e+006 -2.2078e+004 61167 251087,251191,251113
 9.4000e+001 251415 -7.2351e+005 -2.5193e+006  1.2195e+006 60827 251288,251340,251314
 9.4000e+001 251392 -1.8579e+005 -9.3160e+005 -1.3279e+005 60827 251288,251366,251340
 9.4000e+001 251567 -1.2197e+005 -2.3367e+006  1.4693e+004 60487 251466,251518,251492
 9.4000e+001 251544 -3.4133e+005 -1.9399e+006 -5.2964e+005 60487 251440,251518,251466
 9.4000e+001 251719  1.3387e+005 -5.1973e+006  1.0664e+005 59983 251592,251644,251618
 9.4000e+001 251696 -1.0422e+005 -2.9294e+006 -8.1054e+004 59983 251592,251670,251644
 9.4000e+001 251920 -1.0712e+005 -1.1943e+006 -6.9187e+004 59807 251770,251848,251796
 9.4000e+001 251897 -5.4384e+004 -8.1505e+005 -9.2696e+004 59807 251744,251848,251770
 9.4000e+001 251874 -8.5504e+004 -9.5438e+005  1.9214e+004 59807 251796,251848,251822
 9.4000e+001 252023  4.7779e+005 -3.6428e+006 -2.8367e+005 59517 251945,251997,251971
 9.4000e+001 252175  9.9052e+005 -8.3955e+006 -1.3137e+005 59269 252074,252126,252100
 9.4000e+001 252152 -1.8538e+004 -5.9179e+006  1.6300e+004 59269 252048,252126,252074
 9.4000e+001 252278 -8.9352e+005 -3.6633e+006  4.6329e+005 58979 252200,252252,252226
 9.4000e+001 252381 -2.5330e+006 -1.4328e+006  1.0704e+006 58689 252303,252355,252329
 9.4000e+001 252533 -8.0880e+005 -3.2489e+006 -7.1634e+005 58249 252432,252484,252458
 9.4000e+001 252510 -7.6787e+005 -3.5277e+006 -1.0405e+006 58249 252406,252484,252432
 9.4000e+001 252734  1.9298e+005 -2.3494e+006 -2.7669e+005 57902 252584,252662,252610
 9.4000e+001 252711  5.1604e+004 -1.9808e+006 -1.1046e+005 57902 252558,252662,252584
 9.4000e+001 252688  4.0068e+005 -2.0548e+006  1.3862e+005 57902 252610,252662,252636
 9.4000e+001 252886  2.3987e+005 -5.3996e+006 -3.5435e+005 57540 252785,252837,252811
 9.4000e+001 252863  8.0475e+004 -3.3741e+006  2.0112e+005 57540 252759,252837,252785
 9.4000e+001 253038 -9.2075e+005 -5.8588e+006  1.6448e+006 57086 252937,252989,252963
 9.4000e+001 253015 -2.9001e+005 -8.7532e+005  3.4067e+005 57086 252911,252989,252937
 9.4000e+001 253239 -6.6209e+005 -4.5697e+006 -4.7151e+005 56796 253063,253141,253115
 9.4000e+001 253216 -2.3996e+005 -4.5243e+006 -3.2160e+005 56796 253063,253167,253141
 9.4000e+001 253193 -5.3592e+006 -4.1919e+005  4.5359e+005 56796 253063,253115,253089
 9.4000e+001 253342 -6.4252e+005 -1.0887e+007 -1.4785e+005 56349 253264,253316,253290
 9.4000e+001 253543 -2.0928e+005 -3.1273e+006 -1.2254e+006 56009 253367,253419,253393
 9.4000e+001 253520 -5.1730e+005 -1.3780e+006 -6.1280e+005 56009 253367,253445,253419
 9.4000e+001 253497 -4.0093e+005 -1.3156e+006 -6.5968e+005 56009 253367,253471,253445
 9.4000e+001 253695 -2.2918e+005 -8.2591e+005  4.1717e+005 55733 253594,253646,253620
 9.4000e+001 253672 -5.2284e+005 -3.0379e+005  3.8622e+005 55733 253568,253646,253594
 9.4000e+001 253798 -9.0139e+005 -1.1786e+006 -2.5707e+005 55557 253720,253772,253746
 9.4000e+001 253950 -5.9299e+005 -2.4041e+006 -2.4707e+003 55153 253849,253901,253875
 9.4000e+001 253927 -3.1881e+005 -2.8622e+006 -5.2307e+005 55153 253823,253901,253849
 9.4000e+001 254151 -1.0727e+006 -3.2269e+006  2.6710e+005 54863 253975,254053,254001
 9.4000e+001 254128 -1.0512e+006 -2.9222e+006  2.9544e+005 54863 253975,254079,254053
 9.4000e+001 254105 -1.1784e+006 -5.3036e+006  1.2372e+006 54863 254001,254053,254027
 9.4000e+001 254303 -2.1476e+005 -4.2683e+005  2.8897e+005 54373 254176,254228,254202
 9.4000e+001 254280 -3.2014e+005 -5.2583e+005  3.5402e+005 54373 254176,254254,254228
 9.4000e+001 254455 -1.2512e+005 -4.0146e+006 -4.2223e+005 53975 254354,254406,254380
 9.4000e+001 254432 -2.9637e+005 -8.7197e+005  1.1826e+005 53975 254328,254406,254354
 9.4000e+001 254607 -1.3935e+005 -4.9187e+006  4.6255e+004 53585 254480,254532,254506
 9.4000e+001 254584 -4.4213e+005 -3.9574e+006 -1.6695e+004 53585 254480,254558,254532
 9.4000e+001 254808 -5.7714e+005 -3.5901e+006  2.2499e+005 53245 254658,254736,254684
 9.4000e+001 254785 -8.9409e+005 -7.1616e+005 -5.1303e+005 53245 254632,254736,254658
 9.4000e+001 254762 -2.8570e+005 -1.1181e+006  5.3480e+005 53245 254684,254736,254710
 9.4000e+001 254911 -1.5864e+005 -1.5461e+006 -3.2852e+005 52955 254833,254885,254859
 9.4000e+001 255063 -4.4640e+005 -6.5827e+006  8.5337e+004 52551 254962,255014,254988
 9.4000e+001 255040 -6.4736e+005 -6.7090e+006 -6.6566e+003 52551 254936,255014,254962
 9.4000e+001 255264 -1.0363e+006 -9.9820e+005 -5.9131e+005 52261 255114,255166,255140
 9.4000e+001 255241 -1.1364e+006 -2.1073e+006 -1.9634e+005 52261 255114,255192,255166
 9.4000e+001 255218 -4.7355e+006 -1.2136e+006  5.5309e+005 52261 255088,255192,255114
 9.4000e+001 255416 -1.0122e+006 -5.3789e+006  2.1465e+006 51971 255289,255341,255315
 9.4000e+001 255393 -3.1310e+005 -4.6436e+006 -5.2956e+005 51971 255289,255367,255341
 9.4000e+001 255568  1.1394e+005 -1.4158e+006 -4.9127e+005 51681 255441,255493,255467
 9.4000e+001 255545 -1.1573e+005 -1.1249e+006 -4.9648e+005 51681 255441,255519,255493
 9.4000e+001 255769 -2.6535e+005 -2.5212e+006  1.0970e+005 51291 255619,255697,255671
 9.4000e+001 255746 -2.4501e+005 -2.1716e+006 -2.3008e+005 51291 255593,255697,255619
 9.4000e+001 255723 -3.2145e+005 -5.9470e+006 -7.1924e+005 51291 255619,255671,255645
 9.4000e+001 255921 -6.7067e+005 -2.7843e+006  8.6577e+005 50951 255820,255872,255846
 9.4000e+001 255898 -1.5855e+005 -1.0876e+006  2.7147e+004 50951 255794,255872,255820
 9.4000e+001 256171 -5.8333e+005 -5.5784e+006  9.5617e+005 50547 256024,256076,256050
 9.4000e+001 256148 -8.0827e+005 -4.0463e+006  2.0630e+005 50547 255972,256076,256024
 9.4000e+001 256125 -2.7883e+005 -3.5077e+006  6.0452e+005 50547 255946,256076,255972
 9.4000e+001 256102 -7.8829e+005 -5.2790e+006  6.0262e+005 50547 255972,256024,255998
 9.4000e+001 256323  1.1300e+005 -3.9325e+006  3.8317e+005 50093 256196,256248,256222
 9.4000e+001 256300 -9.8720e+005 -2.4939e+006 -7.6524e+005 50093 256196,256274,256248
 9.4000e+001 256426  8.0372e+001 -9.2878e+000  3.9735e+001 49845 256348,256400,256374
 9.4000e+001 256627  1.1239e+005 -5.9380e+006  8.8219e+004 49555 256477,256555,256503
 9.4000e+001 256604  1.9096e+004 -2.7084e+006  2.6013e+005 49555 256451,256555,256477
 9.4000e+001 256581 -3.5514e+005 -5.1732e+006  3.6005e+005 49555 256503,256555,256529
 9.4000e+001 256828 -4.1311e+005 -2.3860e+006 -4.2300e+005 49056 256652,256730,256678
 9.4000e+001 256805 -7.1753e+005 -2.0950e+006 -2.3030e+005 49056 256652,256756,256730
 9.4000e+001 256782 -3.3422e+005 -3.6994e+006  5.3386e+005 49056 256678,256730,256704
 9.4000e+001 256931 -4.3874e+004 -1.4444e+005  2.5870e+004 48766 256853,256905,256879
 9.4000e+001 257083 -1.7124e+006 -5.2661e+006 -7.6427e+005 48568 256982,257034,257008
 9.4000e+001 257060 -6.5656e+005 -1.0547e+006 -3.5778e+005 48568 256956,257034,256982
 9.4000e+001 257186 -6.1172e+002 -4.3400e+006  3.4837e+002 48228 257108,257160,257134
 9.4000e+001 257338 -1.1206e+006 -4.5082e+005  2.5383e+005 47888 257237,257289,257263
 9.4000e+001 257315 -4.2166e+005 -3.2258e+006  1.5828e+006 47888 257211,257289,257237
 9.4000e+001 257539 -4.4085e+005 -3.1879e+006  1.1957e+005 47548 257363,257441,257415
 9.4000e+001 257516 -7.1571e+005 -2.9496e+006 -3.2909e+005 47548 257363,257467,257441
 9.4000e+001 257493 -8.2734e+005 -2.2563e+006 -6.8713e+004 47548 257363,257415,257389
 9.4000e+001 257740  5.2652e+004 -5.8358e+006  5.9310e+005 46994 257564,257642,257616
 9.4000e+001 257717 -4.6565e+005 -3.7234e+006 -2.1126e+005 46994 257564,257668,257642
 9.4000e+001 257694 -9.4799e+005 -5.8684e+006 -2.3194e+005 46994 257564,257616,257590
 9.4000e+001 257843 -3.0833e+005 -8.6921e+005 -1.6976e+005 46654 257765,257817,257791
 9.4000e+001 257995 -5.5715e+005 -2.7214e+006  3.5776e+005 46364 257894,257946,257920
 9.4000e+001 257972 -6.9788e+005 -2.7543e+006  3.2541e+005 46364 257868,257946,257894
 9.4000e+001 258147 -2.9843e+004 -3.3887e+006  1.1904e+005 46024 258046,258098,258072
 9.4000e+001 258124 -4.2562e+005 -2.2935e+006  4.7202e+005 46024 258020,258098,258046
 9.4000e+001 258250 -5.3144e+005 -7.6807e+005  4.7612e+005 45741 258172,258224,258198
 9.4000e+001 258402 -8.4942e+005 -2.7322e+006  5.3994e+005 45401 258301,258353,258327
 9.4000e+001 258379 -3.1717e+005 -2.6470e+006  7.6511e+005 45401 258275,258353,258301
 9.4000e+001 258603 -6.5552e+005 -1.7445e+006  3.4089e+004 45071 258427,258505,258479
 9.4000e+001 258580 -2.8834e+005 -3.9992e+006  2.7373e+005 45071 258427,258531,258505
 9.4000e+001 258557 -3.1799e+005 -2.5233e+006  1.8233e+005 45071 258427,258479,258453
 9.4000e+001 258755 -1.8265e+005 -4.2468e+006 -3.4842e+005 44681 258654,258706,258680
 9.4000e+001 258732 -4.1763e+005 -2.8899e+006 -3.6711e+005 44681 258628,258706,258654
 9.4000e+001 258907 -2.4160e+005 -3.1363e+006 -1.9638e+005 44157 258806,258858,258832
 9.4000e+001 258884 -6.6207e+005 -2.4980e+006 -1.4430e+005 44157 258780,258858,258806
 9.4000e+001 259010 -5.7366e+005 -2.1241e+006 -3.7795e+004 43705 258932,258984,258958
 9.4000e+001 259113 -6.6292e+005 -1.8934e+006 -2.9302e+004 43284 259035,259087,259061
 9.4000e+001 259216 -3.7240e+005 -4.4977e+006 -1.5535e+005 42954 259138,259190,259164
 9.4000e+001 259319 -5.9994e+005 -1.3657e+006 -4.8966e+004 42116 259241,259293,259267
 9.4000e+001 259422 -5.3046e+005 -6.2932e+006  8.7943e+005 41804 259344,259396,259370
 9.4000e+001 259525 -6.7829e+005 -6.7797e+006  1.1095e+006 41219 259447,259499,259473
 9.4000e+001 259628 -4.7488e+005 -2.9709e+006 -6.4064e+005 385 259550,259602,259576
 9.6000e+001 190120 -1.0489e+005 -3.1273e+006 -4.0702e+005 189630 189993,190045,190019
 9.6000e+001 190097 -7.5999e+005 -2.4810e+006 -2.6297e+005 189630 189993,190071,190045
 9.6000e+001 190319 -1.4343e+006 -4.0619e+006 -2.5394e+005 189312 190169,190221,190195
 9.6000e+001 190296 -6.8738e+005 -3.3124e+006 -9.1307e+005 189312 190169,190247,190221
 9.6000e+001 190273 -8.9438e+005 -2.6762e+006  2.8785e+005 189312 190143,190247,190169
 9.6000e+001 190518 -4.2495e+005 -5.1618e+005 -1.2161e+005 189124 190368,190446,190420
 9.6000e+001 190495 -6.0377e+005 -2.3094e+005  9.6416e+004 189124 190342,190446,190368
 9.6000e+001 190472 -7.8715e+005 -5.8442e+005 -1.8029e+005 189124 190368,190420,190394
 9.6000e+001 190619 -4.5611e+005 -3.9678e+005 -1.3967e+004 188926 190541,190593,190567
 9.6000e+001 190771 -5.1003e+005 -6.7615e+005 -4.1349e+004 188614 190670,190722,190696
 9.6000e+001 190748 -4.6955e+005 -1.2401e+005  1.2036e+005 188614 190644,190722,190670
 9.6000e+001 190972 -5.7407e+005 -4.3470e+005 -2.4098e+005 188324 190848,190900,190874
 9.6000e+001 190949 -5.8490e+005 -1.1320e+006 -6.3763e+005 188324 190796,190900,190848
 9.6000e+001 190926  4.2167e+004 -2.8262e+005 -2.0141e+005 188324 190796,190848,190822
 9.6000e+001 191124 -5.6331e+005 -1.6127e+006 -1.6891e+005 188034 191023,191075,191049
 9.6000e+001 191101 -2.6854e+005 -1.6510e+006 -1.6627e+005 188034 190997,191075,191023
 9.6000e+001 191276 -2.1825e+005 -6.6794e+005 -2.4489e+004 187836 191149,191201,191175
 9.6000e+001 191253 -2.2772e+005 -3.8437e+005  1.3200e+005 187836 191149,191227,191201
 9.6000e+001 191379 -4.5961e+005 -3.3345e+005 -9.9313e+004 187546 191301,191353,191327
 9.6000e+001 191531 -2.4189e+005 -3.1332e+006  2.6311e+005 187256 191430,191482,191456
 9.6000e+001 191508 -1.2161e+006 -4.6256e+006 -1.5114e+006 187256 191404,191482,191430
 9.6000e+001 191634 -7.6346e+005 -1.9323e+005  1.1758e+005 187058 191556,191608,191582
 9.6000e+001 191835 -5.9221e+005 -2.2763e+005  5.9938e+004 186860 191659,191711,191685
 9.6000e+001 191812 -3.9265e+005 -8.9947e+005 -4.3267e+004 186860 191659,191737,191711
 9.6000e+001 191789 -4.0417e+005 -7.3859e+005  8.4956e+004 186860 191659,191763,191737
 9.6000e+001 191987 -5.7593e+005 -6.6360e+004  8.0324e+004 186662 191886,191938,191912
 9.6000e+001 191964 -3.2192e+005 -8.0649e+004  7.7972e+004 186662 191860,191938,191886
 9.6000e+001 192090 -6.7225e+005 -3.9922e+005  8.2914e+004 186486 192012,192064,192038
 9.6000e+001 192242 -1.2834e+005 -6.6807e+006 -3.3101e+005 186288 192115,192167,192141
 9.6000e+001 192219 -8.0237e+005 -3.9342e+006  9.3713e+004 186288 192115,192193,192167
 9.6000e+001 192394 -4.0007e+003 -5.3040e+006 -3.0166e+005 185935 192293,192345,192319
 9.6000e+001 192371 -4.9985e+005 -3.7145e+006 -6.7197e+005 185935 192267,192345,192293
 9.6000e+001 192546 -4.2073e+005 -3.5010e+006 -5.1474e+005 185675 192419,192471,192445
 9.6000e+001 192523 -9.4355e+005 -1.6232e+006 -5.4195e+005 185675 192419,192497,192471
 9.6000e+001 192649 -7.7758e+005 -1.1757e+006  1.3595e+005 185499 192571,192623,192597
 9.6000e+001 192801 -2.6640e+005 -1.5649e+006  3.3610e+005 185301 192674,192726,192700
 9.6000e+001 192778 -3.3178e+005 -1.4970e+006  1.1859e+005 185301 192674,192752,192726
 9.6000e+001 193002 -8.1424e+004 -5.3791e+005 -3.7187e+005 185046 192852,192930,192878
 9.6000e+001 192979 -3.4280e+005 -1.4098e+006 -1.8391e+005 185046 192826,192930,192852
 9.6000e+001 192956  4.0958e+005 -1.7995e+006 -2.4041e+004 185046 192878,192930,192904
 9.6000e+001 193203  2.7790e+005 -4.4886e+006 -7.2164e+005 184798 193079,193131,193105
 9.6000e+001 193180 -1.0275e+006 -2.8541e+006 -7.2275e+004 184798 193027,193131,193079
 9.6000e+001 193157 -1.7437e+006 -3.0370e+006 -1.0013e+004 184798 193027,193079,193053
 9.6000e+001 193404 -1.3144e+005 -4.4980e+006 -9.2280e+005 184600 193254,193306,193280
 9.6000e+001 193381 -3.5723e+005 -2.1789e+006 -1.6914e+005 184600 193254,193332,193306
 9.6000e+001 193358 -9.4379e+005 -5.9292e+005 -4.7166e+005 184600 193228,193332,193254
 9.6000e+001 193556 -2.5412e+005 -1.2736e+006 -4.9708e+005 184402 193429,193481,193455
 9.6000e+001 193533 -8.6606e+005 -8.2431e+005 -8.3266e+005 184402 193429,193507,193481
 9.6000e+001 193708 -1.8775e+005 -1.5400e+006  1.5110e+004 184204 193607,193659,193633
 9.6000e+001 193685 -6.0268e+005 -5.2836e+006 -1.0263e+006 184204 193581,193659,193607
 9.6000e+001 193860 -5.9868e+005 -1.1199e+006  6.2755e+005 183908 193759,193811,193785
 9.6000e+001 193837  5.8108e+004 -2.1217e+006  6.8561e+005 183908 193733,193811,193759
 9.6000e+001 194061 -6.1284e+005 -2.8416e+004  6.9327e+004 183710 193911,193989,193937
 9.6000e+001 194038 -4.4671e+005 -4.8532e+003 -1.6259e+005 183710 193885,193989,193911
 9.6000e+001 194015 -4.6111e+005 -6.5655e+003 -1.6468e+002 183710 193937,193989,193963
 9.6000e+001 194262 -7.3716e+005 -2.4032e+006 -5.1393e+005 183420 194086,194164,194112
 9.6000e+001 194239 -6.2851e+005 -1.8142e+006 -2.7400e+005 183420 194086,194190,194164
 9.6000e+001 194216  3.6401e+005 -6.4731e+006  1.4189e+006 183420 194112,194164,194138
 9.6000e+001 194414 -6.8404e+005 -5.3868e+006 -2.2390e+004 183222 194287,194339,194313
 9.6000e+001 194391 -4.2401e+005 -1.1877e+006 -2.1323e+005 183222 194287,194365,194339
 9.6000e+001 194517 -8.0013e+005 -9.3953e+005  1.0759e+005 183024 194439,194491,194465
 9.6000e+001 194718  1.4484e+006 -1.2879e+007  1.5163e+006 182734 194568,194620,194594
 9.6000e+001 194695 -1.1583e+006 -3.3299e+006 -2.6124e+006 182734 194542,194620,194568
 9.6000e+001 194672 -2.8973e+006 -1.9556e+006 -1.3004e+006 182734 194542,194646,194620
 9.6000e+001 194870 -3.8214e+005 -1.0271e+006  2.4387e+005 182444 194769,194821,194795
 9.6000e+001 194847 -4.1706e+005 -1.9550e+006  8.7218e+005 182444 194743,194821,194769
 9.6000e+001 195071 -4.6408e+005 -1.8032e+006  1.1031e+006 182154 194895,194947,194921
 9.6000e+001 195048 -6.1425e+005 -6.6840e+005  8.8408e+004 182154 194895,194999,194947
 9.6000e+001 195025 -4.0558e+005 -1.9232e+005  2.5190e+005 182154 194947,194999,194973
 9.6000e+001 195223 -2.4341e+005 -2.9260e+005 -4.8442e+004 181814 195096,195148,195122
 9.6000e+001 195200 -4.9200e+005 -1.7302e+006 -9.7721e+005 181814 195096,195174,195148
 9.6000e+001 195375 -3.0986e+004 -5.0039e+004 -2.8259e+004 181524 195248,195300,195274
 9.6000e+001 195352  1.7170e+004 -2.4656e+005 -3.5155e+003 181524 195248,195326,195300
 9.6000e+001 195527 -1.7850e+005 -1.4052e+006 -6.6450e+005 181326 195426,195478,195452
 9.6000e+001 195504 -7.0756e+005 -5.7464e+005 -4.0096e+005 181326 195400,195478,195426
 9.6000e+001 195679  4.9574e+004 -8.3931e+006 -2.9897e+005 180936 195578,195630,195604
 9.6000e+001 195656 -5.5734e+005 -3.3133e+006 -1.8015e+005 180936 195552,195630,195578
 9.6000e+001 195831 -6.0187e+005 -5.7631e+005 -3.1268e+005 180646 195704,195756,195730
 9.6000e+001 195808 -6.6109e+005 -1.7295e+005 -7.1781e+004 180646 195704,195782,195756
 9.6000e+001 196032 -3.1082e+005 -2.0903e+006  3.7285e+005 180306 195882,195960,195934
 9.6000e+001 196009 -4.1609e+005 -8.9554e+005 -3.2058e+005 180306 195856,195960,195882
 9.6000e+001 195986  2.2480e+004 -2.2517e+006  1.6298e+005 180306 195882,195934,195908
 9.6000e+001 196233 -2.6835e+005 -2.7985e+005 -7.0868e+005 179944 196057,196109,196083
 9.6000e+001 196210 -9.4563e+005 -3.4555e+006  4.3174e+005 179944 196057,196135,196109
 9.6000e+001 196187 -1.8701e+006  3.6011e+006 -1.2713e+006 179944 196057,196161,196135
 9.6000e+001 196385 -5.4535e+005 -4.4118e+005 -1.6638e+005 179604 196258,196310,196284
 9.6000e+001 196362 -1.0511e+006 -1.2628e+006 -1.2182e+006 179604 196258,196336,196310
 9.6000e+001 196586 -7.3700e+005 -4.9646e+005 -5.8100e+005 179114 196410,196488,196436
 9.6000e+001 196563 -4.1013e+005 -2.1419e+006 -5.9448e+005 179114 196410,196514,196488
 9.6000e+001 196540 -4.4643e+003 -4.5593e+005 -4.6097e+004 179114 196436,196488,196462
 9.6000e+001 196738 -7.1285e+005 -1.5927e+006 -6.8975e+005 178674 196611,196663,196637
 9.6000e+001 196715 -1.0734e+004 -3.6122e+006 -1.5013e+005 178674 196611,196689,196663
 9.6000e+001 196939  1.2331e+006 -8.4831e+006 -8.6047e+005 178334 196789,196867,196841
 9.6000e+001 196916 -3.4991e+005 -8.8804e+006 -8.9987e+005 178334 196763,196867,196789
 9.6000e+001 196893 -1.3311e+006 -6.1128e+006 -2.8527e+006 178334 196789,196841,196815
 9.6000e+001 197091 -1.2594e+006 -3.1379e+006 -9.2580e+005 177930 196990,197042,197016
 9.6000e+001 197068 -1.8062e+006 -5.2857e+006 -7.9800e+005 177930 196964,197042,196990
 9.6000e+001 197194 -1.2662e+002 -3.1013e+001  5.9598e+001 177732 197116,197168,197142
 9.6000e+001 197346 -4.2044e+005 -5.4228e+006  2.2243e+005 177534 197219,197271,197245
 9.6000e+001 197323 -1.7476e+005 -5.8891e+006  4.6163e+005 177534 197219,197297,197271
 9.6000e+001 197547 -1.0895e+006 -6.7112e+006 -2.6188e+006 177130 197397,197449,197423
 9.6000e+001 197524 -2.5261e+006 -7.5963e+006 -1.5989e+006 177130 197397,197475,197449
 9.6000e+001 197501 -1.2555e+006 -1.2164e+007 -2.2816e+006 177130 197371,197475,197397
 9.6000e+001 197748 -6.6383e+005 -5.3338e+006  4.1111e+005 176790 197598,197676,197624
 9.6000e+001 197725 -4.2153e+005 -3.9920e+006  6.4951e+005 176790 197572,197676,197598
 9.6000e+001 197702 -5.7251e+005 -4.5264e+006  4.3783e+005 176790 197624,197676,197650
 9.6000e+001 197900 -2.9765e+005 -2.9483e+006 -5.2834e+005 176300 197773,197825,197799
 9.6000e+001 197877 -6.8870e+004 -4.3100e+006 -4.1226e+005 176300 197773,197851,197825
 9.6000e+001 198052 -1.3746e+006 -3.6040e+006 -1.1374e+006 176010 197925,197977,197951
 9.6000e+001 198029 -4.7208e+005 -7.0165e+006 -2.0971e+006 176010 197925,198003,197977
 9.6000e+001 198204 -1.1549e+006 -6.3587e+006 -2.7328e+006 175670 198103,198155,198129
 9.6000e+001 198181 -1.7319e+006 -4.5761e+006 -4.9164e+005 175670 198077,198155,198103
 9.6000e+001 198405 -4.6129e+005 -3.2048e+006 -5.2342e+005 175266 198255,198307,198281
 9.6000e+001 198382 -1.7389e+005 -5.3913e+006 -2.3853e+006 175266 198229,198307,198255
 9.6000e+001 198359 -1.3341e+006 -5.2577e+006 -2.4742e+006 175266 198229,198333,198307
 9.6000e+001 198606 -3.0756e+003 -1.5126e+005  1.9675e+004 174876 198430,198508,198482
 9.6000e+001 198583 -7.0488e+004 -1.6446e+005 -1.1522e+004 174876 198430,198534,198508
 9.6000e+001 198560 -2.5406e+004 -8.3801e+004 -1.0219e+002 174876 198430,198482,198456
 9.6000e+001 198758 -5.2714e+004 -6.4529e+004 -5.6687e+004 174536 198657,198709,198683
 9.6000e+001 198735 -5.4756e+004 -7.2795e+004 -6.4071e+004 174536 198631,198709,198657
 9.6000e+001 199008 -9.9388e+005 -4.6551e+006 -7.6590e+004 174132 198835,198913,198887
 9.6000e+001 198985 -4.6278e+005 -1.7526e+006  3.8696e+005 174132 198809,198913,198835
 9.6000e+001 198962 -6.2382e+005 -2.0498e+006 -1.3336e+006 174132 198783,198913,198809
 9.6000e+001 198939 -4.4400e+005 -4.9253e+006 -1.7828e+004 174132 198835,198887,198861
 9.6000e+001 199160 -1.1574e+006 -2.6156e+006 -7.0785e+005 173842 199059,199111,199085
 9.6000e+001 199137 -2.7243e+005 -9.2318e+005  3.5425e+004 173842 199033,199111,199059
 9.6000e+001 199361 -5.3639e+005 -4.1883e+006  9.8301e+005 173438 199237,199289,199263
 9.6000e+001 199338 -3.2393e+005 -4.3040e+006  1.0393e+006 173438 199211,199289,199237
 9.6000e+001 199315 -1.9485e+004 -6.3094e+006 -6.6154e+005 173438 199185,199289,199211
 9.6000e+001 199513 -1.0474e+006 -5.6753e+006 -4.2132e+004 173190 199386,199438,199412
 9.6000e+001 199490 -2.3846e+006 -5.6782e+006 -5.6731e+003 173190 199386,199464,199438
 9.6000e+001 199665 -4.3553e+005 -1.4209e+006  2.3436e+005 172750 199564,199616,199590
 9.6000e+001 199642 -8.2481e+005 -7.9599e+005 -1.5630e+004 172750 199538,199616,199564
 9.6000e+001 199817 -1.6886e+005 -3.1400e+006 -1.0352e+006 172524 199690,199742,199716
 9.6000e+001 199794 -1.2630e+006 -1.0252e+006 -6.6420e+005 172524 199690,199768,199742
 9.6000e+001 199969 -6.3029e+003 -5.4942e+006 -1.8943e+005 172348 199842,199894,199868
 9.6000e+001 199946  2.4302e+005 -5.4551e+006  7.2033e+004 172348 199842,199920,199894
 9.6000e+001 200121  1.3670e+005 -2.5918e+006 -3.9793e+005 172008 199994,200046,200020
 9.6000e+001 200098 -1.3931e+005 -1.1338e+006  1.0485e+003 172008 199994,200072,200046
 9.6000e+001 200273 -2.2609e+006 -3.8127e+006 -2.2115e+006 171668 200172,200224,200198
 9.6000e+001 200250 -1.2799e+006 -3.9607e+006 -5.7347e+005 171668 200146,200224,200172
 9.6000e+001 200474  1.3168e+005 -4.1676e+006 -8.1239e+005 171264 200350,200402,200376
 9.6000e+001 200451 -2.7625e+005 -4.4032e+006 -1.0011e+006 171264 200324,200402,200350
 9.6000e+001 200428 -2.8993e+005 -2.8418e+006  9.0745e+005 171264 200298,200402,200324
 9.6000e+001 200626 -9.0715e+005 -4.6039e+006 -7.0428e+005 170832 200525,200577,200551
 9.6000e+001 200603 -2.9595e+005 -2.4184e+006 -1.7215e+005 170832 200499,200577,200525
 9.6000e+001 200827 -6.1840e+004 -2.2901e+006  4.5520e+005 170492 200677,200729,200703
 9.6000e+001 200804 -1.8501e+006 -8.0527e+005 -7.5366e+005 170492 200651,200729,200677
 9.6000e+001 200781 -1.4150e+006 -1.4599e+006 -1.0685e+006 170492 200651,200755,200729
 9.6000e+001 201077 -6.1307e+005 -2.6925e+006 -1.8518e+005 170088 200878,200956,200904
 9.6000e+001 201054 -4.4392e+005 -1.3444e+006 -2.1555e+005 170088 200852,200956,200878
 9.6000e+001 201031 -7.2448e+005 -1.3327e+006  2.0073e+006 170088 200904,200956,200930
 9.6000e+001 201008  1.6931e+005 -1.9029e+006  1.7073e+005 170088 200852,200982,200956
 9.6000e+001 201278  3.4831e+004 -1.7378e+006  2.9088e+005 169798 201102,201154,201128
 9.6000e+001 201255  3.3945e+004 -1.6781e+006  1.6679e+005 169798 201102,201206,201154
 9.6000e+001 201232 -2.1579e+005 -8.7259e+005  2.8007e+005 169798 201154,201206,201180
 9.6000e+001 201430 -9.1129e+005 -4.0872e+006 -1.3897e+006 169337 201303,201355,201329
 9.6000e+001 201407 -9.5222e+005 -1.2802e+006 -1.7148e+004 169337 201303,201381,201355
 9.6000e+001 201631 -1.9024e+005 -3.1770e+006  4.7480e+005 168883 201481,201559,201507
 9.6000e+001 201608 -5.2972e+005 -2.5327e+006  8.5071e+005 168883 201455,201559,201481
 9.6000e+001 201585 -1.4372e+005 -1.9518e+006  5.5266e+005 168883 201507,201559,201533
 9.6000e+001 201832  3.2734e+005 -6.0414e+006  3.9431e+005 168479 201682,201734,201708
 9.6000e+001 201809 -2.1156e+006 -4.3645e+006 -1.0891e+006 168479 201656,201734,201682
 9.6000e+001 201786 -1.8412e+006 -3.2901e+006  3.7143e+004 168479 201656,201760,201734
 9.6000e+001 202033 -3.2742e+005 -2.2248e+006  3.1196e+004 167825 201883,201935,201909
 9.6000e+001 202010 -1.7861e+006 -3.4951e+006 -2.2661e+006 167825 201857,201935,201883
 9.6000e+001 201987 -3.3277e+005 -9.4741e+006 -1.4451e+006 167825 201857,201961,201935
 9.6000e+001 202234 -1.2466e+005 -1.0053e+006 -2.0818e+005 167435 202058,202136,202084
 9.6000e+001 202211 -2.7527e+005 -1.8590e+006  6.7457e+005 167435 202058,202162,202136
 9.6000e+001 202188 -7.3712e+004 -6.3596e+005  8.2250e+004 167435 202084,202136,202110
 9.6000e+001 202386  6.6540e+004 -2.1904e+006  3.1513e+005 167002 202285,202337,202311
 9.6000e+001 202363 -3.7028e+005 -5.5305e+005  3.3642e+005 167002 202259,202337,202285
 9.6000e+001 202538 -1.3645e+006 -3.3456e+006 -1.9819e+006 166662 202411,202463,202437
 9.6000e+001 202515 -1.0314e+006 -2.8012e+006 -2.2278e+006 166662 202411,202489,202463
 9.6000e+001 202690 -9.9447e+004 -1.7779e+006  1.4833e+005 166322 202589,202641,202615
 9.6000e+001 202667  3.0489e+005 -2.3202e+006 -4.6237e+005 166322 202563,202641,202589
 9.6000e+001 202891 -4.3390e+004 -8.9487e+005 -6.4383e+001 165918 202715,202767,202741
 9.6000e+001 202868 -1.4464e+005 -1.4217e+006 -2.2554e+005 165918 202715,202793,202767
 9.6000e+001 202845 -9.7227e+005 -1.0816e+006 -2.7849e+005 165918 202715,202819,202793
 9.6000e+001 203092 -7.6405e+005 -1.1730e+006 -6.4215e+005 165628 202916,202968,202942
 9.6000e+001 203069  9.6613e+003 -2.3875e+006 -7.7705e+005 165628 202916,202994,202968
 9.6000e+001 203046 -1.9967e+005 -4.0672e+006  7.1086e+005 165628 202916,203020,202994
 9.6000e+001 203293 -3.1970e+006 -1.7470e+006 -2.3141e+006 165266 203143,203195,203169
 9.6000e+001 203270 -1.2555e+006 -4.5990e+006 -5.2570e+005 165266 203143,203221,203195
 9.6000e+001 203247 -8.5505e+005 -4.8748e+006 -8.5149e+005 165266 203117,203221,203143
 9.6000e+001 203445 -2.7855e+005 -1.5268e+006  5.1820e+005 164826 203318,203370,203344
 9.6000e+001 203422 -1.1295e+005 -9.9556e+005 -1.0385e+005 164826 203318,203396,203370
 9.6000e+001 203597 -1.0827e+006 -4.6895e+005 -8.0758e+004 164386 203470,203522,203496
 9.6000e+001 203574 -1.5395e+006 -2.2049e+006 -2.3718e+005 164386 203470,203548,203522
 9.6000e+001 203798 -4.1514e+005  5.1626e+003  2.7305e+004 163996 203622,203674,203648
 9.6000e+001 203775 -8.9542e+005 -1.7531e+004  1.8367e+005 163996 203622,203726,203674
 9.6000e+001 203752 -8.5339e+005 -3.5303e+003 -5.5120e+004 163996 203674,203726,203700
 9.6000e+001 203901 -3.4289e+005 -6.9853e+005  1.3603e+005 163770 203823,203875,203849
 9.6000e+001 204053 -1.7196e+006 -2.9397e+006 -1.2554e+006 163474 203952,204004,203978
 9.6000e+001 204030 -1.3112e+006 -2.6543e+006 -9.0619e+005 163474 203926,204004,203952
 9.6000e+001 204205  1.9117e+005 -9.4533e+005 -4.3166e+005 163034 204104,204156,204130
 9.6000e+001 204182 -3.5349e+005 -1.5354e+006 -1.0243e+006 163034 204078,204156,204104
 9.6000e+001 204357 -5.0013e+004 -6.1358e+003  1.7619e+004 162624 204256,204308,204282
 9.6000e+001 204334 -5.0041e+004 -6.2091e+003  1.7605e+004 162624 204230,204308,204256
 9.6000e+001 204509 -7.5632e+005 -1.3494e+005  2.9255e+005 162200 204382,204434,204408
 9.6000e+001 204486 -6.1664e+005 -4.2270e+005  6.2765e+005 162200 204382,204460,204434
 9.6000e+001 204710 -1.7571e+006 -3.5633e+005  3.0470e+005 161810 204560,204638,204586
 9.6000e+001 204687 -1.1662e+006 -1.2920e+006 -9.7774e+005 161810 204534,204638,204560
 9.6000e+001 204664 -1.5767e+006 -2.6186e+005  5.1264e+005 161810 204586,204638,204612
 9.6000e+001 204862 -6.6310e+005 -6.7867e+005 -1.9817e+005 161406 204735,204787,204761
 9.6000e+001 204839 -2.9169e+004 -1.3994e+006 -1.6400e+003 161406 204735,204813,204787
 9.6000e+001 205014  8.6529e+002 -1.2177e+004  2.5855e+003 161180 204887,204939,204913
 9.6000e+001 204991 -1.5528e+003 -5.9361e+003 -1.6387e+003 161180 204887,204965,204939
 9.6000e+001 205215 -4.6811e+005 -1.6561e+006 -1.8060e+006 160726 205039,205091,205065
 9.6000e+001 205192 -6.3304e+005 -2.4565e+006 -1.3821e+006 160726 205039,205143,205091
 9.6000e+001 205169 -1.4595e+006 -4.0345e+006 -1.9994e+006 160726 205091,205143,205117
 9.6000e+001 205416 -3.8465e+002  4.5141e+002 -7.7267e+001 160272 205292,205344,205318
 9.6000e+001 205393 -1.9950e+002  1.2850e+002  5.7835e+001 160272 205240,205344,205292
 9.6000e+001 205370 -1.4021e+002  3.2561e+002  3.3949e+000 160272 205240,205292,205266
 9.6000e+001 205568 -9.6974e+002 -1.8473e+004 -1.0582e+003 159932 205441,205493,205467
 9.6000e+001 205545  3.3219e+003 -9.1039e+003 -5.5523e+003 159932 205441,205519,205493
 9.6000e+001 205720  1.2876e+002 -3.7102e+001  7.9194e+000 159542 205593,205645,205619
 9.6000e+001 205697  1.0284e+002 -8.2628e+001 -7.7166e+001 159542 205593,205671,205645
 9.6000e+001 205872 -6.9644e+002 -1.1885e+004  2.9229e+003 159252 205745,205797,205771
 9.6000e+001 205849 -4.0676e+003 -1.7939e+004 -3.7275e+003 159252 205745,205823,205797
 9.6000e+001 206024 -1.5807e+005 -1.1805e+006  2.7134e+005 159004 205923,205975,205949
 9.6000e+001 206001 -1.0831e+005 -1.8675e+006  4.1370e+005 159004 205897,205975,205923
 9.6000e+001 206127 -4.1701e+006 -3.5170e+006  3.6223e+003 158364 206049,206101,206075
 9.6000e+001 206328 -6.4171e+005 -4.5073e+004  3.4706e+005 157960 206178,206256,206204
 9.6000e+001 206305 -2.3043e+005 -1.8463e+005  1.6631e+005 157960 206152,206256,206178
 9.6000e+001 206282 -6.0245e+005 -2.2937e+005  3.5922e+005 157960 206204,206256,206230
 9.6000e+001 206529 -1.4645e+006 -3.5050e+006  9.9349e+005 157648 206405,206457,206431
 9.6000e+001 206506 -2.3458e+006 -9.7174e+005  8.4776e+005 157648 206379,206457,206405
 9.6000e+001 206483 -2.4182e+006 -7.0047e+005  1.1905e+006 157648 206353,206457,206379
 9.6000e+001 206730 -4.5714e+004 -5.9455e+005  2.4059e+005 157208 206554,206606,206580
 9.6000e+001 206707 -1.6163e+005 -4.5722e+005  2.6436e+005 157208 206554,206632,206606
 9.6000e+001 206684 -2.6456e+005 -5.5092e+005 -1.8146e+005 157208 206554,206658,206632
 9.6000e+001 206882 -7.9793e+002 -4.9249e+003 -8.4525e+002 157010 206755,206807,206781
 9.6000e+001 206859 -5.5958e+002 -1.1955e+004  3.4422e+003 157010 206755,206833,206807
 9.6000e+001 207034 -3.2925e+004  1.2984e+005 -2.1064e+004 156620 206907,206959,206933
 9.6000e+001 207011  2.3269e+004 -5.5398e+005  1.4439e+004 156620 206907,206985,206959
 9.6000e+001 207186 -2.5392e+005 -1.6042e+006 -2.2062e+005 156330 207085,207137,207111
 9.6000e+001 207163 -6.1404e+005 -1.8040e+006 -1.4997e+006 156330 207059,207137,207085
 9.6000e+001 207387 -9.2156e+004 -8.7120e+005 -2.1363e+005 155890 207211,207289,207237
 9.6000e+001 207364 -1.1425e+006 -1.1596e+006 -7.0874e+005 155890 207211,207315,207289
 9.6000e+001 207341 -2.7377e+005 -5.5386e+005 -2.8270e+004 155890 207237,207289,207263
 9.6000e+001 207588 -7.8353e+005 -1.8563e+007  7.3684e+006 155436 207438,207490,207464
 9.6000e+001 207565 -1.3354e+006 -1.2678e+007 -8.9353e+005 155436 207412,207490,207438
 9.6000e+001 207542 -2.6496e+006 -5.7619e+006 -1.0393e+006 155436 207412,207516,207490
 9.6000e+001 207789  1.6191e+006 -2.7028e+007 -1.8795e+006 155260 207639,207691,207665
 9.6000e+001 207766 -3.5989e+006 -7.9518e+006  4.1462e+006 155260 207613,207691,207639
 9.6000e+001 207743 -1.4908e+006 -5.7625e+006 -7.0184e+004 155260 207613,207717,207691
 9.6000e+001 207990 -5.3895e+003 -1.4381e+004  4.5476e+003 154920 207840,207918,207892
 9.6000e+001 207967 -3.2992e+003 -1.5661e+004 -1.6220e+004 154920 207814,207918,207840
 9.6000e+001 207944  1.3979e+004 -3.1556e+004  9.3954e+003 154920 207840,207892,207866
 9.6000e+001 208191 -3.6253e+004 -8.8398e+005  9.5633e+004 154630 208015,208093,208041
 9.6000e+001 208168 -1.8229e+003 -8.9252e+005  4.9407e+004 154630 208015,208119,208093
 9.6000e+001 208145 -1.3619e+005 -2.4908e+005 -1.8443e+005 154630 208041,208093,208067
 9.6000e+001 208343 -8.1281e+002 -1.4301e+004 -3.8622e+003 154240 208216,208268,208242
 9.6000e+001 208320  5.2066e+002 -9.2035e+003 -3.2759e+003 154240 208216,208294,208268
 9.6000e+001 208495  4.5001e+005 -3.0581e+006 -5.3697e+005 153950 208394,208446,208420
 9.6000e+001 208472 -2.0037e+005 -5.3407e+005  2.2414e+005 153950 208368,208446,208394
 9.6000e+001 208647 -5.3000e+005 -3.5073e+005  8.3527e+005 153603 208520,208572,208546
 9.6000e+001 208624 -6.1490e+005 -7.7046e+005 -5.7139e+005 153603 208520,208598,208572
 9.6000e+001 208848 -1.1070e+006 -4.8455e+005  2.8068e+005 153149 208698,208776,208724
 9.6000e+001 208825 -2.1528e+006 -4.6022e+005  1.6757e+005 153149 208672,208776,208698
 9.6000e+001 208802 -7.0488e+005 -4.6863e+005  5.0563e+005 153149 208724,208776,208750
 9.6000e+001 209000 -7.9278e+004 -1.1653e+006 -7.0974e+004 152859 208873,208925,208899
 9.6000e+001 208977 -4.1042e+005 -9.6427e+005  3.5995e+003 152859 208873,208951,208925
 9.6000e+001 209152  4.9922e+004 -1.4367e+006 -7.9008e+004 152569 209051,209103,209077
 9.6000e+001 209129 -1.4480e+005 -8.5984e+005  2.1935e+005 152569 209025,209103,209051
 9.6000e+001 209304 -3.0531e+003 -1.2599e+004 -3.5144e+003 152065 209177,209229,209203
 9.6000e+001 209281  3.0249e+003 -3.3919e+004 -4.8279e+003 152065 209177,209255,209229
 9.6000e+001 209456 -2.1777e+006 -1.2981e+006 -5.4530e+005 151775 209355,209407,209381
 9.6000e+001 209433 -1.0558e+006 -1.5238e+006  1.1053e+005 151775 209329,209407,209355
 9.6000e+001 209608 -1.1677e+006 -2.3504e+006 -1.0297e+006 151371 209481,209533,209507
 9.6000e+001 209585  5.2952e+005 -4.7347e+006 -5.1464e+005 151371 209481,209559,209533
 9.6000e+001 209760 -4.2812e+005 -6.9944e+004 -1.4498e+005 150981 209659,209711,209685
 9.6000e+001 209737 -8.3799e+005 -2.6100e+005 -3.2568e+005 150981 209633,209711,209659
 9.6000e+001 209912  2.0705e+006 -2.8030e+007 -2.5102e+006 150619 209811,209863,209837
 9.6000e+001 209889 -2.6251e+006 -1.1461e+007  3.1826e+006 150619 209785,209863,209811
 9.6000e+001 210064 -4.5894e+005 -1.1066e+006 -6.4166e+004 150279 209937,209989,209963
 9.6000e+001 210041 -2.8676e+005 -2.6985e+005 -2.0351e+005 150279 209937,210015,209989
 9.6000e+001 210265 -2.6456e+006 -3.5964e+006 -4.1378e+005 149989 210115,210167,210141
 9.6000e+001 210242 -1.9340e+006 -5.0449e+006 -2.0610e+006 149989 210115,210193,210167
 9.6000e+001 210219 -6.3068e+005 -3.6382e+006 -1.1239e+006 149989 210089,210193,210115
 9.6000e+001 210417 -1.3339e+005 -8.5787e+005 -2.9140e+005 149599 210316,210368,210342
 9.6000e+001 210394 -5.6059e+004 -2.5178e+005 -1.3516e+004 149599 210290,210368,210316
 9.6000e+001 210618 -3.3530e+006 -1.2609e+007  3.9042e+006 149095 210468,210520,210494
 9.6000e+001 210595 -2.9141e+006 -1.2395e+007  2.8377e+006 149095 210442,210520,210468
 9.6000e+001 210572 -1.3815e+006 -1.3580e+007  2.3797e+006 149095 210442,210546,210520
 9.6000e+001 210819 -1.3749e+002 -3.4408e+001 -2.8062e+001 148748 210695,210747,210721
 9.6000e+001 210796 -6.5473e+001  1.1160e+002  7.6072e+001 148748 210669,210747,210695
 9.6000e+001 210773 -5.3210e+001 -4.6463e+001 -1.7396e+000 148748 210643,210747,210669
 9.6000e+001 210971 -4.9861e+002  3.0314e+003 -9.1760e+002 148408 210870,210922,210896
 9.6000e+001 210948  1.2620e+003  1.8777e+003  3.5414e+002 148408 210844,210922,210870
 9.6000e+001 211123 -1.0414e+005 -8.1414e+005  2.2347e+005 148118 210996,211048,211022
 9.6000e+001 211100 -3.8393e+005 -7.9050e+005  5.4663e+005 148118 210996,211074,211048
 9.6000e+001 211275 -1.9540e+005 -5.0401e+005  2.7497e+004 147778 211148,211200,211174
 9.6000e+001 211252 -4.7152e+005 -1.3466e+006  7.3276e+005 147778 211148,211226,211200
 9.6000e+001 211427 -7.0426e+004 -4.0889e+005  8.1666e+004 147324 211326,211378,211352
 9.6000e+001 211404 -6.6633e+003 -1.0258e+006 -3.5088e+005 147324 211300,211378,211326
 9.6000e+001 211628 -1.9861e+006 -1.2517e+006  8.5068e+005 147012 211452,211504,211478
 9.6000e+001 211605 -1.9896e+006  4.2973e+005  1.1927e+006 147012 211452,211556,211504
 9.6000e+001 211582 -1.8836e+006 -6.2402e+005  1.6814e+006 147012 211504,211556,211530
 9.6000e+001 211829 -5.0535e+005 -3.8962e+005  7.3161e+004 146636 211679,211757,211731
 9.6000e+001 211806 -1.8004e+005 -1.5106e+006 -1.5949e+005 146636 211653,211757,211679
 9.6000e+001 211783 -2.0725e+005 -2.3479e+005 -9.0904e+004 146636 211679,211731,211705
 9.6000e+001 211981  4.0073e+002 -4.3692e+001  1.2134e+003 146246 211880,211932,211906
 9.6000e+001 211958 -1.1407e+003 -8.6251e+002  4.2136e+001 146246 211854,211932,211880
 9.6000e+001 212133  4.5658e+002 -4.9348e+002 -2.3146e+001 145956 212006,212058,212032
 9.6000e+001 212110  8.6529e+002  3.6091e+002 -4.5227e+002 145956 212006,212084,212058
 9.6000e+001 212285 -5.5440e+002 -1.7371e+003 -3.4026e+001 145544 212184,212236,212210
 9.6000e+001 212262 -4.3803e+002 -7.0025e+000 -6.1847e+001 145544 212158,212236,212184
 9.6000e+001 212486 -2.6890e+005 -1.6164e+007  3.9041e+006 144990 212362,212414,212388
 9.6000e+001 212463  3.0513e+005 -1.2742e+007  5.8196e+006 144990 212310,212414,212362
 9.6000e+001 212440 -5.6876e+006 -2.7212e+006  1.6389e+006 144990 212310,212362,212336
 9.6000e+001 212638 -2.1361e+005 -4.0929e+005  2.8247e+005 144600 212537,212589,212563
 9.6000e+001 212615 -1.8921e+005 -3.6836e+005  2.5397e+005 144600 212511,212589,212537
 9.6000e+001 212839 -7.0240e+004 -9.3234e+005  6.4813e+004 144210 212689,212741,212715
 9.6000e+001 212816 -1.9192e+005 -1.1633e+006  4.6971e+005 144210 212663,212741,212689
 9.6000e+001 212793 -1.5701e+005 -1.0586e+006  3.7300e+005 144210 212663,212767,212741
 9.6000e+001 212991  8.9592e-002 -3.2403e-001  1.5820e-001 143920 212890,212942,212916
 9.6000e+001 212968  4.3741e-002 -4.3560e-002 -1.7961e-001 143920 212864,212942,212890
 9.6000e+001 213143  5.4638e+002 -3.8513e+002 -3.0546e+002 143480 213016,213068,213042
 9.6000e+001 213120 -3.5858e+001 -7.4269e+002 -1.0348e+001 143480 213016,213094,213068
 9.6000e+001 213295 -1.3061e+004 -3.0573e+005  6.1854e+004 142990 213194,213246,213220
 9.6000e+001 213272 -1.2041e+004 -3.0210e+005  6.1180e+004 142990 213168,213246,213194
 9.6000e+001 213447  5.2693e+004 -4.8932e+003  8.1006e+004 142600 213320,213372,213346
 9.6000e+001 213424 -5.4210e+004  9.6104e+003  5.5870e+004 142600 213320,213398,213372
 9.6000e+001 213599 -3.7193e+004 -5.1924e+005  1.7190e+005 142260 213472,213524,213498
 9.6000e+001 213576 -2.6184e+005 -5.4612e+005  3.7878e+005 142260 213472,213550,213524
 9.6000e+001 213751 -5.4804e+004  3.2789e+004  5.5876e+003 141870 213624,213676,213650
 9.6000e+001 213728 -3.1072e+005 -2.1923e+004 -1.5056e+003 141870 213624,213702,213676
 9.6000e+001 213903 -1.6018e+006 -1.8518e+006 -1.7252e+006 141530 213776,213828,213802
 9.6000e+001 213880 -4.3387e+005 -2.1633e+006 -8.5234e+005 141530 213776,213854,213828
 9.6000e+001 214055 -4.5626e+006 -6.4687e+004  5.5751e+005 141218 213928,213980,213954
 9.6000e+001 214032 -2.7536e+006 -5.4886e+005  1.6426e+005 141218 213928,214006,213980
 9.6000e+001 214207  7.9079e+002 -3.4322e+002  2.2044e+002 140928 214080,214132,214106
 9.6000e+001 214184  1.7675e+003  1.8441e+002 -4.8069e+002 140928 214080,214158,214132
 9.6000e+001 214359 -4.6296e+004 -2.9765e+005 -3.5325e+003 140538 214232,214284,214258
 9.6000e+001 214336 -3.2080e+005 -7.7756e+005  5.7909e+005 140538 214232,214310,214284
 9.6000e+001 214560 -3.4621e+005 -4.8649e+006  1.0523e+006 140248 214384,214462,214410
 9.6000e+001 214537  1.5167e+005 -2.5807e+006  4.2546e+005 140248 214384,214488,214462
 9.6000e+001 214514 -3.3921e+005 -3.4471e+006 -2.1532e+004 140248 214410,214462,214436
 9.6000e+001 214712 -4.9043e+004 -2.6098e+004  1.1253e+004 140000 214611,214663,214637
 9.6000e+001 214689 -4.0381e+004 -7.9660e+004  7.7206e+004 140000 214585,214663,214611
 9.6000e+001 214913 -2.7759e+005 -1.9944e+006 -4.3832e+005 139596 214737,214815,214763
 9.6000e+001 214890 -2.4089e+005 -1.1810e+006  3.4161e+004 139596 214737,214841,214815
 9.6000e+001 214867  7.4711e+005 -6.6591e+006  7.8654e+005 139596 214763,214815,214789
 9.6000e+001 215016  1.6524e+003 -2.6607e+003  1.9901e+003 139420 214938,214990,214964
 9.6000e+001 215168 -4.0025e+006 -9.5557e+006  6.3956e+006 139130 215067,215119,215093
 9.6000e+001 215145 -2.8322e+006 -1.0538e+007  4.9277e+006 139130 215041,215119,215067
 9.6000e+001 215320 -2.8273e+006 -4.1612e+006  2.6671e+006 138790 215219,215271,215245
 9.6000e+001 215297 -2.6338e+006 -1.1590e+007  6.8337e+006 138790 215193,215271,215219
 9.6000e+001 215472 -3.6066e+004 -2.5358e+005  9.4038e+004 138514 215345,215397,215371
 9.6000e+001 215449 -5.1514e+004 -2.7212e+005  1.0957e+005 138514 215345,215423,215397
 9.6000e+001 215624 -4.1888e+005 -7.5215e+006  2.0583e+006 138174 215497,215549,215523
 9.6000e+001 215601 -7.8067e+005 -6.0684e+006  1.8722e+006 138174 215497,215575,215549
 9.6000e+001 215776 -5.6039e+005 -5.6717e+004 -7.5537e+004 137734 215649,215701,215675
 9.6000e+001 215753 -6.2655e+005 -4.9648e+004 -1.6999e+005 137734 215649,215727,215701
 9.6000e+001 215977  1.6352e+006 -6.0306e+006 -3.0707e+005 137344 215801,215879,215827
 9.6000e+001 215954 -1.2065e+006 -1.5988e+006 -5.5687e+005 137344 215801,215905,215879
 9.6000e+001 215931 -3.2843e+005 -7.4194e+006 -4.1021e+006 137344 215827,215879,215853
 9.6000e+001 216129 -8.2703e+004 -6.8816e+004 -6.2554e+004 136940 216028,216080,216054
 9.6000e+001 216106 -4.7130e+004 -5.1773e+004  2.5915e+004 136940 216002,216080,216028
 9.6000e+001 216330 -6.6095e+005 -8.2803e+006  3.7326e+005 136600 216180,216232,216206
 9.6000e+001 216307 -1.8544e+006 -8.4973e+006  4.3194e+006 136600 216154,216232,216180
 9.6000e+001 216284 -8.9758e+005 -4.8188e+006  1.8466e+006 136600 216154,216258,216232
 9.6000e+001 216482  1.0690e+006 -4.9890e+006  1.0284e+006 136260 216381,216433,216407
 9.6000e+001 216459  9.7542e+005 -3.3274e+006  1.1372e+006 136260 216355,216433,216381
 9.6000e+001 216634 -7.6974e+004 -2.1427e+004  3.0991e+004 135970 216533,216585,216559
 9.6000e+001 216611 -5.9916e+004 -1.0554e+005  1.0110e+005 135970 216507,216585,216533
 9.6000e+001 216835 -8.6633e+004 -3.0801e+006  3.2714e+005 135608 216685,216763,216711
 9.6000e+001 216812  1.8089e+005 -3.5375e+006 -3.9985e+005 135608 216659,216763,216685
 9.6000e+001 216789 -1.3486e+004 -7.3088e+005  4.0717e+003 135608 216711,216763,216737
 9.6000e+001 217036 -1.4779e+004 -8.8697e+003  6.4896e+003 135312 216912,216964,216938
 9.6000e+001 217013 -9.2636e+003 -4.0614e+004  2.5836e+004 135312 216886,216964,216912
 9.6000e+001 216990  7.1986e+003 -7.8250e+004  1.6068e+004 135312 216860,216964,216886
 9.6000e+001 217237 -1.9747e+005 -1.0307e+006  3.7507e+005 134908 217061,217139,217113
 9.6000e+001 217214 -3.9640e+005 -1.1273e+006  7.2847e+005 134908 217061,217165,217139
 9.6000e+001 217191 -4.9771e+005 -1.2911e+006  5.4483e+005 134908 217061,217113,217087
 9.6000e+001 217438 -8.1914e+005 -6.8964e+006 -2.2200e+006 134568 217288,217366,217314
 9.6000e+001 217415 -1.6883e+006 -7.5141e+006 -2.6637e+006 134568 217262,217366,217288
 9.6000e+001 217392 -1.5620e+006 -9.4928e+006 -3.3312e+006 134568 217314,217366,217340
 9.6000e+001 217590 -2.6026e+004 -2.6375e+005  4.0740e+004 134106 217463,217515,217489
 9.6000e+001 217567 -5.4025e+004 -3.2641e+005  1.4724e+005 134106 217463,217541,217515
 9.6000e+001 217791 -6.4794e+002 -2.8439e+003 -1.3574e+003 133816 217641,217693,217667
 9.6000e+001 217768 -1.6044e+006 -1.0330e+007 -4.0711e+006 133816 217641,217719,217693
 9.6000e+001 217745 -6.1061e+006 -1.9211e+006  3.4250e+006 133816 217615,217719,217641
 9.6000e+001 217992 -5.0594e+006 -3.8810e+006  4.5568e+006 133355 217842,217920,217894
 9.6000e+001 217969 -1.1594e+006 -9.0008e+006  3.2513e+006 133355 217816,217920,217842
 9.6000e+001 217946 -1.5064e+006 -2.2448e+006  1.6729e+006 133355 217842,217894,217868
 9.6000e+001 218193 -2.0127e+005 -6.6625e+006  5.5201e+005 132851 218017,218095,218069
 9.6000e+001 218170 -6.4584e+006 -6.3968e+006  6.6557e+006 132851 218017,218121,218095
 9.6000e+001 218147 -1.6314e+006 -3.1581e+006 -8.2176e+005 132851 218017,218069,218043
 9.6000e+001 218345 -5.2050e+001 -9.2672e+001  2.4958e+001 132511 218244,218296,218270
 9.6000e+001 218322 -8.8466e+001 -4.8844e+001 -3.9640e+001 132511 218218,218296,218244
 9.6000e+001 218497  3.1977e+006 -1.7865e+007  2.5054e+006 132235 218396,218448,218422
 9.6000e+001 218474  1.7879e+006 -1.0565e+007  2.4472e+006 132235 218370,218448,218396
 9.6000e+001 218698 -2.4519e+005 -5.4508e+006 -7.7871e+005 131945 218574,218626,218600
 9.6000e+001 218675 -1.2643e+006 -8.1468e+006 -2.1893e+006 131945 218522,218626,218574
 9.6000e+001 218652 -2.2314e+006 -4.8557e+006 -2.9391e+006 131945 218522,218574,218548
 9.6000e+001 218850 -1.3444e+006 -9.3752e+006  2.3683e+006 131655 218723,218775,218749
 9.6000e+001 218827 -6.0701e+005 -1.2157e+007  1.7484e+006 131655 218723,218801,218775
 9.6000e+001 218953 -6.9176e+004 -6.7530e+004  2.3044e+003 131215 218875,218927,218901
 9.6000e+001 219105 -9.1440e+004 -2.1005e+006 -2.6499e+005 130875 218978,219030,219004
 9.6000e+001 219082 -1.8642e+005 -8.6980e+005 -3.8696e+003 130875 218978,219056,219030
 9.6000e+001 219306 -2.9296e+005 -1.2919e+006  3.0152e+005 130429 219156,219234,219208
 9.6000e+001 219283 -4.9908e+005 -8.5721e+005  3.1210e+005 130429 219130,219234,219156
 9.6000e+001 219260 -1.8938e+006 -1.6800e+006  7.9222e+005 130429 219156,219208,219182
 9.6000e+001 219507 -5.7504e+005 -1.4042e+006  8.5571e+005 130025 219383,219435,219409
 9.6000e+001 219484 -5.8261e+005 -2.0864e+006  1.1060e+006 130025 219331,219435,219383
 9.6000e+001 219461 -5.5126e+005 -1.2840e+006  6.9822e+005 130025 219331,219383,219357
 9.6000e+001 219659 -8.2235e+001 -1.3223e+002 -2.3745e+002 129685 219558,219610,219584
 9.6000e+001 219636 -1.9733e+002 -9.5731e+001 -2.6927e+001 129685 219532,219610,219558
 9.6000e+001 219860 -4.5036e+005 -9.7912e+005  6.9599e+005 129395 219710,219788,219762
 9.6000e+001 219837 -4.6985e+005 -1.4639e+006  6.6436e+005 129395 219684,219788,219710
 9.6000e+001 219814 -3.4523e+005 -1.1048e+006  6.1788e+005 129395 219710,219762,219736
 9.6000e+001 220061 -1.9336e+002 -2.2737e+002  2.5768e+002 128991 219937,219989,219963
 9.6000e+001 220038  3.7885e+001  1.0449e+002  4.1411e+002 128991 219885,219989,219937
 9.6000e+001 220015 -1.4021e+002 -4.4764e+002 -4.6525e+002 128991 219885,219937,219911
 9.6000e+001 220262  3.2437e+001 -1.5016e+002 -3.5923e+001 128701 220086,220164,220112
 9.6000e+001 220239  9.9540e+001  5.3862e+000 -1.2500e+002 128701 220086,220190,220164
 9.6000e+001 220216 -8.9437e+002 -1.3596e+002  2.8639e+002 128701 220112,220164,220138
 9.6000e+001 220463 -3.3162e+006 -8.1627e+006  4.2347e+006 128297 220339,220391,220365
 9.6000e+001 220440 -2.0523e+006 -1.1402e+007  3.4125e+006 128297 220313,220391,220339
 9.6000e+001 220417 -3.9354e+005 -1.4718e+007 -2.7039e+006 128297 220287,220391,220313
 9.6000e+001 220615  7.0005e+002 -8.3341e+002 -2.4337e+002 128007 220488,220540,220514
 9.6000e+001 220592 -2.7140e+002  3.5397e+002  2.7863e+002 128007 220488,220566,220540
 9.6000e+001 220767 -9.9429e+004 -2.2129e+006  3.2836e+005 127567 220640,220692,220666
 9.6000e+001 220744 -2.4751e+005 -1.2909e+006  2.3890e+005 127567 220640,220718,220692
 9.6000e+001 220919 -6.2431e+005 -1.0901e+007 -8.9093e+005 127163 220792,220844,220818
 9.6000e+001 220896 -2.0334e+006 -1.4637e+007  3.8612e+006 127163 220792,220870,220844
 9.6000e+001 221071 -3.1078e+006 -2.3965e+006  2.1888e+006 126915 220970,221022,220996
 9.6000e+001 221048 -1.6571e+006 -4.1048e+006  2.1757e+006 126915 220944,221022,220970
 9.6000e+001 221272 -1.8415e+006 -5.8759e+006  3.2071e+006 126461 221122,221174,221148
 9.6000e+001 221249 -9.5303e+005 -5.7136e+006  3.1197e+006 126461 221122,221200,221174
 9.6000e+001 221226 -2.5035e+006 -4.6023e+006  3.3935e+006 126461 221096,221200,221122
 9.6000e+001 221375 -3.0311e+000 -1.5174e+001 -1.8132e+000 126213 221297,221349,221323
 9.6000e+001 221478  3.6454e+002 -1.6598e+003  4.5239e+002 125766 221400,221452,221426
 9.6000e+001 221679  2.2128e+000 -1.5578e+001 -2.0239e+001 125212 221503,221555,221529
 9.6000e+001 221656 -1.2687e+001 -3.6575e+001 -1.1450e+000 125212 221503,221581,221555
 9.6000e+001 221633 -5.5569e+001  4.9841e+001 -4.4822e+001 125212 221503,221607,221581
 9.6000e+001 221929 -2.3277e+001 -2.1178e+001  3.4921e+001 124872 221782,221834,221808
 9.6000e+001 221906  3.7570e-002 -6.1679e+001  1.2760e+001 124872 221756,221834,221782
 9.6000e+001 221883  7.7564e-001  3.1084e+001 -5.7058e+000 124872 221704,221834,221756
 9.6000e+001 221860  6.9980e+000  5.3938e+001 -1.7495e+001 124872 221704,221756,221730
 9.6000e+001 222130 -5.3550e+005 -3.3699e+006  1.1675e+005 124582 221980,222058,222006
 9.6000e+001 222107 -1.6337e+006 -3.3955e+006  8.2681e+004 124582 221954,222058,221980
 9.6000e+001 222084 -1.3579e+006 -3.2275e+006 -2.5416e+005 124582 222006,222058,222032
 9.6000e+001 222282 -2.2897e+006 -3.2683e+006 -3.7262e+005 124192 222181,222233,222207
 9.6000e+001 222259 -4.4682e+005 -3.3431e+006 -5.2467e+005 124192 222155,222233,222181
 9.6000e+001 222483  6.0681e+001  3.4341e+001 -8.0912e+001 123702 222333,222385,222359
 9.6000e+001 222460  1.0910e+002 -6.8109e+001 -1.9543e+002 123702 222333,222411,222385
 9.6000e+001 222437  2.3367e+002 -9.0070e+001  3.0497e+001 123702 222307,222411,222333
 9.6000e+001 222635 -3.0973e+001 -3.0820e+003  1.9237e+002 123312 222508,222560,222534
 9.6000e+001 222612 -4.0913e+002 -1.7821e+003  1.4818e+002 123312 222508,222586,222560
 9.6000e+001 222787 -5.2391e+002 -2.8792e+002  7.4018e+002 122858 222686,222738,222712
 9.6000e+001 222764 -5.9810e+002  1.8250e+001  1.7824e+002 122858 222660,222738,222686
 9.6000e+001 222939 -6.8313e+000 -8.9390e+001  4.0171e+000 122568 222812,222864,222838
 9.6000e+001 222916  8.1036e+000 -1.6348e+001  8.4802e+000 122568 222812,222890,222864
 9.6000e+001 223091  8.8543e+001 -1.7572e+002 -2.9944e+002 122392 222964,223016,222990
 9.6000e+001 223068  8.9487e+002 -4.9716e+002  2.4144e+002 122392 222964,223042,223016
 9.6000e+001 223292 -1.4332e+006 -8.5062e+005  7.4402e+005 121852 223142,223220,223194
 9.6000e+001 223269 -1.8337e+006 -9.6095e+005  6.2979e+005 121852 223116,223220,223142
 9.6000e+001 223246 -2.1185e+006 -8.9518e+005 -1.6819e+005 121852 223142,223194,223168
 9.6000e+001 223493 -1.7259e+006 -2.7353e+005  7.1455e+005 121406 223343,223395,223369
 9.6000e+001 223470 -1.4745e+006 -1.3627e+005  5.4371e+005 121406 223343,223421,223395
 9.6000e+001 223447 -6.1101e+005 -3.5910e+005  3.5365e+005 121406 223317,223421,223343
 9.6000e+001 223645  2.1253e+005 -1.5652e+007  3.9855e+006 121002 223544,223596,223570
 9.6000e+001 223622 -1.3096e+006 -1.3650e+007  3.6650e+006 121002 223518,223596,223544
 9.6000e+001 223846 -1.2152e+002 -7.7197e+003  1.2930e+003 120662 223670,223748,223696
 9.6000e+001 223823  3.3173e+001 -3.4735e+003  1.0546e+003 120662 223670,223774,223748
 9.6000e+001 223800 -9.7165e+002 -4.7863e+003 -1.9680e+003 120662 223696,223748,223722
 9.6000e+001 224047 -2.0347e+003 -3.0016e+003  1.7248e+003 120222 223897,223949,223923
 9.6000e+001 224024  4.9669e+002 -5.6865e+003  1.3876e+003 120222 223871,223949,223897
 9.6000e+001 224001 -5.3184e+002 -3.5442e+003 -1.1671e+003 120222 223871,223975,223949
 9.6000e+001 224248 -2.2726e+002  7.3723e+001  2.0083e+002 119875 224124,224176,224150
 9.6000e+001 224225 -3.9056e+001 -1.2053e+002  2.1577e+002 119875 224098,224176,224124
 9.6000e+001 224202 -2.1576e+002 -8.2314e+001  3.3863e+002 119875 224072,224176,224098
 9.6000e+001 224449  1.8315e+002 -3.0794e+003  6.3249e+002 119677 224325,224377,224351
 9.6000e+001 224426 -4.2113e+002 -5.5192e+003  1.1594e+003 119677 224299,224377,224325
 9.6000e+001 224403 -1.0259e+003 -7.4956e+002  6.1362e+002 119677 224273,224377,224299
 9.6000e+001 224552 -1.5994e+003 -1.5074e+003 -5.3369e+002 119273 224474,224526,224500
 9.6000e+001 224704 -3.1952e+002 -7.9626e+001  1.5714e+002 118983 224603,224655,224629
 9.6000e+001 224681  2.2764e+002 -8.4929e+001  1.6785e+002 118983 224577,224655,224603
 9.6000e+001 224856 -3.0527e+002  2.3489e+003  4.2119e+001 118529 224755,224807,224781
 9.6000e+001 224833  1.1959e+003  2.2465e+003  8.7674e+002 118529 224729,224807,224755
 9.6000e+001 225008 -5.0041e+002 -7.9296e+003  2.9478e+002 118353 224881,224933,224907
 9.6000e+001 224985  1.8540e+002  2.3255e+002 -4.4012e+001 118353 224881,224959,224933
 9.6000e+001 225209 -1.0651e+006 -5.1911e+006 -1.9967e+006 117949 225059,225137,225111
 9.6000e+001 225186 -2.3529e+005 -3.0253e+006  8.4396e+005 117949 225033,225137,225059
 9.6000e+001 225163  9.7089e+005 -1.3035e+007  2.5320e+006 117949 225059,225111,225085
 9.6000e+001 225410  1.5494e+005 -8.6277e+006  2.9842e+005 117559 225260,225338,225312
 9.6000e+001 225387 -3.7667e+006 -9.6178e+006  5.2024e+004 117559 225234,225338,225260
 9.6000e+001 225364 -6.9958e+005 -6.7130e+006 -2.1671e+006 117559 225260,225312,225286
 9.6000e+001 225611 -2.4836e+006 -1.1561e+007 -3.1379e+006 117361 225461,225513,225487
 9.6000e+001 225588 -4.4823e+006 -1.3082e+007  2.9043e+006 117361 225461,225539,225513
 9.6000e+001 225565 -2.4453e+005 -1.7093e+007  4.3861e+005 117361 225435,225539,225461
 9.6000e+001 225812  5.4974e+005 -1.1411e+007  3.7960e+005 116900 225636,225714,225662
 9.6000e+001 225789 -2.3907e+006 -2.7083e+006 -1.3613e+006 116900 225636,225740,225714
 9.6000e+001 225766 -7.0644e+003 -1.1555e+007  2.8533e+005 116900 225662,225714,225688
 9.6000e+001 225964  1.4811e+005 -8.4517e+006  1.9101e+005 116560 225837,225889,225863
 9.6000e+001 225941  4.7327e+005 -8.0791e+006 -1.9940e+004 116560 225837,225915,225889
 9.6000e+001 226165  1.5023e+003 -8.8649e+003  8.0349e+002 116106 226015,226093,226041
 9.6000e+001 226142 -7.6282e+002 -2.8595e+003 -1.1667e+003 116106 225989,226093,226015
 9.6000e+001 226119 -3.2372e+002 -8.3729e+003 -1.1612e+003 116106 226041,226093,226067
 9.6000e+001 226268 -1.8849e+006 -4.1427e+006  1.8564e+006 115716 226190,226242,226216
 9.6000e+001 226420 -5.2462e+005 -1.4518e+007  2.3175e+006 115376 226293,226345,226319
 9.6000e+001 226397 -1.0495e+006 -1.6390e+007  5.6618e+006 115376 226293,226371,226345
 9.6000e+001 226621 -8.0153e+005 -2.6996e+006  4.7468e+005 114972 226497,226549,226523
 9.6000e+001 226598 -5.9154e+005 -1.5383e+007 -6.1355e+005 114972 226445,226549,226497
 9.6000e+001 226575  6.6330e+005 -6.7209e+006  7.2061e+005 114972 226445,226497,226471
 9.6000e+001 226773 -1.3293e+006 -5.0825e+006 -1.7879e+006 114670 226646,226698,226672
 9.6000e+001 226750  6.6638e+005 -1.0399e+007  1.2015e+006 114670 226646,226724,226698
 9.6000e+001 226974  4.7455e+004 -4.0149e+006  2.7681e+005 114082 226798,226850,226824
 9.6000e+001 226951  1.1900e+005 -3.8164e+006  1.8531e+005 114082 226798,226902,226850
 9.6000e+001 226928 -4.1161e+005 -6.1471e+006  2.5633e+005 114082 226850,226902,226876
 9.6000e+001 227175 -5.2877e+005 -7.5213e+006 -2.7123e+006 113678 226999,227051,227025
 9.6000e+001 227152 -1.2384e+006 -9.9967e+006 -3.2828e+006 113678 226999,227077,227051
 9.6000e+001 227129 -2.6637e+006 -4.6140e+006 -2.6915e+006 113678 226999,227103,227077
 9.6000e+001 227425 -3.7494e+006 -7.1309e+006 -6.7992e+006 113274 227226,227278,227252
 9.6000e+001 227402  6.6577e+003 -6.8863e+006 -9.1386e+005 113274 227226,227330,227278
 9.6000e+001 227379 -3.2715e+006 -1.8825e+006 -3.5542e+005 113274 227200,227330,227226
 9.6000e+001 227356 -1.0604e+006 -3.5308e+005 -6.1177e+005 113274 227278,227330,227304
 9.6000e+001 227626 -2.2000e+006 -2.7128e+006 -3.0777e+006 112934 227502,227554,227528
 9.6000e+001 227603  4.7202e+005 -2.6318e+006 -6.0133e+005 112934 227450,227554,227502
 9.6000e+001 227580 -2.2084e+006 -6.3358e+005  1.0123e+006 112934 227450,227502,227476
 9.6000e+001 227876 -2.0316e+005 -1.6372e+006 -2.4949e+005 112437 227677,227755,227703
 9.6000e+001 227853 -8.7121e+005 -1.8402e+006  8.9802e+005 112437 227677,227781,227755
 9.6000e+001 227830 -2.5430e+005 -7.3402e+005  2.2990e+005 112437 227703,227755,227729
 9.6000e+001 227807  1.2135e+006 -8.3520e+006 -8.2266e+005 112437 227651,227781,227677
 9.6000e+001 228126 -2.4416e+005 -3.9672e+006 -6.9128e+005 112041 227927,228005,227953
 9.6000e+001 228103 -5.1223e+005 -3.8430e+006 -6.4187e+005 112041 227927,228031,228005
 9.6000e+001 228080  2.3663e+004 -5.0096e+006 -5.2548e+005 112041 227953,228005,227979
 9.6000e+001 228057 -1.0761e+006 -3.1779e+006 -1.0262e+006 112041 227901,228031,227927
 9.6000e+001 228327 -3.0356e+006 -2.8009e+006  1.9295e+005 111693 228151,228203,228177
 9.6000e+001 228304 -1.0309e+006 -2.5719e+006 -1.0347e+006 111693 228151,228229,228203
 9.6000e+001 228281  2.7997e+005 -5.2924e+006  9.6919e+005 111693 228151,228255,228229
 9.6000e+001 228479  2.1198e+002  1.8551e+002 -2.8551e+001 111253 228352,228404,228378
 9.6000e+001 228456  1.9048e+002  2.4019e+002 -2.7842e+002 111253 228352,228430,228404
 9.6000e+001 228582  2.2342e-313 -5.2337e-312  2.1281e-312 110906 228504,228556,228530
 9.6000e+001 228783  5.4630e+004 -5.5385e+005 -9.3412e+004 110416 228633,228711,228659
 9.6000e+001 228760 -2.3004e+004 -9.3417e+005 -5.3943e+004 110416 228607,228711,228633
 9.6000e+001 228737  7.5725e+004 -1.2949e+006 -9.6810e+004 110416 228659,228711,228685
 9.6000e+001 228935 -6.9478e+005 -3.4479e+006 -1.9526e+006 110012 228808,228860,228834
 9.6000e+001 228912 -2.4429e+006 -6.9443e+006 -3.3201e+006 110012 228808,228886,228860
 9.6000e+001 229087 -3.1727e+006 -2.3723e+006 -2.2173e+006 109672 228960,229012,228986
 9.6000e+001 229064  4.7997e+005 -6.4188e+006 -1.4469e+006 109672 228960,229038,229012
 9.6000e+001 229190  9.9567e+001 -3.2646e+002  1.8196e+002 109332 229112,229164,229138
 9.6000e+001 229391 -1.8711e+005 -8.3054e+004  3.7281e+004 109156 229267,229319,229293
 9.6000e+001 229368 -2.7116e+005 -6.4168e+005  3.3059e+004 109156 229215,229319,229267
 9.6000e+001 229345 -1.3224e+005 -1.5108e+005 -3.9963e+004 109156 229215,229267,229241
 9.6000e+001 229543  7.9744e+005 -7.2527e+006  9.3530e+005 108752 229416,229468,229442
 9.6000e+001 229520 -1.9549e+005 -3.1785e+006 -4.4344e+005 108752 229416,229494,229468
 9.6000e+001 229744 -1.5744e+005 -4.2676e+006 -6.4041e+004 108198 229594,229646,229620
 9.6000e+001 229721 -5.8234e+003 -4.2281e+006 -8.7604e+004 108198 229594,229672,229646
 9.6000e+001 229698 -6.6578e+005 -4.1080e+006 -7.8334e+004 108198 229568,229672,229594
 9.6000e+001 229847 -2.0108e+004 -8.7800e+005 -1.4430e+005 107758 229769,229821,229795
 9.6000e+001 230048 -3.4473e+005 -1.1371e+006 -3.6619e+005 107468 229898,229950,229924
 9.6000e+001 230025 -1.6572e+005 -7.9057e+005  2.6056e+005 107468 229872,229950,229898
 9.6000e+001 230002 -1.3590e+005 -5.3812e+005  3.7138e+004 107468 229872,229976,229950
 9.6000e+001 230298  1.5382e+005 -8.3594e+005  3.3813e+005 107121 230099,230203,230177
 9.6000e+001 230275  4.5589e+004 -9.9364e+005  2.5603e+005 107121 230073,230203,230099
 9.6000e+001 230252  5.2295e+005 -1.1429e+006 -3.3951e+005 107121 230099,230177,230151
 9.6000e+001 230229 -1.4029e+005 -1.1734e+006 -4.0542e+005 107121 230099,230151,230125
 9.6000e+001 230450 -5.7426e+005 -2.1618e+004  9.9937e+004 106823 230349,230401,230375
 9.6000e+001 230427 -3.2888e+005 -2.9917e+005  1.0075e+005 106823 230323,230401,230349
 9.6000e+001 230602 -5.4096e+006 -4.4473e+006 -7.3479e+006 106533 230501,230553,230527
 9.6000e+001 230579  2.8209e+006 -1.2999e+007  2.7317e+006 106533 230475,230553,230501
 9.6000e+001 230803 -6.0856e+004 -9.2757e+005 -8.0466e+004 106029 230679,230731,230705
 9.6000e+001 230780  3.3150e+004 -5.3326e+005 -5.2533e+004 106029 230653,230731,230679
 9.6000e+001 230757  1.0667e+003 -1.1520e+006 -1.3592e+005 106029 230627,230731,230653
 9.6000e+001 231004 -6.6688e+004 -1.7630e+006  2.3439e+005 105689 230854,230906,230880
 9.6000e+001 230981  5.1662e+004 -1.7616e+006  2.2076e+005 105689 230828,230906,230854
 9.6000e+001 230958 -2.9405e+005 -9.1260e+005 -4.5286e+005 105689 230828,230932,230906
 9.6000e+001 231156  1.5162e+005 -5.6658e+006 -1.6397e+005 105377 231055,231107,231081
 9.6000e+001 231133 -5.5267e+005 -3.6171e+006  3.4555e+005 105377 231029,231107,231055
 9.6000e+001 231406 -1.1542e+006 -6.4195e+006 -8.7096e+005 104858 231207,231259,231233
 9.6000e+001 231383 -1.7206e+006 -5.8677e+006 -1.7991e+006 104858 231207,231311,231259
 9.6000e+001 231360 -1.2235e+006 -7.2686e+006 -2.2883e+006 104858 231259,231311,231285
 9.6000e+001 231337 -1.1956e+006 -7.2147e+006 -2.1061e+006 104858 231181,231311,231207
 9.6000e+001 231558 -2.0097e+004 -1.4042e+007 -5.3091e+005 104418 231457,231509,231483
 9.6000e+001 231535 -5.3035e+006 -1.4529e+007 -9.2371e+006 104418 231431,231509,231457
 9.6000e+001 231710 -3.8425e+006 -2.6332e+003  4.9467e+005 103978 231583,231635,231609
 9.6000e+001 231687 -2.4132e+006 -5.0143e+004 -3.1470e+005 103978 231583,231661,231635
 9.6000e+001 231862 -9.7595e+005 -6.3443e+006 -8.6111e+005 103588 231761,231813,231787
 9.6000e+001 231839  3.1968e+005 -1.6011e+006 -1.3700e+005 103588 231735,231813,231761
 9.6000e+001 232014 -1.5726e+006 -5.8798e+006 -2.7605e+006 103248 231887,231939,231913
 9.6000e+001 231991 -3.0601e+006 -9.3830e+006 -4.9786e+006 103248 231887,231965,231939
 9.6000e+001 232215 -2.1693e+002 -2.5552e+003 -1.2566e+003 102844 232039,232117,232065
 9.6000e+001 232192 -2.2865e+002 -3.5622e+002 -3.8238e+002 102844 232039,232143,232117
 9.6000e+001 232169 -5.9134e+002 -2.7545e+003 -1.1125e+003 102844 232065,232117,232091
 9.6000e+001 232416 -3.1925e+006 -5.8950e+006 -2.8405e+006 102554 232240,232318,232292
 9.6000e+001 232393  5.6481e+005 -1.0188e+007 -2.6895e+005 102554 232240,232344,232318
 9.6000e+001 232370 -4.5912e+006 -2.3873e+006 -1.8307e+004 102554 232240,232292,232266
 9.6000e+001 232568 -2.0451e+004 -1.6987e+006  1.2813e+005 102100 232441,232493,232467
 9.6000e+001 232545 -4.2739e+005 -1.7911e+006  1.0544e+005 102100 232441,232519,232493
 9.6000e+001 232769 -1.1884e+005 -1.6439e+006  2.1220e+005 101596 232645,232697,232671
 9.6000e+001 232746  3.7901e+004 -1.0701e+006  1.2411e+005 101596 232593,232697,232645
 9.6000e+001 232723 -1.6248e+005 -1.1997e+006  2.4102e+005 101596 232593,232645,232619
 9.6000e+001 232921 -7.0729e+005 -2.8005e+005  8.0847e+004 101420 232794,232846,232820
 9.6000e+001 232898 -7.5478e+005 -5.8165e+005  8.4101e+004 101420 232794,232872,232846
 9.6000e+001 233073 -5.4665e+005 -1.1442e+006 -2.3630e+005 101023 232946,232998,232972
 9.6000e+001 233050  1.4142e+005 -2.5250e+006  9.8996e+005 101023 232946,233024,232998
 9.6000e+001 233225  9.2801e+002 -5.3948e+003 -3.2646e+002 100661 233098,233150,233124
 9.6000e+001 233202 -9.7143e+002  2.5701e+003 -7.0390e+002 100661 233098,233176,233150
 9.6000e+001 233426 -1.0496e+006 -5.9525e+006 -2.3617e+006 100265 233276,233328,233302
 9.6000e+001 233403 -1.2820e+006 -5.6338e+006 -1.3240e+006 100265 233276,233354,233328
 9.6000e+001 233380 -1.0552e+006 -5.4689e+006 -1.1985e+006 100265 233250,233354,233276
 9.6000e+001 233578 -1.2056e+004 -1.6365e+006  1.4188e+005 100032 233451,233503,233477
 9.6000e+001 233555 -1.6158e+005 -1.6701e+006  1.5437e+005 100032 233451,233529,233503
 9.6000e+001 233681 -3.1479e+006 -2.3548e+005 -1.5553e+005 99742 233603,233655,233629
 9.6000e+001 233784 -4.0865e+005 -7.9840e+005  3.6071e+005 99402 233706,233758,233732
 9.6000e+001 233936 -5.4322e+005 -6.8131e+005  5.4452e+005 99062 233835,233887,233861
 9.6000e+001 233913 -5.1640e+005 -4.6011e+005  7.9371e+004 99062 233809,233887,233835
 9.6000e+001 234088 -4.7805e+002  2.5592e+002  1.9698e+002 98772 233987,234039,234013
 9.6000e+001 234065 -8.1201e+001  1.1105e+002 -3.3059e+002 98772 233961,234039,233987
 9.6000e+001 234240  1.3569e+002  1.6536e+002  1.0809e+002 98160 234139,234191,234165
 9.6000e+001 234217  1.4597e+002 -6.2564e+001 -4.3454e+001 98160 234113,234191,234139
 9.6000e+001 234441 -6.6948e+002 -4.5931e+002 -2.4978e+002 97820 234317,234369,234343
 9.6000e+001 234418 -6.2005e+002 -2.0870e+002 -1.7286e+002 97820 234291,234369,234317
 9.6000e+001 234395 -2.9628e+002 -5.1782e+001  2.7335e+001 97820 234265,234369,234291
 9.6000e+001 234593  4.1218e+002 -3.5704e+002 -2.7865e+002 97366 234466,234518,234492
 9.6000e+001 234570 -4.2363e+002  9.7112e+002  7.2297e+001 97366 234466,234544,234518
 9.6000e+001 234794 -3.4020e+005  1.0792e+005 -1.3568e+004 96976 234618,234670,234644
 9.6000e+001 234771 -7.6475e+004 -4.5165e+004 -5.5810e+004 96976 234618,234722,234670
 9.6000e+001 234748 -3.9338e+004  7.5487e+003 -1.1749e+004 96976 234670,234722,234696
 9.6000e+001 234946 -8.9124e+005 -2.6656e+005  3.9399e+005 96568 234845,234897,234871
 9.6000e+001 234923 -7.9327e+005 -5.7008e+005  9.4724e+005 96568 234819,234897,234845
 9.6000e+001 235196  3.9041e+002 -2.7137e+002 -1.6628e+002 96216 234997,235075,235049
 9.6000e+001 235173  8.3933e+001 -1.8714e+002 -1.3404e+002 96216 234997,235101,235075
 9.6000e+001 235150  2.0268e+002 -5.1169e+001  3.1137e+002 96216 234997,235049,235023
 9.6000e+001 235127  1.4464e+002 -1.6907e+002 -1.1657e+002 96216 234971,235101,234997
 9.6000e+001 235348 -6.3433e+005 -1.7666e+006 -1.5177e+005 95863 235247,235299,235273
 9.6000e+001 235325 -1.0339e+006 -1.5237e+006 -8.4221e+005 95863 235221,235299,235247
 9.6000e+001 235500 -3.6466e+002 -6.6868e+002 -2.8225e+002 95339 235373,235425,235399
 9.6000e+001 235477  1.0953e+002 -4.8648e+002 -4.9222e+002 95339 235373,235451,235425
 9.6000e+001 235701 -1.8434e+002 -3.1329e+000 -6.3655e+001 95023 235525,235577,235551
 9.6000e+001 235678 -5.6966e+001 -6.9431e+001  9.0419e+000 95023 235525,235629,235577
 9.6000e+001 235655 -1.5587e+001 -9.4757e+001 -2.8580e+000 95023 235577,235629,235603
 9.6000e+001 235853 -2.1617e+005 -1.0670e+007 -8.4163e+005 94671 235726,235778,235752
 9.6000e+001 235830  3.4994e+005 -1.2724e+007  7.0006e+005 94671 235726,235804,235778
 9.6000e+001 236005 -2.8058e+006 -4.9056e+006  1.6050e+006 94261 235904,235956,235930
 9.6000e+001 235982 -1.4655e+006 -1.0205e+007 -3.6747e+006 94261 235878,235956,235904
 9.6000e+001 236206 -2.6482e+006 -4.3669e+005  1.9121e+005 93853 236056,236134,236082
 9.6000e+001 236183 -2.3903e+006 -3.8194e+005 -1.0859e+004 93853 236030,236134,236056
 9.6000e+001 236160 -2.3916e+006 -1.8736e+005  3.4423e+005 93853 236082,236134,236108
 9.6000e+001 236407 -1.1029e+006 -2.2161e+006  3.7020e+005 93557 236257,236309,236283
 9.6000e+001 236384 -2.3180e+006 -3.0383e+006 -2.1680e+006 93557 236231,236309,236257
 9.6000e+001 236361  1.5697e+006 -1.6440e+007  2.1228e+006 93557 236231,236335,236309
 9.6000e+001 236559 -1.3783e+002 -9.4303e+001  1.1627e+002 93149 236432,236484,236458
 9.6000e+001 236536 -1.6415e+002 -1.4101e+001 -4.6500e+001 93149 236432,236510,236484
 9.6000e+001 236711 -2.2773e+003  2.5553e+002 -1.9717e+002 92853 236584,236636,236610
 9.6000e+001 236688 -1.0758e+003 -5.1147e+001 -6.0076e+002 92853 236584,236662,236636
 9.6000e+001 236912 -2.1631e+005 -1.4147e+005  1.2486e+005 92501 236736,236788,236762
 9.6000e+001 236889 -4.8426e+005 -1.0363e+005  1.3024e+005 92501 236736,236840,236788
 9.6000e+001 236866 -8.7634e+005 -7.8159e+005  8.0288e+005 92501 236788,236840,236814
 9.6000e+001 237113 -3.9789e+004 -2.0654e+006 -6.6032e+004 92291 236963,237041,237015
 9.6000e+001 237090  1.2084e+005 -1.4359e+006  7.9825e+003 92291 236937,237041,236963
 9.6000e+001 237067 -1.1091e+005 -1.8198e+006  3.9457e+005 92291 236963,237015,236989
 9.6000e+001 237265 -2.0674e+004 -7.2988e+002  3.5907e+003 91871 237138,237190,237164
 9.6000e+001 237242 -1.9611e+004 -1.3280e+003  4.8644e+003 91871 237138,237216,237190
 9.6000e+001 237368 -6.0006e+005 -1.1159e+006 -1.1703e+005 91581 237290,237342,237316
 9.6000e+001 237520  3.9399e+002  4.8762e+002 -8.4647e+002 91184 237419,237471,237445
 9.6000e+001 237497  1.2326e+003  1.5409e+003  3.7428e+001 91184 237393,237471,237419
 9.6000e+001 237672  6.7534e+001 -8.4413e+001  8.1225e+001 90894 237545,237597,237571
 9.6000e+001 237649  3.3554e+001  5.4110e+001  7.0400e+000 90894 237545,237623,237597
 9.6000e+001 237873 -2.6508e+005 -7.1556e+005  4.1652e+005 90490 237749,237801,237775
 9.6000e+001 237850 -1.8417e+005 -1.7952e+006  5.5391e+005 90490 237723,237801,237749
 9.6000e+001 237827 -7.5923e+005 -1.9441e+006  8.8816e+005 90490 237697,237801,237723
 9.6000e+001 238074 -2.8512e+005 -2.4988e+006 -2.4664e+005 90100 237898,237976,237950
 9.6000e+001 238051 -1.3486e+006 -2.7203e+006 -2.0882e+005 90100 237898,238002,237976
 9.6000e+001 238028 -6.5660e+005 -6.5979e+005  8.3932e+004 90100 237898,237950,237924
 9.6000e+001 238275 -6.0207e+002 -1.3782e+003  1.3886e+002 89696 238125,238177,238151
 9.6000e+001 238252 -8.9639e+002 -1.6302e+003  2.2202e+002 89696 238099,238177,238125
 9.6000e+001 238229  2.3292e+002 -1.4531e+003 -4.1702e+002 89696 238099,238203,238177
 9.6000e+001 238427 -1.5120e+005 -2.8644e+004  2.3786e+004 89206 238326,238378,238352
 9.6000e+001 238404 -3.7007e+005 -5.9018e+004 -1.2324e+005 89206 238300,238378,238326
 9.6000e+001 238579 -1.2128e+004 -1.3199e+003  6.7254e+003 88908 238452,238504,238478
 9.6000e+001 238556 -1.8758e+004 -5.7925e+003  1.3083e+004 88908 238452,238530,238504
 9.6000e+001 238682 -2.7481e+002 -1.1064e+002 -3.2112e+002 88568 238604,238656,238630
 9.6000e+001 238883 -1.2012e+006 -2.1408e+006  1.4660e+006 88278 238733,238811,238785
 9.6000e+001 238860 -7.3924e+005 -2.5286e+006  1.6625e+006 88278 238707,238811,238733
 9.6000e+001 238837 -7.4001e+004 -2.3600e+006  4.1781e+005 88278 238733,238785,238759
 9.6000e+001 239035 -1.8393e+006 -1.3894e+006 -7.4166e+005 87988 238908,238960,238934
 9.6000e+001 239012 -1.8601e+006 -5.3854e+005 -5.2218e+005 87988 238908,238986,238960
 9.6000e+001 239138  7.5264e+002 -2.6370e+002  2.9854e+001 87648 239060,239112,239086
 9.6000e+001 239339 -4.7697e+006 -1.8719e+006 -2.2822e+006 87358 239163,239215,239189
 9.6000e+001 239316 -4.7997e+006 -1.3321e+005  1.0959e+005 87358 239163,239241,239215
 9.6000e+001 239293 -2.0288e+006 -5.4899e+005 -3.4931e+005 87358 239163,239267,239241
 9.6000e+001 239589  3.1124e+002  1.5839e+002  2.2441e+002 86961 239390,239468,239416
 9.6000e+001 239566  4.1600e+002  2.3183e+002  3.1700e+002 86961 239390,239494,239468
 9.6000e+001 239543  5.1129e+002  6.3123e+002  3.7985e+002 86961 239416,239468,239442
 9.6000e+001 239520 -2.1146e+003 -5.6190e+002 -6.8542e+002 86961 239364,239494,239390
 9.6000e+001 239741 -9.9275e+005 -6.4899e+005  2.1499e+005 86621 239640,239692,239666
 9.6000e+001 239718 -6.5159e+005 -1.9157e+006 -6.6753e+005 86621 239614,239692,239640
 9.6000e+001 239893 -3.8021e+005 -1.2812e+006  6.2355e+005 86217 239792,239844,239818
 9.6000e+001 239870 -3.0644e+005 -3.0294e+006  1.2561e+006 86217 239766,239844,239792
 9.6000e+001 240045 -9.4195e+005 -2.3788e+006  1.0098e+006 85827 239918,239970,239944
 9.6000e+001 240022 -4.1252e+005 -2.2138e+006  1.5464e+005 85827 239918,239996,239970
 9.6000e+001 240197 -8.1406e+005 -3.2555e+006  8.7203e+005 85437 240096,240148,240122
 9.6000e+001 240174 -9.3123e+005 -6.3209e+005  5.3197e+005 85437 240070,240148,240096
 9.6000e+001 240349  7.6936e+002  2.2777e+002 -8.2334e+001 85147 240222,240274,240248
 9.6000e+001 240326  7.7087e+001  3.1742e+001  3.6141e+001 85147 240222,240300,240274
 9.6000e+001 240501 -1.2643e+003 -9.1309e+001  3.7897e+002 84807 240374,240426,240400
 9.6000e+001 240478 -2.3807e+003 -4.3693e+002  5.8985e+002 84807 240374,240452,240426
 9.6000e+001 240653 -2.3648e+001  2.9503e+001  5.1281e+001 84303 240552,240604,240578
 9.6000e+001 240630 -5.4960e+001  3.0880e+001 -1.5392e+001 84303 240526,240604,240552
 9.6000e+001 240854 -1.7285e+006 -6.9667e+006 -3.8809e+006 83929 240704,240756,240730
 9.6000e+001 240831  1.1661e+006 -4.8419e+006  2.4104e+006 83929 240704,240782,240756
 9.6000e+001 240808 -2.8774e+006  2.6870e+006  2.3869e+006 83929 240678,240782,240704
 9.6000e+001 241055 -4.1541e+002 -1.5172e+002 -6.6134e+002 83539 240879,240957,240931
 9.6000e+001 241032  1.4667e+003 -6.3576e+002  6.5772e+002 83539 240879,240983,240957
 9.6000e+001 241009  2.0637e+002 -9.5286e+001 -9.5067e+002 83539 240879,240931,240905
 9.6000e+001 241207  3.3210e+002 -5.5401e+002  2.6713e+002 83079 241106,241158,241132
 9.6000e+001 241184 -4.9331e+002 -1.1498e+002 -1.0452e+002 83079 241080,241158,241106
 9.6000e+001 241408 -6.2452e+005 -4.4411e+005 -7.2947e+005 82665 241232,241284,241258
 9.6000e+001 241385 -1.0848e+005  2.7636e+006 -2.5384e+006 82665 241232,241336,241284
 9.6000e+001 241362 -2.5736e+006 -1.1535e+007  4.3517e+006 82665 241284,241336,241310
 9.6000e+001 241658 -3.5038e+005 -3.2678e+006  3.1631e+005 82375 241485,241563,241511
 9.6000e+001 241635 -9.5298e+004 -2.1673e+006  3.4840e+005 82375 241433,241563,241485
 9.6000e+001 241612 -1.5952e+005 -2.4697e+006  3.1970e+005 82375 241433,241485,241459
 9.6000e+001 241589 -5.1113e+005 -3.8812e+006  5.2819e+005 82375 241511,241563,241537
 9.6000e+001 241810 -3.4357e+005 -2.1533e+005 -1.6517e+005 82035 241683,241735,241709
 9.6000e+001 241787 -1.0140e+005 -2.3868e+005 -8.5463e+004 82035 241683,241761,241735
 9.6000e+001 241962 -1.0002e+006 -1.1546e+006  5.2087e+005 81695 241861,241913,241887
 9.6000e+001 241939 -6.9608e+005 -1.7498e+006 -5.7824e+005 81695 241835,241913,241861
 9.6000e+001 242114 -7.3698e+005 -3.2031e+006  1.2771e+006 81355 242013,242065,242039
 9.6000e+001 242091 -1.5365e+005 -1.5101e+006  4.9103e+005 81355 241987,242065,242013
 9.6000e+001 242266 -3.3520e-002 -5.5627e-001  5.0972e-001 80951 242139,242191,242165
 9.6000e+001 242243 -5.4315e-001 -1.9145e-001 -3.8598e-001 80951 242139,242217,242191
 9.6000e+001 242467 -3.6803e+005 -4.3076e+006  6.2615e+005 80311 242291,242369,242343
 9.6000e+001 242444  1.5802e+005 -2.2555e+006  4.3806e+005 80311 242291,242395,242369
 9.6000e+001 242421 -2.1289e+005 -1.0740e+006  2.3935e+005 80311 242291,242343,242317
 9.6000e+001 242619 -1.7384e+006 -2.1583e+006  5.0481e+005 80021 242492,242544,242518
 9.6000e+001 242596 -1.7632e+006 -2.2256e+006  1.7843e+006 80021 242492,242570,242544
 9.6000e+001 242869 -4.1532e+001  4.9192e+000  1.2633e+002 79631 242644,242722,242696
 9.6000e+001 242846  1.9790e+002  2.4683e+002 -1.7758e+001 79631 242644,242774,242722
 9.6000e+001 242823  5.5980e+001  1.3960e+002  3.2788e+002 79631 242722,242774,242748
 9.6000e+001 242800 -8.3526e+001 -2.0373e+002  2.0191e+002 79631 242644,242696,242670
 9.6000e+001 243070  7.5229e+005 -1.5064e+007  4.1055e+006 79341 242920,242972,242946
 9.6000e+001 243047 -8.1821e+005 -5.2618e+006 -1.1044e+006 79341 242920,242998,242972
 9.6000e+001 243024 -5.2594e+005 -2.5365e+006  1.1550e+006 79341 242894,242998,242920
 9.6000e+001 243222 -3.4426e+005 -2.0156e+006  9.4147e+005 78801 243121,243173,243147
 9.6000e+001 243199 -2.5447e+005 -1.8540e+006  7.2706e+005 78801 243095,243173,243121
 9.6000e+001 243423  1.0927e+005 -1.8298e+006 -4.2884e+005 78511 243273,243325,243299
 9.6000e+001 243400  7.7817e+004 -1.7040e+006 -4.9372e+005 78511 243273,243351,243325
 9.6000e+001 243377 -1.9522e+002 -1.7017e+006  2.8560e+004 78511 243247,243351,243273
 9.6000e+001 243624 -2.1641e+005 -2.0316e+006 -7.2506e+005 78107 243474,243552,243526
 9.6000e+001 243601 -2.6144e+005 -2.2222e+006 -7.3894e+005 78107 243448,243552,243474
 9.6000e+001 243578 -3.1647e+005 -1.3417e+006 -1.0764e+005 78107 243474,243526,243500
 9.6000e+001 243776 -5.7940e+005 -2.6802e+006 -8.6681e+005 77653 243649,243701,243675
 9.6000e+001 243753 -7.7826e+005 -1.6491e+006 -2.7882e+005 77653 243649,243727,243701
 9.6000e+001 243977 -4.5554e+005 -5.5559e+006  7.7689e+004 77093 243801,243853,243827
 9.6000e+001 243954 -7.6175e+004 -4.3089e+006  7.5140e+005 77093 243801,243879,243853
 9.6000e+001 243931 -3.3530e+005 -1.5087e+006 -1.2778e+005 77093 243801,243905,243879
 9.6000e+001 244080 -4.2810e+005 -4.7475e+006  3.8639e+005 76791 244002,244054,244028
 9.6000e+001 244232 -1.2752e+005 -1.9874e+006 -3.0613e+005 76311 244131,244183,244157
 9.6000e+001 244209 -5.2806e+004 -7.6227e+005 -3.2650e+005 76311 244105,244183,244131
 9.6000e+001 244433  4.1318e+005 -1.6642e+007  5.5198e+006 75903 244283,244335,244309
 9.6000e+001 244410 -8.9162e+005 -8.3577e+006 -1.1070e+006 75903 244283,244361,244335
 9.6000e+001 244387 -1.0591e+006 -5.8942e+006  5.6105e+005 75903 244257,244361,244283
 9.6000e+001 244585  3.8457e+005 -1.6104e+007  2.1296e+006 75419 244458,244510,244484
 9.6000e+001 244562 -1.1148e+006 -5.3298e+006 -5.7052e+005 75419 244458,244536,244510
 9.6000e+001 244737 -3.8322e+005 -5.0654e+005 -1.7558e+005 75215 244636,244688,244662
 9.6000e+001 244714 -3.0507e+005 -2.0575e+006 -1.6828e+005 75215 244610,244688,244636
 9.6000e+001 244889 -1.0303e+006 -3.8675e+006 -7.2197e+005 74857 244788,244840,244814
 9.6000e+001 244866 -4.0187e+005 -1.6292e+006 -2.6791e+005 74857 244762,244840,244788
 9.6000e+001 245041 -7.6167e+005 -2.8713e+006 -1.3958e+006 74653 244940,244992,244966
 9.6000e+001 245018 -7.3176e+005 -9.9374e+005  1.0115e+006 74653 244914,244992,244940
 9.6000e+001 245144 -6.5832e+005 -3.5641e+006 -8.3065e+005 74359 245066,245118,245092
 9.6000e+001 245296 -8.8413e+003 -1.7980e+005 -6.4637e+004 74007 245169,245221,245195
 9.6000e+001 245273 -5.6035e+004 -3.1581e+005 -9.7209e+004 74007 245169,245247,245221
 9.6000e+001 245448 -3.0155e+006 -4.0959e+006 -9.9543e+005 73711 245321,245373,245347
 9.6000e+001 245425 -2.6554e+006 -4.0107e+006 -8.2429e+005 73711 245321,245399,245373
 9.6000e+001 245600  1.9654e+006 -1.4255e+007 -2.4413e+006 73301 245499,245551,245525
 9.6000e+001 245577 -1.8699e+006 -7.3657e+006  2.6053e+006 73301 245473,245551,245499
 9.6000e+001 245752 -2.8913e+006 -4.5314e+006 -2.7730e+006 72995 245625,245677,245651
 9.6000e+001 245729  6.4652e+005 -1.5507e+007 -2.1064e+006 72995 245625,245703,245677
 9.6000e+001 245953 -1.4020e+006 -1.2080e+007  3.9285e+005 72585 245777,245829,245803
 9.6000e+001 245930 -5.2921e+005 -1.4275e+007  2.2473e+006 72585 245777,245855,245829
 9.6000e+001 245907 -7.8031e+005 -7.3290e+006 -1.4472e+005 72585 245777,245881,245855
 9.6000e+001 246154 -7.1345e+005 -7.2291e+006  1.6401e+006 72127 246030,246082,246056
 9.6000e+001 246131 -1.1642e+006 -7.3034e+006  6.6496e+005 72127 245978,246082,246030
 9.6000e+001 246108 -2.7580e+005 -1.1182e+007  6.8252e+005 72127 245978,246030,246004
 9.6000e+001 246257 -1.2113e+006 -1.7929e+005 -1.7635e+005 71737 246179,246231,246205
 9.6000e+001 246360  2.0195e+004 -2.5533e+006  4.9848e+005 71447 246282,246334,246308
 9.6000e+001 246512 -2.5665e+005 -1.6409e+006  9.1155e+005 71157 246385,246437,246411
 9.6000e+001 246489 -6.3647e+004 -1.1048e+006 -3.6356e+004 71157 246385,246463,246437
 9.6000e+001 246664 -1.5426e+005 -2.1646e+006 -7.1344e+005 70753 246537,246589,246563
 9.6000e+001 246641 -7.9235e+005 -5.6028e+005 -4.4171e+005 70753 246537,246615,246589
 9.6000e+001 246865 -1.6040e+006 -8.2216e+006  3.9162e+006 70249 246715,246767,246741
 9.6000e+001 246842 -2.7422e+006 -8.1478e+006 -5.3127e+005 70249 246715,246793,246767
 9.6000e+001 246819 -8.2199e+003 -1.4423e+007 -3.9210e+006 70249 246689,246793,246715
 9.6000e+001 247066  5.2769e+004 -1.5835e+006  8.0950e+004 70023 246916,246994,246942
 9.6000e+001 247043 -2.3376e+005 -8.9036e+005  3.6269e+005 70023 246890,246994,246916
 9.6000e+001 247020  9.6292e+004 -1.6492e+006  3.1314e+005 70023 246942,246994,246968
 9.6000e+001 247267 -4.0781e+005 -3.4086e+006 -8.3820e+005 69633 247091,247143,247117
 9.6000e+001 247244 -1.7997e+005 -2.8145e+006 -6.7250e+005 69633 247091,247169,247143
 9.6000e+001 247221 -1.9661e+005 -2.1116e+006 -5.2579e+005 69633 247091,247195,247169
 9.6000e+001 247419 -1.2804e+006 -3.9936e+006  3.7553e+005 69457 247318,247370,247344
 9.6000e+001 247396 -1.2343e+006 -1.4858e+006  7.1781e+005 69457 247292,247370,247318
 9.6000e+001 247522  6.4785e-001 -2.9541e+002  1.9160e+002 69209 247444,247496,247470
 9.6000e+001 247625 -8.4609e+005 -9.3098e+005 -7.0615e+005 68919 247547,247599,247573
 9.6000e+001 247777  9.6013e+004 -3.1181e+006 -1.4065e+005 68579 247650,247702,247676
 9.6000e+001 247754  2.9645e+004 -7.0999e+005 -1.6615e+005 68579 247650,247728,247702
 9.6000e+001 247929 -3.5510e+005 -4.1615e+006  2.8703e+005 68289 247802,247854,247828
 9.6000e+001 247906 -9.1429e+005 -2.5371e+006 -1.1891e+006 68289 247802,247880,247854
 9.6000e+001 248081 -1.9933e+005 -2.0586e+006  6.8680e+005 67949 247980,248032,248006
 9.6000e+001 248058 -2.5737e+005 -3.0577e+005  4.4472e+004 67949 247954,248032,247980
 9.6000e+001 248233 -1.2676e+006 -4.9392e+006 -7.8693e+005 67616 248132,248184,248158
 9.6000e+001 248210 -8.5060e+005 -3.5680e+006 -3.0125e+005 67616 248106,248184,248132
 9.6000e+001 248434 -6.0795e+004 -2.0533e+006 -1.2272e+005 67212 248284,248336,248310
 9.6000e+001 248411 -1.6090e+005 -2.0547e+006 -5.0207e+004 67212 248258,248336,248284
 9.6000e+001 248388 -6.6844e+005 -7.5157e+005 -3.6524e+005 67212 248258,248362,248336
 9.6000e+001 248586 -2.4585e+005 -2.8589e+006 -1.8295e+005 66872 248485,248537,248511
 9.6000e+001 248563 -2.5010e+005 -1.1706e+006 -3.3075e+005 66872 248459,248537,248485
 9.6000e+001 248738 -5.1369e+005 -5.0260e+006  2.2335e+005 66510 248637,248689,248663
 9.6000e+001 248715 -6.6742e+005 -4.1138e+006  3.7762e+004 66510 248611,248689,248637
 9.6000e+001 248890 -2.6319e+004 -7.1230e+005  1.3634e+005 66220 248789,248841,248815
 9.6000e+001 248867 -4.2871e+004 -9.3321e+005 -3.1378e+005 66220 248763,248841,248789
 9.6000e+001 249091 -1.0752e+006 -6.7545e+006  1.5732e+006 65759 248915,248967,248941
 9.6000e+001 249068 -9.2188e+005 -4.3901e+006  1.8915e+006 65759 248915,248993,248967
 9.6000e+001 249045 -4.0775e+005 -3.2159e+006  3.2799e+005 65759 248915,249019,248993
 9.6000e+001 249243 -1.1333e+005 -6.3509e+006  1.4023e+006 65419 249142,249194,249168
 9.6000e+001 249220  1.6965e+005 -8.9493e+005  2.3515e+005 65419 249116,249194,249142
 9.6000e+001 249395 -1.6625e+005 -2.7760e+006 -7.0101e+005 65079 249268,249320,249294
 9.6000e+001 249372 -3.2995e+005 -3.1765e+006 -5.6401e+005 65079 249268,249346,249320
 9.6000e+001 249547 -1.8001e+006 -7.8226e+006  1.8824e+006 64739 249420,249472,249446
 9.6000e+001 249524 -8.5609e+005 -5.5728e+006 -2.7516e+006 64739 249420,249498,249472
 9.6000e+001 249650 -1.2249e+006 -4.1588e+006 -1.9155e+006 64342 249572,249624,249598
 9.6000e+001 249851 -4.1243e+004 -3.4468e+006 -2.6949e+005 63938 249701,249779,249753
 9.6000e+001 249828 -2.3413e+005 -3.5932e+006  3.2091e+005 63938 249675,249779,249701
 9.6000e+001 249805 -3.7694e+005 -9.8563e+005 -2.2163e+005 63938 249701,249753,249727
 9.6000e+001 250052 -2.7693e+005 -1.6350e+006 -1.0331e+006 63341 249876,249954,249902
 9.6000e+001 250029 -1.0576e+006 -2.0072e+006 -2.4249e+005 63341 249876,249980,249954
 9.6000e+001 250006  2.3855e+005 -3.7424e+006  7.2329e+005 63341 249902,249954,249928
 9.6000e+001 250253 -8.0181e+005 -5.0914e+005 -7.2750e+004 63058 250077,250129,250103
 9.6000e+001 250230 -2.6993e+006 -3.0099e+006  1.4689e+006 63058 250077,250155,250129
 9.6000e+001 250207 -4.7628e+005 -1.9578e+006  4.2656e+005 63058 250077,250181,250155
 9.6000e+001 250454 -4.7502e+005 -4.5884e+006  2.7974e+005 62832 250304,250382,250330
 9.6000e+001 250431 -5.6534e+004 -5.5330e+006 -1.5257e+006 62832 250278,250382,250304
 9.6000e+001 250408 -8.7386e+005 -3.7014e+006 -2.7187e+004 62832 250330,250382,250356
 9.6000e+001 250606 -1.3080e+006 -2.8423e+006 -1.2918e+006 62428 250479,250531,250505
 9.6000e+001 250583 -4.0733e+005 -8.6132e+006 -1.7926e+006 62428 250479,250557,250531
 9.6000e+001 250758 -2.3812e+005 -6.0519e+006  9.0234e+005 62202 250631,250683,250657
 9.6000e+001 250735 -6.6309e+005 -5.1033e+006 -6.2368e+005 62202 250631,250709,250683
 9.6000e+001 250861 -3.7628e+005 -1.0053e+006 -1.5207e+005 61954 250783,250835,250809
 9.6000e+001 251062 -2.9331e+006 -2.8059e+006  4.1024e+005 61557 250912,250990,250938
 9.6000e+001 251039  1.0999e+005 -8.9552e+006 -3.0751e+006 61557 250886,250990,250912
 9.6000e+001 251016 -3.1003e+006 -4.5055e+006 -3.9163e+006 61557 250938,250990,250964
 9.6000e+001 251263 -4.6823e+005 -4.4580e+006  2.2321e+004 61167 251113,251165,251139
 9.6000e+001 251240 -8.3240e+005 -3.4220e+006  3.2067e+004 61167 251113,251191,251165
 9.6000e+001 251217 -1.1930e+006 -3.5418e+006 -1.3908e+005 61167 251087,251191,251113
 9.6000e+001 251415 -6.4094e+005 -2.2497e+006  1.2302e+006 60827 251288,251340,251314
 9.6000e+001 251392 -1.5769e+005 -7.6841e+005 -7.8575e+004 60827 251288,251366,251340
 9.6000e+001 251567 -1.8839e+005 -2.3348e+006 -5.8149e+004 60487 251466,251518,251492
 9.6000e+001 251544 -3.5563e+005 -1.8165e+006 -5.5841e+005 60487 251440,251518,251466
 9.6000e+001 251719  1.6832e+005 -4.9831e+006  1.0690e+005 59983 251592,251644,251618
 9.6000e+001 251696 -9.7983e+004 -2.4668e+006 -1.0369e+005 59983 251592,251670,251644
 9.6000e+001 251920 -1.3211e+005 -1.1981e+006 -4.8264e+004 59807 251770,251848,251796
 9.6000e+001 251897 -7.4594e+004 -7.1550e+005 -9.2338e+004 59807 251744,251848,251770
 9.6000e+001 251874 -8.9840e+004 -8.5879e+005  4.5535e+004 59807 251796,251848,251822
 9.6000e+001 252023  5.1587e+005 -3.5326e+006 -3.0779e+005 59517 251945,251997,251971
 9.6000e+001 252175  9.4891e+005 -8.0272e+006 -1.1960e+005 59269 252074,252126,252100
 9.6000e+001 252152 -3.9650e+003 -5.7609e+006  3.8043e+003 59269 252048,252126,252074
 9.6000e+001 252278 -9.0536e+005 -3.3283e+006  4.1564e+005 58979 252200,252252,252226
 9.6000e+001 252381 -2.6148e+006 -1.3955e+006  9.8453e+005 58689 252303,252355,252329
 9.6000e+001 252533 -9.2457e+005 -3.1485e+006 -6.0963e+005 58249 252432,252484,252458
 9.6000e+001 252510 -8.0613e+005 -3.3413e+006 -1.1017e+006 58249 252406,252484,252432
 9.6000e+001 252734  1.5650e+005 -2.4497e+006 -3.9811e+005 57902 252584,252662,252610
 9.6000e+001 252711  9.8993e+003 -1.7244e+006 -5.5027e+004 57902 252558,252662,252584
 9.6000e+001 252688  3.0761e+005 -2.3273e+006 -2.7031e+004 57902 252610,252662,252636
 9.6000e+001 252886  2.5644e+005 -5.5216e+006 -3.9698e+005 57540 252785,252837,252811
 9.6000e+001 252863  8.1457e+004 -3.2772e+006  2.1902e+005 57540 252759,252837,252785
 9.6000e+001 253038 -9.3618e+005 -5.8594e+006  1.6744e+006 57086 252937,252989,252963
 9.6000e+001 253015 -3.0654e+005 -8.2037e+005  3.3348e+005 57086 252911,252989,252937
 9.6000e+001 253239 -6.2472e+005 -4.5816e+006 -4.5552e+005 56796 253063,253141,253115
 9.6000e+001 253216 -3.0200e+005 -4.5308e+006 -3.7577e+005 56796 253063,253167,253141
 9.6000e+001 253193 -5.3703e+006 -3.3541e+005  3.4411e+005 56796 253063,253115,253089
 9.6000e+001 253342 -6.4780e+005 -1.0441e+007 -1.5606e+005 56349 253264,253316,253290
 9.6000e+001 253543 -1.7440e+005 -3.2972e+006 -1.2172e+006 56009 253367,253419,253393
 9.6000e+001 253520 -4.7562e+005 -1.4434e+006 -6.0161e+005 56009 253367,253445,253419
 9.6000e+001 253497 -4.0043e+005 -1.3471e+006 -6.6196e+005 56009 253367,253471,253445
 9.6000e+001 253695 -2.5381e+005 -8.6242e+005  4.3741e+005 55733 253594,253646,253620
 9.6000e+001 253672 -5.5268e+005 -3.1856e+005  4.0604e+005 55733 253568,253646,253594
 9.6000e+001 253798 -9.5146e+005 -1.0931e+006 -2.9226e+005 55557 253720,253772,253746
 9.6000e+001 253950 -5.8143e+005 -2.2799e+006  4.7504e+002 55153 253849,253901,253875
 9.6000e+001 253927 -3.1374e+005 -2.7010e+006 -4.7923e+005 55153 253823,253901,253849
 9.6000e+001 254151 -1.0711e+006 -3.1766e+006  2.0473e+005 54863 253975,254053,254001
 9.6000e+001 254128 -1.1323e+006 -2.7594e+006  3.5176e+005 54863 253975,254079,254053
 9.6000e+001 254105 -1.2063e+006 -5.6353e+006  1.3559e+006 54863 254001,254053,254027
 9.6000e+001 254303 -2.2240e+005 -4.4367e+005  2.9715e+005 54373 254176,254228,254202
 9.6000e+001 254280 -3.2470e+005 -5.4223e+005  3.6106e+005 54373 254176,254254,254228
 9.6000e+001 254455 -1.4894e+005 -4.0839e+006 -4.2715e+005 53975 254354,254406,254380
 9.6000e+001 254432 -3.2896e+005 -8.8401e+005  1.2082e+005 53975 254328,254406,254354
 9.6000e+001 254607 -5.9268e+004 -5.0422e+006  1.1140e+005 53585 254480,254532,254506
 9.6000e+001 254584 -4.9860e+005 -3.8896e+006  6.7362e+004 53585 254480,254558,254532
 9.6000e+001 254808 -5.7077e+005 -3.6233e+006  1.7240e+005 53245 254658,254736,254684
 9.6000e+001 254785 -8.6994e+005 -7.8258e+005 -5.4575e+005 53245 254632,254736,254658
 9.6000e+001 254762 -2.5795e+005 -1.0995e+006  4.6100e+005 53245 254684,254736,254710
 9.6000e+001 254911 -1.6734e+005 -1.6530e+006 -3.3907e+005 52955 254833,254885,254859
 9.6000e+001 255063 -4.2693e+005 -6.6449e+006  1.0301e+005 52551 254962,255014,254988
 9.6000e+001 255040 -6.2413e+005 -6.7149e+006  3.5892e+004 52551 254936,255014,254962
 9.6000e+001 255264 -1.0209e+006 -9.9478e+005 -5.9172e+005 52261 255114,255166,255140
 9.6000e+001 255241 -1.1232e+006 -2.0841e+006 -1.9760e+005 52261 255114,255192,255166
 9.6000e+001 255218 -4.6401e+006 -1.2773e+006  4.5650e+005 52261 255088,255192,255114
 9.6000e+001 255416 -1.0267e+006 -5.3934e+006  2.1743e+006 51971 255289,255341,255315
 9.6000e+001 255393 -2.7266e+005 -4.6480e+006 -4.8988e+005 51971 255289,255367,255341
 9.6000e+001 255568  1.0400e+005 -1.4180e+006 -4.9581e+005 51681 255441,255493,255467
 9.6000e+001 255545 -1.0443e+005 -1.1697e+006 -4.9845e+005 51681 255441,255519,255493
 9.6000e+001 255769 -2.7577e+005 -2.4560e+006  1.3608e+005 51291 255619,255697,255671
 9.6000e+001 255746 -2.5487e+005 -2.0959e+006 -2.2034e+005 51291 255593,255697,255619
 9.6000e+001 255723 -3.3624e+005 -6.1260e+006 -7.4783e+005 51291 255619,255671,255645
 9.6000e+001 255921 -6.8923e+005 -2.7251e+006  8.2367e+005 50951 255820,255872,255846
 9.6000e+001 255898 -1.8287e+005 -1.0724e+006 -4.1345e+004 50951 255794,255872,255820
 9.6000e+001 256171 -5.3008e+005 -5.8427e+006  1.0219e+006 50547 256024,256076,256050
 9.6000e+001 256148 -7.9402e+005 -4.1577e+006  1.6924e+005 50547 255972,256076,256024
 9.6000e+001 256125 -2.9992e+005 -3.5202e+006  6.3874e+005 50547 255946,256076,255972
 9.6000e+001 256102 -8.0237e+005 -5.6288e+006  6.5213e+005 50547 255972,256024,255998
 9.6000e+001 256323  9.3296e+004 -4.0005e+006  4.2644e+005 50093 256196,256248,256222
 9.6000e+001 256300 -1.0043e+006 -2.5078e+006 -7.6467e+005 50093 256196,256274,256248
 9.6000e+001 256426 -2.8064e+000 -1.4064e+002 -1.7023e+001 49845 256348,256400,256374
 9.6000e+001 256627  1.4020e+005 -6.1057e+006  8.3620e+004 49555 256477,256555,256503
 9.6000e+001 256604  5.6394e+004 -2.6177e+006  2.7572e+005 49555 256451,256555,256477
 9.6000e+001 256581 -3.4670e+005 -5.2655e+006  3.6274e+005 49555 256503,256555,256529
 9.6000e+001 256828 -4.1711e+005 -2.4183e+006 -3.9610e+005 49056 256652,256730,256678
 9.6000e+001 256805 -7.1914e+005 -2.1413e+006 -2.0565e+005 49056 256652,256756,256730
 9.6000e+001 256782 -3.4400e+005 -3.7001e+006  5.4174e+005 49056 256678,256730,256704
 9.6000e+001 256931 -4.5774e+004 -1.4902e+005  2.7740e+004 48766 256853,256905,256879
 9.6000e+001 257083 -1.6553e+006 -5.4190e+006 -7.7235e+005 48568 256982,257034,257008
 9.6000e+001 257060 -6.0715e+005 -1.2301e+006 -5.3713e+005 48568 256956,257034,256982
 9.6000e+001 257186 -1.7439e+003 -4.4554e+006  9.9542e+002 48228 257108,257160,257134
 9.6000e+001 257338 -1.1066e+006 -4.4131e+005  2.5001e+005 47888 257237,257289,257263
 9.6000e+001 257315 -3.9926e+005 -3.1789e+006  1.5232e+006 47888 257211,257289,257237
 9.6000e+001 257539 -4.5439e+005 -3.2651e+006  1.4545e+005 47548 257363,257441,257415
 9.6000e+001 257516 -6.9178e+005 -3.0097e+006 -3.1909e+005 47548 257363,257467,257441
 9.6000e+001 257493 -8.1370e+005 -2.3671e+006 -3.9881e+004 47548 257363,257415,257389
 9.6000e+001 257740  9.8789e+004 -6.1949e+006  6.4474e+005 46994 257564,257642,257616
 9.6000e+001 257717 -4.7583e+005 -3.8365e+006 -2.5725e+005 46994 257564,257668,257642
 9.6000e+001 257694 -9.8216e+005 -6.2190e+006 -2.4937e+005 46994 257564,257616,257590
 9.6000e+001 257843 -3.0741e+005 -9.2732e+005 -1.9143e+005 46654 257765,257817,257791
 9.6000e+001 257995 -5.4724e+005 -2.8577e+006  3.5637e+005 46364 257894,257946,257920
 9.6000e+001 257972 -7.0741e+005 -2.8428e+006  3.4901e+005 46364 257868,257946,257894
 9.6000e+001 258147 -1.1931e+004 -3.5519e+006  1.1106e+005 46024 258046,258098,258072
 9.6000e+001 258124 -4.4227e+005 -2.3615e+006  4.9425e+005 46024 258020,258098,258046
 9.6000e+001 258250 -5.5750e+005 -8.0314e+005  4.9980e+005 45741 258172,258224,258198
 9.6000e+001 258402 -8.3707e+005 -2.6851e+006  5.1370e+005 45401 258301,258353,258327
 9.6000e+001 258379 -3.0063e+005 -2.6162e+006  7.3232e+005 45401 258275,258353,258301
 9.6000e+001 258603 -6.5103e+005 -1.7886e+006  4.3475e+004 45071 258427,258505,258479
 9.6000e+001 258580 -2.9478e+005 -4.0645e+006  2.9187e+005 45071 258427,258531,258505
 9.6000e+001 258557 -3.2094e+005 -2.5563e+006  1.8805e+005 45071 258427,258479,258453
 9.6000e+001 258755 -1.7489e+005 -4.4717e+006 -3.3535e+005 44681 258654,258706,258680
 9.6000e+001 258732 -4.4112e+005 -2.9359e+006 -3.5730e+005 44681 258628,258706,258654
 9.6000e+001 258907 -2.5619e+005 -3.1032e+006 -1.7151e+005 44157 258806,258858,258832
 9.6000e+001 258884 -6.4713e+005 -2.4952e+006 -1.2382e+005 44157 258780,258858,258806
 9.6000e+001 259010 -5.7874e+005 -2.1018e+006 -2.5946e+004 43705 258932,258984,258958
 9.6000e+001 259113 -6.7785e+005 -1.8095e+006 -4.4271e+004 43284 259035,259087,259061
 9.6000e+001 259216 -3.8056e+005 -4.4389e+006 -1.4499e+005 42954 259138,259190,259164
 9.6000e+001 259319 -5.8886e+005 -1.4353e+006 -4.7717e+004 42116 259241,259293,259267
 9.6000e+001 259422 -5.1427e+005 -6.1864e+006  8.0487e+005 41804 259344,259396,259370
 9.6000e+001 259525 -6.7286e+005 -7.2079e+006  1.1882e+006 41219 259447,259499,259473
 9.6000e+001 259628 -4.6421e+005 -3.2376e+006 -6.2573e+005 385 259550,259602,259576
 9.8000e+001 190120 -8.1786e+004 -3.2448e+006 -3.8450e+005 189630 189993,190045,190019
 9.8000e+001 190097 -7.7693e+005 -2.6178e+006 -2.5584e+005 189630 189993,190071,190045
 9.8000e+001 190319 -1.4725e+006 -3.9916e+006 -2.3149e+005 189312 190169,190221,190195
 9.8000e+001 190296 -6.7816e+005 -3.2114e+006 -9.1574e+005 189312 190169,190247,190221
 9.8000e+001 190273 -8.9440e+005 -2.5611e+006  3.1461e+005 189312 190143,190247,190169
 9.8000e+001 190518 -3.9323e+005 -7.0535e+005 -1.2523e+005 189124 190368,190446,190420
 9.8000e+001 190495 -6.2289e+005 -3.6015e+005  1.3867e+005 189124 190342,190446,190368
 9.8000e+001 190472 -7.8959e+005 -7.6690e+005 -2.3350e+005 189124 190368,190420,190394
 9.8000e+001 190619 -4.6061e+005 -4.3756e+005 -1.6531e+004 188926 190541,190593,190567
 9.8000e+001 190771 -5.2162e+005 -8.5445e+005 -5.0174e+004 188614 190670,190722,190696
 9.8000e+001 190748 -4.4149e+005 -3.4167e+005  1.1416e+005 188614 190644,190722,190670
 9.8000e+001 190972 -6.3568e+005 -4.0868e+005 -2.2176e+005 188324 190848,190900,190874
 9.8000e+001 190949 -6.0882e+005 -1.1791e+006 -6.5664e+005 188324 190796,190900,190848
 9.8000e+001 190926  6.4232e+004 -2.4160e+005 -1.8587e+005 188324 190796,190848,190822
 9.8000e+001 191124 -5.1654e+005 -1.7253e+006 -1.6037e+005 188034 191023,191075,191049
 9.8000e+001 191101 -3.0942e+005 -1.7294e+006 -1.7254e+005 188034 190997,191075,191023
 9.8000e+001 191276 -2.3628e+005 -5.7744e+005 -2.4399e+004 187836 191149,191201,191175
 9.8000e+001 191253 -2.1478e+005 -3.3170e+005  1.1433e+005 187836 191149,191227,191201
 9.8000e+001 191379 -4.5931e+005 -3.3297e+005 -9.9223e+004 187546 191301,191353,191327
 9.8000e+001 191531 -2.3922e+005 -3.0589e+006  2.5532e+005 187256 191430,191482,191456
 9.8000e+001 191508 -1.2065e+006 -4.5197e+006 -1.4792e+006 187256 191404,191482,191430
 9.8000e+001 191634 -7.6026e+005 -1.6963e+005  1.0323e+005 187058 191556,191608,191582
 9.8000e+001 191835 -5.9490e+005 -2.1388e+005  6.2087e+004 186860 191659,191711,191685
 9.8000e+001 191812 -3.7316e+005 -8.3655e+005 -2.1002e+004 186860 191659,191737,191711
 9.8000e+001 191789 -3.7993e+005 -7.2644e+005  6.3944e+004 186860 191659,191763,191737
 9.8000e+001 191987 -5.6187e+005 -6.1282e+004  6.8948e+004 186662 191886,191938,191912
 9.8000e+001 191964 -3.3770e+005 -6.5616e+004  6.1158e+004 186662 191860,191938,191886
 9.8000e+001 192090 -6.6718e+005 -3.6104e+005  8.6782e+004 186486 192012,192064,192038
 9.8000e+001 192242 -1.2166e+005 -6.5238e+006 -3.3667e+005 186288 192115,192167,192141
 9.8000e+001 192219 -8.0368e+005 -3.8040e+006  7.8673e+004 186288 192115,192193,192167
 9.8000e+001 192394 -1.7326e+004 -5.1550e+006 -3.0638e+005 185935 192293,192345,192319
 9.8000e+001 192371 -4.9359e+005 -3.6168e+006 -6.6565e+005 185935 192267,192345,192293
 9.8000e+001 192546 -4.0915e+005 -3.5432e+006 -5.1468e+005 185675 192419,192471,192445
 9.8000e+001 192523 -9.7916e+005 -1.5681e+006 -5.5321e+005 185675 192419,192497,192471
 9.8000e+001 192649 -7.6969e+005 -1.0940e+006  1.7329e+005 185499 192571,192623,192597
 9.8000e+001 192801 -3.1279e+005 -1.5981e+006  3.6347e+005 185301 192674,192726,192700
 9.8000e+001 192778 -3.6729e+005 -1.4913e+006  5.3457e+004 185301 192674,192752,192726
 9.8000e+001 193002 -7.9949e+004 -5.2156e+005 -3.6586e+005 185046 192852,192930,192878
 9.8000e+001 192979 -3.3778e+005 -1.3701e+006 -1.7101e+005 185046 192826,192930,192852
 9.8000e+001 192956  4.0159e+005 -1.7531e+006 -2.6759e+004 185046 192878,192930,192904
 9.8000e+001 193203  2.7702e+005 -4.3478e+006 -7.1560e+005 184798 193079,193131,193105
 9.8000e+001 193180 -1.0234e+006 -2.7778e+006 -6.3729e+004 184798 193027,193131,193079
 9.8000e+001 193157 -1.7525e+006 -2.9627e+006 -1.8071e+004 184798 193027,193079,193053
 9.8000e+001 193404 -1.3796e+005 -4.4223e+006 -9.0410e+005 184600 193254,193306,193280
 9.8000e+001 193381 -3.5338e+005 -2.1090e+006 -1.6366e+005 184600 193254,193332,193306
 9.8000e+001 193358 -9.2853e+005 -5.6588e+005 -4.5618e+005 184600 193228,193332,193254
 9.8000e+001 193556 -1.7703e+005 -1.5261e+006 -3.6598e+005 184402 193429,193481,193455
 9.8000e+001 193533 -9.1106e+005 -8.6081e+005 -8.6234e+005 184402 193429,193507,193481
 9.8000e+001 193708 -1.7109e+005 -1.5153e+006  8.6652e+003 184204 193607,193659,193633
 9.8000e+001 193685 -6.0887e+005 -5.1619e+006 -1.0186e+006 184204 193581,193659,193607
 9.8000e+001 193860 -6.2424e+005 -1.0784e+006  6.3113e+005 183908 193759,193811,193785
 9.8000e+001 193837  1.3301e+005 -2.3137e+006  6.8108e+005 183908 193733,193811,193759
 9.8000e+001 194061 -6.1313e+005 -1.0920e+004  7.2771e+004 183710 193911,193989,193937
 9.8000e+001 194038 -4.5346e+005 -1.0345e+002 -1.5316e+005 183710 193885,193989,193911
 9.8000e+001 194015 -4.5713e+005 -9.8370e+002  3.6592e+003 183710 193937,193989,193963
 9.8000e+001 194262 -7.5181e+005 -2.3709e+006 -5.2112e+005 183420 194086,194164,194112
 9.8000e+001 194239 -6.4389e+005 -1.7613e+006 -2.4236e+005 183420 194086,194190,194164
 9.8000e+001 194216  3.3351e+005 -6.4980e+006  1.4416e+006 183420 194112,194164,194138
 9.8000e+001 194414 -6.9276e+005 -5.3173e+006 -8.1074e+003 183222 194287,194339,194313
 9.8000e+001 194391 -4.4130e+005 -1.1047e+006 -2.0793e+005 183222 194287,194365,194339
 9.8000e+001 194517 -7.8672e+005 -8.9016e+005  1.1743e+005 183024 194439,194491,194465
 9.8000e+001 194718  1.4113e+006 -1.2782e+007  1.5209e+006 182734 194568,194620,194594
 9.8000e+001 194695 -1.1575e+006 -3.3001e+006 -2.5788e+006 182734 194542,194620,194568
 9.8000e+001 194672 -2.8648e+006 -1.9358e+006 -1.2896e+006 182734 194542,194646,194620
 9.8000e+001 194870 -3.7863e+005 -1.2146e+006  2.3272e+005 182444 194769,194821,194795
 9.8000e+001 194847 -4.0166e+005 -2.0504e+006  8.2014e+005 182444 194743,194821,194769
 9.8000e+001 195071 -5.0683e+005 -1.8508e+006  1.1422e+006 182154 194895,194947,194921
 9.8000e+001 195048 -6.8424e+005 -6.4371e+005  3.3432e+004 182154 194895,194999,194947
 9.8000e+001 195025 -3.9059e+005 -2.1156e+005  2.4172e+005 182154 194947,194999,194973
 9.8000e+001 195223 -2.5761e+005 -4.1768e+005 -2.8868e+004 181814 195096,195148,195122
 9.8000e+001 195200 -4.9049e+005 -1.8008e+006 -9.9036e+005 181814 195096,195174,195148
 9.8000e+001 195375 -5.3554e+004 -8.6355e+004 -4.8912e+004 181524 195248,195300,195274
 9.8000e+001 195352  2.9590e+004 -4.2502e+005 -5.9196e+003 181524 195248,195326,195300
 9.8000e+001 195527 -1.7829e+005 -1.3439e+006 -6.5704e+005 181326 195426,195478,195452
 9.8000e+001 195504 -7.3476e+005 -5.0314e+005 -3.7746e+005 181326 195400,195478,195426
 9.8000e+001 195679  6.0105e+004 -8.3628e+006 -2.7319e+005 180936 195578,195630,195604
 9.8000e+001 195656 -5.6365e+005 -3.2676e+006 -1.6127e+005 180936 195552,195630,195578
 9.8000e+001 195831 -6.1886e+005 -5.8431e+005 -3.2004e+005 180646 195704,195756,195730
 9.8000e+001 195808 -6.3878e+005 -1.8408e+005 -7.8070e+004 180646 195704,195782,195756
 9.8000e+001 196032 -3.0762e+005 -2.0696e+006  3.6058e+005 180306 195882,195960,195934
 9.8000e+001 196009 -4.0835e+005 -8.9862e+005 -3.1453e+005 180306 195856,195960,195882
 9.8000e+001 195986  2.1134e+004 -2.2239e+006  1.5885e+005 180306 195882,195934,195908
 9.8000e+001 196233 -2.4163e+005 -3.1981e+005 -7.0429e+005 179944 196057,196109,196083
 9.8000e+001 196210 -9.4066e+005 -3.5941e+006  4.6434e+005 179944 196057,196135,196109
 9.8000e+001 196187 -1.8875e+006  3.5895e+006 -1.2676e+006 179944 196057,196161,196135
 9.8000e+001 196385 -4.4210e+005 -3.0347e+005 -1.1973e+005 179604 196258,196310,196284
 9.8000e+001 196362 -9.7567e+005 -1.1350e+006 -1.2552e+006 179604 196258,196336,196310
 9.8000e+001 196586 -7.5459e+005 -5.0997e+005 -5.9315e+005 179114 196410,196488,196436
 9.8000e+001 196563 -4.1539e+005 -2.2479e+006 -6.0478e+005 179114 196410,196514,196488
 9.8000e+001 196540 -4.7122e+003 -4.6852e+005 -4.7611e+004 179114 196436,196488,196462
 9.8000e+001 196738 -7.0518e+005 -1.5784e+006 -6.8425e+005 178674 196611,196663,196637
 9.8000e+001 196715 -1.3638e+004 -3.5789e+006 -1.4918e+005 178674 196611,196689,196663
 9.8000e+001 196939  1.2560e+006 -8.4378e+006 -8.0728e+005 178334 196789,196867,196841
 9.8000e+001 196916 -3.4882e+005 -8.8459e+006 -8.9984e+005 178334 196763,196867,196789
 9.8000e+001 196893 -1.3168e+006 -6.0399e+006 -2.8203e+006 178334 196789,196841,196815
 9.8000e+001 197091 -1.2142e+006 -2.9874e+006 -8.3445e+005 177930 196990,197042,197016
 9.8000e+001 197068 -1.7828e+006 -5.2587e+006 -7.9209e+005 177930 196964,197042,196990
 9.8000e+001 197194 -1.2287e+002 -5.3029e+001  3.3899e+001 177732 197116,197168,197142
 9.8000e+001 197346 -4.1683e+005 -5.4250e+006  2.1840e+005 177534 197219,197271,197245
 9.8000e+001 197323 -1.7145e+005 -5.8943e+006  4.5928e+005 177534 197219,197297,197271
 9.8000e+001 197547 -1.0717e+006 -6.6149e+006 -2.5770e+006 177130 197397,197449,197423
 9.8000e+001 197524 -2.5094e+006 -7.5008e+006 -1.5559e+006 177130 197397,197475,197449
 9.8000e+001 197501 -1.2598e+006 -1.2180e+007 -2.2733e+006 177130 197371,197475,197397
 9.8000e+001 197748 -6.6916e+005 -5.3404e+006  4.0994e+005 176790 197598,197676,197624
 9.8000e+001 197725 -4.2732e+005 -3.9919e+006  6.4851e+005 176790 197572,197676,197598
 9.8000e+001 197702 -5.5713e+005 -4.5118e+006  4.1610e+005 176790 197624,197676,197650
 9.8000e+001 197900 -2.9756e+005 -2.9835e+006 -5.3889e+005 176300 197773,197825,197799
 9.8000e+001 197877 -7.6391e+004 -4.3294e+006 -4.2192e+005 176300 197773,197851,197825
 9.8000e+001 198052 -1.3304e+006 -3.3459e+006 -1.0853e+006 176010 197925,197977,197951
 9.8000e+001 198029 -4.4847e+005 -6.8324e+006 -2.0327e+006 176010 197925,198003,197977
 9.8000e+001 198204 -1.1255e+006 -6.2210e+006 -2.6424e+006 175670 198103,198155,198129
 9.8000e+001 198181 -1.7219e+006 -4.5626e+006 -4.1545e+005 175670 198077,198155,198103
 9.8000e+001 198405 -4.6923e+005 -3.0136e+006 -4.5298e+005 175266 198255,198307,198281
 9.8000e+001 198382 -1.6453e+005 -5.2294e+006 -2.3418e+006 175266 198229,198307,198255
 9.8000e+001 198359 -1.3437e+006 -5.1168e+006 -2.4147e+006 175266 198229,198333,198307
 9.8000e+001 198606 -5.6027e+003 -1.4482e+005  1.7964e+004 174876 198430,198508,198482
 9.8000e+001 198583 -1.0230e+005 -1.6641e+005 -2.9012e+003 174876 198430,198534,198508
 9.8000e+001 198560 -3.8399e+004 -7.7800e+004  8.7720e+002 174876 198430,198482,198456
 9.8000e+001 198758 -5.6759e+004 -9.1098e+004 -7.1004e+004 174536 198657,198709,198683
 9.8000e+001 198735 -5.3035e+004 -7.8001e+004 -6.3190e+004 174536 198631,198709,198657
 9.8000e+001 199008 -1.0444e+006 -4.6113e+006 -6.3359e+004 174132 198835,198913,198887
 9.8000e+001 198985 -4.8880e+005 -1.7700e+006  4.1512e+005 174132 198809,198913,198835
 9.8000e+001 198962 -7.2086e+005 -2.0846e+006 -1.3138e+006 174132 198783,198913,198809
 9.8000e+001 198939 -5.0375e+005 -4.8097e+006  1.6446e+004 174132 198835,198887,198861
 9.8000e+001 199160 -1.1636e+006 -2.6815e+006 -6.0055e+005 173842 199059,199111,199085
 9.8000e+001 199137 -2.3617e+005 -1.0134e+006  1.9474e+005 173842 199033,199111,199059
 9.8000e+001 199361 -5.2138e+005 -4.2627e+006  9.7660e+005 173438 199237,199289,199263
 9.8000e+001 199338 -3.2931e+005 -4.3413e+006  1.0333e+006 173438 199211,199289,199237
 9.8000e+001 199315 -2.3545e+004 -6.3375e+006 -6.6014e+005 173438 199185,199289,199211
 9.8000e+001 199513 -1.0620e+006 -5.7567e+006 -1.9699e+004 173190 199386,199438,199412
 9.8000e+001 199490 -2.4316e+006 -5.6968e+006 -2.5946e+004 173190 199386,199464,199438
 9.8000e+001 199665 -4.1203e+005 -1.3986e+006  2.2185e+005 172750 199564,199616,199590
 9.8000e+001 199642 -7.8966e+005 -7.7429e+005 -2.0119e+004 172750 199538,199616,199564
 9.8000e+001 199817 -1.7381e+005 -3.2292e+006 -1.0728e+006 172524 199690,199742,199716
 9.8000e+001 199794 -1.2758e+006 -1.0554e+006 -7.0380e+005 172524 199690,199768,199742
 9.8000e+001 199969 -6.3766e+003 -5.5008e+006 -1.9095e+005 172348 199842,199894,199868
 9.8000e+001 199946  2.7249e+005 -5.4552e+006  7.8094e+004 172348 199842,199920,199894
 9.8000e+001 200121  1.2572e+005 -2.6521e+006 -4.5339e+005 172008 199994,200046,200020
 9.8000e+001 200098 -1.4315e+005 -1.1811e+006 -1.8917e+004 172008 199994,200072,200046
 9.8000e+001 200273 -2.3523e+006 -3.4779e+006 -2.2170e+006 171668 200172,200224,200198
 9.8000e+001 200250 -1.2890e+006 -3.5379e+006 -4.7650e+005 171668 200146,200224,200172
 9.8000e+001 200474  4.4263e+004 -4.0676e+006 -8.2318e+005 171264 200350,200402,200376
 9.8000e+001 200451 -2.9941e+005 -4.2718e+006 -9.8401e+005 171264 200324,200402,200350
 9.8000e+001 200428 -2.7974e+005 -2.7467e+006  8.7616e+005 171264 200298,200402,200324
 9.8000e+001 200626 -9.3598e+005 -4.5160e+006 -6.2627e+005 170832 200525,200577,200551
 9.8000e+001 200603 -3.0543e+005 -2.3628e+006 -8.4481e+004 170832 200499,200577,200525
 9.8000e+001 200827 -6.3826e+004 -2.4041e+006  4.8039e+005 170492 200677,200729,200703
 9.8000e+001 200804 -1.9247e+006 -8.4497e+005 -7.8832e+005 170492 200651,200729,200677
 9.8000e+001 200781 -1.4840e+006 -1.4971e+006 -1.1073e+006 170492 200651,200755,200729
 9.8000e+001 201077 -5.8374e+005 -2.7162e+006 -1.7655e+005 170088 200878,200956,200904
 9.8000e+001 201054 -4.3639e+005 -1.3776e+006 -2.3096e+005 170088 200852,200956,200878
 9.8000e+001 201031 -6.9165e+005 -1.3440e+006  2.0136e+006 170088 200904,200956,200930
 9.8000e+001 201008  2.2290e+005 -1.9879e+006  1.9138e+005 170088 200852,200982,200956
 9.8000e+001 201278 -6.8803e+003 -1.7306e+006  2.1568e+005 169798 201102,201154,201128
 9.8000e+001 201255  1.9525e+004 -1.5937e+006  1.5023e+005 169798 201102,201206,201154
 9.8000e+001 201232 -1.7455e+005 -1.0456e+006  2.1559e+005 169798 201154,201206,201180
 9.8000e+001 201430 -9.6457e+005 -4.2411e+006 -1.4486e+006 169337 201303,201355,201329
 9.8000e+001 201407 -9.3594e+005 -1.3393e+006 -2.1599e+004 169337 201303,201381,201355
 9.8000e+001 201631 -2.1850e+005 -3.2586e+006  4.4450e+005 168883 201481,201559,201507
 9.8000e+001 201608 -5.4329e+005 -2.5552e+006  8.5804e+005 168883 201455,201559,201481
 9.8000e+001 201585 -1.3811e+005 -1.9741e+006  5.4745e+005 168883 201507,201559,201533
 9.8000e+001 201832  3.5079e+005 -5.8239e+006  3.9738e+005 168479 201682,201734,201708
 9.8000e+001 201809 -2.0184e+006 -4.2110e+006 -1.0289e+006 168479 201656,201734,201682
 9.8000e+001 201786 -1.7565e+006 -3.1880e+006  6.4272e+004 168479 201656,201760,201734
 9.8000e+001 202033 -3.1416e+005 -2.0694e+006  2.7712e+004 167825 201883,201935,201909
 9.8000e+001 202010 -1.7462e+006 -3.3064e+006 -2.2067e+006 167825 201857,201935,201883
 9.8000e+001 201987 -2.6985e+005 -9.2069e+006 -1.4143e+006 167825 201857,201961,201935
 9.8000e+001 202234 -9.4383e+004 -1.1449e+006 -1.6782e+005 167435 202058,202136,202084
 9.8000e+001 202211 -3.2770e+005 -1.7783e+006  4.7987e+005 167435 202058,202162,202136
 9.8000e+001 202188 -9.2543e+004 -8.1010e+005  9.3029e+004 167435 202084,202136,202110
 9.8000e+001 202386  7.2200e+004 -2.3018e+006  3.2908e+005 167002 202285,202337,202311
 9.8000e+001 202363 -3.8703e+005 -5.7962e+005  3.5169e+005 167002 202259,202337,202285
 9.8000e+001 202538 -1.2629e+006 -3.6830e+006 -2.0596e+006 166662 202411,202463,202437
 9.8000e+001 202515 -1.1561e+006 -2.6359e+006 -2.1622e+006 166662 202411,202489,202463
 9.8000e+001 202690 -1.0025e+005 -1.8311e+006  1.3185e+005 166322 202589,202641,202615
 9.8000e+001 202667  2.9356e+005 -2.3812e+006 -5.2414e+005 166322 202563,202641,202589
 9.8000e+001 202891 -3.9367e+004 -9.6744e+005 -1.1148e+003 165918 202715,202767,202741
 9.8000e+001 202868 -1.6779e+005 -1.6172e+006 -2.5184e+005 165918 202715,202793,202767
 9.8000e+001 202845 -1.0830e+006 -1.2606e+006 -3.0063e+005 165918 202715,202819,202793
 9.8000e+001 203092 -7.9195e+005 -1.2065e+006 -6.7562e+005 165628 202916,202968,202942
 9.8000e+001 203069  2.0805e+004 -2.4667e+006 -8.2046e+005 165628 202916,202994,202968
 9.8000e+001 203046 -1.4205e+005 -4.1701e+006  6.9069e+005 165628 202916,203020,202994
 9.8000e+001 203293 -3.0041e+006 -1.6848e+006 -2.1915e+006 165266 203143,203195,203169
 9.8000e+001 203270 -1.1627e+006 -4.4276e+006 -4.7033e+005 165266 203143,203221,203195
 9.8000e+001 203247 -7.8468e+005 -4.7128e+006 -8.0318e+005 165266 203117,203221,203143
 9.8000e+001 203445 -3.1166e+005 -1.6033e+006  5.3869e+005 164826 203318,203370,203344
 9.8000e+001 203422 -1.2337e+005 -1.0441e+006 -1.1376e+005 164826 203318,203396,203370
 9.8000e+001 203597 -1.1187e+006 -5.8515e+005 -1.3788e+004 164386 203470,203522,203496
 9.8000e+001 203574 -1.5456e+006 -2.2901e+006 -1.0707e+005 164386 203470,203548,203522
 9.8000e+001 203798 -4.4495e+005  2.7278e+004  4.6163e+004 163996 203622,203674,203648
 9.8000e+001 203775 -8.6595e+005 -2.9723e+004  1.9403e+005 163996 203622,203726,203674
 9.8000e+001 203752 -8.1975e+005 -3.3126e+003 -5.2697e+004 163996 203674,203726,203700
 9.8000e+001 203901 -3.3263e+005 -7.3195e+005  1.8719e+005 163770 203823,203875,203849
 9.8000e+001 204053 -1.8035e+006 -3.0705e+006 -1.3992e+006 163474 203952,204004,203978
 9.8000e+001 204030 -1.2235e+006 -2.6122e+006 -8.1121e+005 163474 203926,204004,203952
 9.8000e+001 204205  1.9057e+005 -9.9681e+005 -4.3266e+005 163034 204104,204156,204130
 9.8000e+001 204182 -3.6188e+005 -1.6260e+006 -1.0693e+006 163034 204078,204156,204104
 9.8000e+001 204357 -4.0901e+004 -5.1242e+003  1.4389e+004 162624 204256,204308,204282
 9.8000e+001 204334 -4.0846e+004 -5.1596e+003  1.4491e+004 162624 204230,204308,204256
 9.8000e+001 204509 -7.2675e+005 -1.2866e+005  2.7815e+005 162200 204382,204434,204408
 9.8000e+001 204486 -6.0131e+005 -3.9750e+005  6.0095e+005 162200 204382,204460,204434
 9.8000e+001 204710 -1.7292e+006 -3.6072e+005  3.2259e+005 161810 204560,204638,204586
 9.8000e+001 204687 -1.1253e+006 -1.3156e+006 -9.8631e+005 161810 204534,204638,204560
 9.8000e+001 204664 -1.5650e+006 -2.6288e+005  5.0951e+005 161810 204586,204638,204612
 9.8000e+001 204862 -6.8362e+005 -6.9841e+005 -2.0381e+005 161406 204735,204787,204761
 9.8000e+001 204839 -1.7516e+004 -1.4981e+006  2.1000e+004 161406 204735,204813,204787
 9.8000e+001 205014  4.8930e+001 -1.7236e+001 -1.1182e+001 161180 204887,204939,204913
 9.8000e+001 204991 -1.1840e+001 -1.9380e+001 -1.1999e+001 161180 204887,204965,204939
 9.8000e+001 205215 -5.8125e+005 -1.8109e+006 -1.9097e+006 160726 205039,205091,205065
 9.8000e+001 205192 -6.8462e+005 -2.4411e+006 -1.2616e+006 160726 205039,205143,205091
 9.8000e+001 205169 -1.4187e+006 -3.9911e+006 -1.8126e+006 160726 205091,205143,205117
 9.8000e+001 205416 -3.1770e+002  2.6242e+001  6.0541e+001 160272 205292,205344,205318
 9.8000e+001 205393 -4.7098e+002  1.6804e+002 -5.2703e+001 160272 205240,205344,205292
 9.8000e+001 205370 -4.8593e+002 -1.6302e+002 -3.6836e+002 160272 205240,205292,205266
 9.8000e+001 205568 -2.3377e+002 -7.3503e+001 -1.8310e+002 159932 205441,205493,205467
 9.8000e+001 205545 -2.6354e+002 -5.5344e+001 -6.7885e+001 159932 205441,205519,205493
 9.8000e+001 205720 -2.0766e+002 -3.1633e+002  2.3840e+002 159542 205593,205645,205619
 9.8000e+001 205697 -2.7092e+002 -1.8275e+002  2.0615e+002 159542 205593,205671,205645
 9.8000e+001 205872 -1.6779e+002 -8.7777e+001  7.3697e+001 159252 205745,205797,205771
 9.8000e+001 205849 -6.2374e+001  1.4986e+002  1.8465e+002 159252 205745,205823,205797
 9.8000e+001 206024 -1.8281e+005 -1.2060e+006  2.7219e+005 159004 205923,205975,205949
 9.8000e+001 206001 -1.2442e+005 -1.9014e+006  4.2494e+005 159004 205897,205975,205923
 9.8000e+001 206127 -3.8982e+006 -3.2858e+006  3.9807e+003 158364 206049,206101,206075
 9.8000e+001 206328 -6.0545e+005 -2.1327e+004  3.4087e+005 157960 206178,206256,206204
 9.8000e+001 206305 -2.2514e+005 -1.6420e+005  1.5711e+005 157960 206152,206256,206178
 9.8000e+001 206282 -5.7883e+005 -2.0759e+005  3.4439e+005 157960 206204,206256,206230
 9.8000e+001 206529 -1.3801e+006 -3.0690e+006  9.3626e+005 157648 206405,206457,206431
 9.8000e+001 206506 -2.1817e+006 -8.6562e+005  7.9121e+005 157648 206379,206457,206405
 9.8000e+001 206483 -2.2574e+006 -6.2108e+005  1.1021e+006 157648 206353,206457,206379
 9.8000e+001 206730 -8.6398e+004 -5.9327e+005  2.5362e+005 157208 206554,206606,206580
 9.8000e+001 206707 -1.7883e+005 -4.5338e+005  2.6660e+005 157208 206554,206632,206606
 9.8000e+001 206684 -3.2907e+005 -5.5663e+005 -1.5800e+005 157208 206554,206658,206632
 9.8000e+001 206882  1.3446e+002 -3.2498e+002 -2.9266e+002 157010 206755,206807,206781
 9.8000e+001 206859  4.3540e+001 -1.3961e+003  4.2930e+002 157010 206755,206833,206807
 9.8000e+001 207034 -3.2905e+004  1.3046e+005 -2.1198e+004 156620 206907,206959,206933
 9.8000e+001 207011  2.3837e+004 -5.5583e+005  1.4239e+004 156620 206907,206985,206959
 9.8000e+001 207186 -2.6306e+005 -1.5618e+006 -2.3412e+005 156330 207085,207137,207111
 9.8000e+001 207163 -6.8001e+005 -1.7728e+006 -1.4991e+006 156330 207059,207137,207085
 9.8000e+001 207387 -9.0377e+004 -7.3044e+005 -1.8630e+005 155890 207211,207289,207237
 9.8000e+001 207364 -1.1114e+006 -1.0107e+006 -6.7580e+005 155890 207211,207315,207289
 9.8000e+001 207341 -2.5532e+005 -4.7162e+005 -3.5931e+004 155890 207237,207289,207263
 9.8000e+001 207588 -7.2656e+005 -1.7787e+007  7.0137e+006 155436 207438,207490,207464
 9.8000e+001 207565 -1.2676e+006 -1.2186e+007 -8.3180e+005 155436 207412,207490,207438
 9.8000e+001 207542 -2.5170e+006 -5.3975e+006 -9.9114e+005 155436 207412,207516,207490
 9.8000e+001 207789  1.6258e+006 -2.5949e+007 -1.8883e+006 155260 207639,207691,207665
 9.8000e+001 207766 -3.4902e+006 -7.4998e+006  3.9323e+006 155260 207613,207691,207639
 9.8000e+001 207743 -1.3901e+006 -5.3991e+006 -6.2068e+004 155260 207613,207717,207691
 9.8000e+001 207990 -1.1587e+002 -1.0400e+002 -3.2462e+001 154920 207840,207918,207892
 9.8000e+001 207967  7.4941e+001 -7.0761e+001 -4.9535e+000 154920 207814,207918,207840
 9.8000e+001 207944  1.5436e+002 -1.9659e+002 -5.2577e+001 154920 207840,207892,207866
 9.8000e+001 208191 -3.6087e+004 -8.7491e+005  8.4665e+004 154630 208015,208093,208041
 9.8000e+001 208168 -2.7049e+003 -8.7886e+005  3.9863e+004 154630 208015,208119,208093
 9.8000e+001 208145 -1.3879e+005 -2.4895e+005 -1.8616e+005 154630 208041,208093,208067
 9.8000e+001 208343  3.5849e+000  2.5632e-001 -9.5859e-001 154240 208216,208268,208242
 9.8000e+001 208320 -6.8543e+000 -4.9008e-001  1.8328e+000 154240 208216,208294,208268
 9.8000e+001 208495  4.8810e+005 -3.2303e+006 -4.1707e+005 153950 208394,208446,208420
 9.8000e+001 208472 -2.1601e+005 -5.3127e+005  2.2974e+005 153950 208368,208446,208394
 9.8000e+001 208647 -5.7198e+005 -3.7608e+005  8.9604e+005 153603 208520,208572,208546
 9.8000e+001 208624 -6.3912e+005 -7.7722e+005 -5.6755e+005 153603 208520,208598,208572
 9.8000e+001 208848 -1.1219e+006 -4.8594e+005  2.9535e+005 153149 208698,208776,208724
 9.8000e+001 208825 -2.1302e+006 -4.6377e+005  1.8569e+005 153149 208672,208776,208698
 9.8000e+001 208802 -7.1648e+005 -4.8006e+005  5.2108e+005 153149 208724,208776,208750
 9.8000e+001 209000 -9.9662e+004 -1.1416e+006 -4.1373e+004 152859 208873,208925,208899
 9.8000e+001 208977 -3.8526e+005 -1.1225e+006  5.9792e+004 152859 208873,208951,208925
 9.8000e+001 209152  6.8241e+004 -1.5034e+006 -4.0299e+004 152569 209051,209103,209077
 9.8000e+001 209129 -1.6183e+005 -9.1865e+005  2.5991e+005 152569 209025,209103,209051
 9.8000e+001 209304  6.1818e+000  2.3345e+000  3.7989e+000 152065 209177,209229,209203
 9.8000e+001 209281 -1.4130e+001 -5.3363e+000 -8.6836e+000 152065 209177,209255,209229
 9.8000e+001 209456 -1.9078e+006 -1.3579e+006 -6.4026e+005 151775 209355,209407,209381
 9.8000e+001 209433 -1.0792e+006 -1.6859e+006 -1.6983e+005 151775 209329,209407,209355
 9.8000e+001 209608 -1.3002e+006 -2.1221e+006 -1.0499e+006 151371 209481,209533,209507
 9.8000e+001 209585  5.5739e+005 -4.5830e+006 -5.4635e+005 151371 209481,209559,209533
 9.8000e+001 209760 -3.4394e+005 -7.1054e+004 -1.4312e+005 150981 209659,209711,209685
 9.8000e+001 209737 -8.0171e+005 -2.8056e+005 -3.4690e+005 150981 209633,209711,209659
 9.8000e+001 209912  2.0050e+006 -2.7045e+007 -2.4308e+006 150619 209811,209863,209837
 9.8000e+001 209889 -2.5423e+006 -1.0999e+007  3.0822e+006 150619 209785,209863,209811
 9.8000e+001 210064 -4.9834e+005 -1.1673e+006 -9.3510e+004 150279 209937,209989,209963
 9.8000e+001 210041 -3.2647e+005 -2.8520e+005 -2.2589e+005 150279 209937,210015,209989
 9.8000e+001 210265 -2.6713e+006 -3.3898e+006 -4.7092e+005 149989 210115,210167,210141
 9.8000e+001 210242 -2.0091e+006 -4.8631e+006 -2.1425e+006 149989 210115,210193,210167
 9.8000e+001 210219 -6.6566e+005 -3.4571e+006 -1.1788e+006 149989 210089,210193,210115
 9.8000e+001 210417 -1.8065e+005 -9.0452e+005 -3.3225e+005 149599 210316,210368,210342
 9.8000e+001 210394 -6.2753e+004 -2.6491e+005 -2.0243e+004 149599 210290,210368,210316
 9.8000e+001 210618 -3.4268e+006 -1.2128e+007  3.6428e+006 149095 210468,210520,210494
 9.8000e+001 210595 -2.9387e+006 -1.1917e+007  2.7497e+006 149095 210442,210520,210468
 9.8000e+001 210572 -1.3491e+006 -1.3137e+007  2.2706e+006 149095 210442,210546,210520
 9.8000e+001 210819  2.9975e+001 -2.6747e+002 -2.4253e+000 148748 210695,210747,210721
 9.8000e+001 210796  9.9247e+001  2.4390e+002 -1.5539e+002 148748 210669,210747,210695
 9.8000e+001 210773 -7.6077e+002  3.2158e+002 -1.9688e+002 148748 210643,210747,210669
 9.8000e+001 210971  1.5536e+004 -2.9341e+005  7.5763e+004 148408 210870,210922,210896
 9.8000e+001 210948 -4.2726e+004 -6.3805e+004  3.7988e+004 148408 210844,210922,210870
 9.8000e+001 211123 -1.1368e+005 -8.7579e+005  2.3816e+005 148118 210996,211048,211022
 9.8000e+001 211100 -4.1311e+005 -8.5316e+005  6.0360e+005 148118 210996,211074,211048
 9.8000e+001 211275 -2.2281e+005 -5.7842e+005  2.2254e+005 147778 211148,211200,211174
 9.8000e+001 211252 -4.9106e+005 -1.3320e+006  8.6141e+005 147778 211148,211226,211200
 9.8000e+001 211427 -6.3884e+004 -3.7247e+005  5.8398e+004 147324 211326,211378,211352
 9.8000e+001 211404 -2.6031e+004 -1.0181e+006 -4.1845e+005 147324 211300,211378,211326
 9.8000e+001 211628 -1.9888e+006 -1.2630e+006  8.5255e+005 147012 211452,211504,211478
 9.8000e+001 211605 -1.9941e+006  4.0768e+005  1.1946e+006 147012 211452,211556,211504
 9.8000e+001 211582 -1.8819e+006 -6.4727e+005  1.6935e+006 147012 211504,211556,211530
 9.8000e+001 211829 -7.4795e+005 -3.7363e+005 -3.2486e+004 146636 211679,211757,211731
 9.8000e+001 211806 -2.5022e+005 -1.4690e+006 -1.9616e+005 146636 211653,211757,211679
 9.8000e+001 211783 -3.0472e+005 -2.6473e+005 -6.6185e+004 146636 211679,211731,211705
 9.8000e+001 211981  2.2179e+002 -4.4424e+004  7.0012e+002 146246 211880,211932,211906
 9.8000e+001 211958 -3.2011e+002  5.9541e+001  6.0860e+001 146246 211854,211932,211880
 9.8000e+001 212133 -1.8188e+004 -1.9594e+005  7.0127e+004 145956 212006,212058,212032
 9.8000e+001 212110 -1.1710e+004 -7.4765e+004  2.0993e+004 145956 212006,212084,212058
 9.8000e+001 212285 -3.6931e+003 -1.0221e+005  1.7213e+003 145544 212184,212236,212210
 9.8000e+001 212262  1.4389e+003 -8.3211e+003 -6.3292e+002 145544 212158,212236,212184
 9.8000e+001 212486 -1.9388e+005 -1.5783e+007  3.7888e+006 144990 212362,212414,212388
 9.8000e+001 212463  3.1138e+005 -1.2344e+007  5.7071e+006 144990 212310,212414,212362
 9.8000e+001 212440 -5.7179e+006 -2.5911e+006  1.5034e+006 144990 212310,212362,212336
 9.8000e+001 212638 -1.5355e+005 -4.0481e+005  2.3759e+005 144600 212537,212589,212563
 9.8000e+001 212615 -1.6374e+005 -4.6644e+005  2.3429e+005 144600 212511,212589,212537
 9.8000e+001 212839 -1.2606e+005 -7.7795e+005  8.8995e+004 144210 212689,212741,212715
 9.8000e+001 212816 -1.3455e+005 -8.7825e+005  2.8519e+005 144210 212663,212741,212689
 9.8000e+001 212793 -1.1027e+005 -7.8947e+005  2.6219e+005 144210 212663,212767,212741
 9.8000e+001 212991  3.3631e+002 -3.9431e+002 -2.0323e+001 143920 212890,212942,212916
 9.8000e+001 212968  1.7587e+002  5.8778e+002 -5.5376e+001 143920 212864,212942,212890
 9.8000e+001 213143 -2.1023e+002  3.7323e+001 -2.1096e+002 143480 213016,213068,213042
 9.8000e+001 213120 -1.4790e+002 -1.4832e+002 -2.2992e+001 143480 213016,213094,213068
 9.8000e+001 213295 -1.0834e+004 -2.0794e+005  4.6818e+004 142990 213194,213246,213220
 9.8000e+001 213272 -1.0266e+004 -2.0581e+005  4.6612e+004 142990 213168,213246,213194
 9.8000e+001 213447 -6.7496e+000 -1.1138e+003  1.9868e+002 142600 213320,213372,213346
 9.8000e+001 213424 -2.8135e+002 -3.8882e+003  2.8937e+003 142600 213320,213398,213372
 9.8000e+001 213599 -6.0472e+004 -3.8110e+005  1.2121e+005 142260 213472,213524,213498
 9.8000e+001 213576 -1.6305e+005 -3.8855e+005  2.2650e+005 142260 213472,213550,213524
 9.8000e+001 213751 -9.3326e+004 -4.2082e+003  5.5152e+004 141870 213624,213676,213650
 9.8000e+001 213728 -1.3879e+005 -4.8590e+003  3.0159e+004 141870 213624,213702,213676
 9.8000e+001 213903 -1.6873e+006 -1.9871e+006 -1.8263e+006 141530 213776,213828,213802
 9.8000e+001 213880 -4.5698e+005 -2.3086e+006 -9.0285e+005 141530 213776,213854,213828
 9.8000e+001 214055 -4.6586e+006 -3.3186e+005  6.4404e+005 141218 213928,213980,213954
 9.8000e+001 214032 -2.7800e+006 -6.2973e+005  1.7382e+005 141218 213928,214006,213980
 9.8000e+001 214207 -4.1524e+004 -2.4090e+005  1.6712e+005 140928 214080,214132,214106
 9.8000e+001 214184 -1.3346e+004 -1.6683e+005  1.3906e+004 140928 214080,214158,214132
 9.8000e+001 214359 -2.9253e+004 -2.0819e+005 -1.2695e+003 140538 214232,214284,214258
 9.8000e+001 214336 -1.6586e+005 -5.2690e+005  4.1421e+005 140538 214232,214310,214284
 9.8000e+001 214560 -2.3730e+005 -3.6436e+006  7.9714e+005 140248 214384,214462,214410
 9.8000e+001 214537  1.4045e+005 -1.9683e+006  4.0434e+005 140248 214384,214488,214462
 9.8000e+001 214514 -2.5080e+005 -2.6196e+006  1.1057e+004 140248 214410,214462,214436
 9.8000e+001 214712 -3.9289e+004 -1.7670e+004  8.3136e+003 140000 214611,214663,214637
 9.8000e+001 214689 -3.4799e+004 -6.1808e+004  5.8323e+004 140000 214585,214663,214611
 9.8000e+001 214913 -3.0087e+005 -2.1647e+006 -4.7616e+005 139596 214737,214815,214763
 9.8000e+001 214890 -2.4237e+005 -1.2184e+006  2.4159e+004 139596 214737,214841,214815
 9.8000e+001 214867  8.1376e+005 -7.2389e+006  8.5726e+005 139596 214763,214815,214789
 9.8000e+001 215016  7.5168e+001 -1.3669e+002  6.9770e+001 139420 214938,214990,214964
 9.8000e+001 215168 -4.3007e+006 -9.1081e+006  6.3407e+006 139130 215067,215119,215093
 9.8000e+001 215145 -2.7484e+006 -1.0203e+007  4.6818e+006 139130 215041,215119,215067
 9.8000e+001 215320 -2.8057e+006 -4.2712e+006  2.9851e+006 138790 215219,215271,215245
 9.8000e+001 215297 -2.7269e+006 -1.0718e+007  6.5053e+006 138790 215193,215271,215219
 9.8000e+001 215472 -4.8485e+004 -3.8462e+005  1.4779e+005 138514 215345,215397,215371
 9.8000e+001 215449 -7.3684e+004 -3.6759e+005  1.3096e+005 138514 215345,215423,215397
 9.8000e+001 215624 -4.0828e+005 -7.9007e+006  2.1046e+006 138174 215497,215549,215523
 9.8000e+001 215601 -7.4580e+005 -5.4743e+006  1.6851e+006 138174 215497,215575,215549
 9.8000e+001 215776 -8.2321e+005  9.1647e+003 -2.4493e+004 137734 215649,215701,215675
 9.8000e+001 215753 -1.0396e+006 -3.9376e+004 -4.1755e+004 137734 215649,215727,215701
 9.8000e+001 215977  1.4265e+006 -5.5060e+006 -4.3047e+005 137344 215801,215879,215827
 9.8000e+001 215954 -1.0711e+006 -1.2592e+006 -5.9130e+005 137344 215801,215905,215879
 9.8000e+001 215931 -3.8344e+005 -6.6146e+006 -4.0623e+006 137344 215827,215879,215853
 9.8000e+001 216129 -1.5834e+002 -7.5895e+001  9.2817e+001 136940 216028,216080,216054
 9.8000e+001 216106 -1.8916e+002 -2.3443e+002  1.2599e+002 136940 216002,216080,216028
 9.8000e+001 216330 -7.9244e+005 -8.3579e+006  5.3033e+005 136600 216180,216232,216206
 9.8000e+001 216307 -1.3532e+006 -8.4015e+006  3.9756e+006 136600 216154,216232,216180
 9.8000e+001 216284 -7.2769e+005 -4.3458e+006  1.2480e+006 136600 216154,216258,216232
 9.8000e+001 216482  1.0122e+006 -5.1855e+006  1.0833e+006 136260 216381,216433,216407
 9.8000e+001 216459  9.8385e+005 -4.0739e+006  1.1731e+006 136260 216355,216433,216381
 9.8000e+001 216634 -5.7367e+004 -1.3664e+004  2.5511e+004 135970 216533,216585,216559
 9.8000e+001 216611 -4.6825e+004 -7.9070e+004  7.7543e+004 135970 216507,216585,216533
 9.8000e+001 216835 -8.3405e+004 -3.3657e+006  2.8077e+005 135608 216685,216763,216711
 9.8000e+001 216812  1.5451e+005 -3.7529e+006 -3.3756e+005 135608 216659,216763,216685
 9.8000e+001 216789  3.2676e+004 -9.0716e+005 -1.0332e+004 135608 216711,216763,216737
 9.8000e+001 217036 -7.0411e-001 -1.1869e-001  2.0967e-001 135312 216912,216964,216938
 9.8000e+001 217013  5.2965e-001  8.8668e-002 -1.2000e-001 135312 216886,216964,216912
 9.8000e+001 216990 -1.4895e-001 -6.7627e-001  4.1023e-001 135312 216860,216964,216886
 9.8000e+001 217237 -2.0172e+005 -1.1484e+006  3.9779e+005 134908 217061,217139,217113
 9.8000e+001 217214 -3.9864e+005 -1.2455e+006  7.7287e+005 134908 217061,217165,217139
 9.8000e+001 217191 -5.0858e+005 -1.3824e+006  5.5636e+005 134908 217061,217113,217087
 9.8000e+001 217438 -8.1931e+005 -6.3128e+006 -2.1571e+006 134568 217288,217366,217314
 9.8000e+001 217415 -1.7488e+006 -6.7996e+006 -2.5201e+006 134568 217262,217366,217288
 9.8000e+001 217392 -1.5716e+006 -8.7318e+006 -3.2171e+006 134568 217314,217366,217340
 9.8000e+001 217590 -2.8642e+004 -4.0079e+005  8.5614e+004 134106 217463,217515,217489
 9.8000e+001 217567 -7.0165e+004 -4.6780e+005  1.9608e+005 134106 217463,217541,217515
 9.8000e+001 217791 -2.7187e+002 -1.2143e+003 -5.7456e+002 133816 217641,217693,217667
 9.8000e+001 217768 -1.6382e+006 -9.2559e+006 -3.8939e+006 133816 217641,217719,217693
 9.8000e+001 217745 -5.6812e+006 -1.4514e+006  2.8715e+006 133816 217615,217719,217641
 9.8000e+001 217992 -5.7488e+006 -3.5673e+006  4.4027e+006 133355 217842,217920,217894
 9.8000e+001 217969 -5.4996e+005 -1.0397e+007  2.6964e+006 133355 217816,217920,217842
 9.8000e+001 217946 -1.9781e+006 -2.0920e+006  2.2485e+006 133355 217842,217894,217868
 9.8000e+001 218193 -4.5657e+004 -7.0244e+006  4.6868e+005 132851 218017,218095,218069
 9.8000e+001 218170 -6.3495e+006 -6.5496e+006  7.0562e+006 132851 218017,218121,218095
 9.8000e+001 218147 -1.7189e+006 -3.4909e+006 -9.0494e+005 132851 218017,218069,218043
 9.8000e+001 218345  4.6429e-002 -1.8256e-002  5.4253e-003 132511 218244,218296,218270
 9.8000e+001 218322 -7.3939e-002 -6.6247e-003  1.4284e-002 132511 218218,218296,218244
 9.8000e+001 218497  2.5164e+006 -1.5806e+007  2.6092e+006 132235 218396,218448,218422
 9.8000e+001 218474  1.8472e+006 -1.0456e+007  2.7653e+006 132235 218370,218448,218396
 9.8000e+001 218698 -2.6663e+005 -4.7336e+006 -6.2862e+005 131945 218574,218626,218600
 9.8000e+001 218675 -1.2593e+006 -7.4372e+006 -2.1515e+006 131945 218522,218626,218574
 9.8000e+001 218652 -2.1098e+006 -4.6427e+006 -2.8434e+006 131945 218522,218574,218548
 9.8000e+001 218850 -1.1195e+006 -7.9759e+006  2.2332e+006 131655 218723,218775,218749
 9.8000e+001 218827 -7.6813e+005 -1.1885e+007  1.9130e+006 131655 218723,218801,218775
 9.8000e+001 218953 -2.7158e+005 -4.5326e+004  4.7610e+003 131215 218875,218927,218901
 9.8000e+001 219105 -1.1010e+005 -2.3832e+006 -1.6829e+005 130875 218978,219030,219004
 9.8000e+001 219082 -1.5790e+005 -1.0931e+006  4.7005e+004 130875 218978,219056,219030
 9.8000e+001 219306 -3.3545e+005 -1.3316e+006  3.4705e+005 130429 219156,219234,219208
 9.8000e+001 219283 -5.5160e+005 -9.9195e+005  3.3240e+005 130429 219130,219234,219156
 9.8000e+001 219260 -1.8755e+006 -1.7045e+006  7.5806e+005 130429 219156,219208,219182
 9.8000e+001 219507 -5.7577e+005 -1.4676e+006  8.6963e+005 130025 219383,219435,219409
 9.8000e+001 219484 -5.8321e+005 -2.1919e+006  1.1404e+006 130025 219331,219435,219383
 9.8000e+001 219461 -5.3160e+005 -1.3103e+006  6.8768e+005 130025 219331,219383,219357
 9.8000e+001 219659 -7.4517e+002 -4.6978e+002 -3.3936e+002 129685 219558,219610,219584
 9.8000e+001 219636 -2.5146e+002 -4.2496e+002 -6.2971e+002 129685 219532,219610,219558
 9.8000e+001 219860 -4.8423e+005 -9.8061e+005  6.9084e+005 129395 219710,219788,219762
 9.8000e+001 219837 -4.5718e+005 -1.5963e+006  6.8669e+005 129395 219684,219788,219710
 9.8000e+001 219814 -3.4712e+005 -1.1012e+006  6.1814e+005 129395 219710,219762,219736
 9.8000e+001 220061  2.2842e+002  5.9348e+001 -1.7785e+002 128991 219937,219989,219963
 9.8000e+001 220038  5.8590e+001 -1.1469e+001 -2.7923e+002 128991 219885,219989,219937
 9.8000e+001 220015  8.5966e+001  1.1238e+002 -1.6979e+002 128991 219885,219937,219911
 9.8000e+001 220262  2.1673e+002  8.2491e+001 -1.5266e+002 128701 220086,220164,220112
 9.8000e+001 220239 -1.9212e+002  1.4266e+002 -1.3920e+002 128701 220086,220190,220164
 9.8000e+001 220216 -9.5857e+002 -3.4017e+002 -3.1249e+002 128701 220112,220164,220138
 9.8000e+001 220463 -3.1763e+006 -7.5559e+006  4.0000e+006 128297 220339,220391,220365
 9.8000e+001 220440 -2.0477e+006 -1.1039e+007  3.1378e+006 128297 220313,220391,220339
 9.8000e+001 220417 -3.9060e+005 -1.3949e+007 -1.8840e+006 128297 220287,220391,220313
 9.8000e+001 220615 -1.4130e+003 -1.8534e+003  4.9303e+002 128007 220488,220540,220514
 9.8000e+001 220592 -1.7429e+003 -2.1106e+001  5.9582e+002 128007 220488,220566,220540
 9.8000e+001 220767 -3.6562e+004 -2.0210e+006  1.7038e+005 127567 220640,220692,220666
 9.8000e+001 220744 -2.7348e+005 -8.5845e+005  7.4376e+004 127567 220640,220718,220692
 9.8000e+001 220919 -6.1178e+005 -1.0056e+007 -7.5546e+005 127163 220792,220844,220818
 9.8000e+001 220896 -2.3504e+006 -1.3719e+007  3.8292e+006 127163 220792,220870,220844
 9.8000e+001 221071 -2.8600e+006 -2.4146e+006  1.9384e+006 126915 220970,221022,220996
 9.8000e+001 221048 -1.7458e+006 -3.2592e+006  2.0662e+006 126915 220944,221022,220970
 9.8000e+001 221272 -1.8695e+006 -5.4238e+006  3.0747e+006 126461 221122,221174,221148
 9.8000e+001 221249 -1.2325e+006 -5.1895e+006  3.2826e+006 126461 221122,221200,221174
 9.8000e+001 221226 -2.5696e+006 -4.4545e+006  3.3837e+006 126461 221096,221200,221122
 9.8000e+001 221375 -2.4253e+000 -3.3070e+001  2.6981e+000 126213 221297,221349,221323
 9.8000e+001 221478  3.6571e+002 -1.2643e+003  3.2930e+002 125766 221400,221452,221426
 9.8000e+001 221679 -5.1477e-002 -2.5895e-003 -1.1545e-002 125212 221503,221555,221529
 9.8000e+001 221656  9.2446e-002  1.2558e-001  8.9323e-002 125212 221503,221581,221555
 9.8000e+001 221633 -1.8548e-001 -4.3918e-001 -2.8541e-001 125212 221503,221607,221581
 9.8000e+001 221929 -1.5807e+000 -2.2718e-001 -5.9916e-001 124872 221782,221834,221808
 9.8000e+001 221906  3.8227e+000  3.8992e-001  4.0827e-002 124872 221756,221834,221782
 9.8000e+001 221883  1.2247e+000  9.7773e-002  1.8656e+000 124872 221704,221834,221756
 9.8000e+001 221860 -3.0375e+000 -2.2264e-001 -8.2294e-001 124872 221704,221756,221730
 9.8000e+001 222130 -3.1702e+005 -2.5548e+006  2.8323e+005 124582 221980,222058,222006
 9.8000e+001 222107 -1.0832e+006 -3.0803e+006 -1.0525e+005 124582 221954,222058,221980
 9.8000e+001 222084 -9.6782e+005 -2.1434e+006  3.1594e+004 124582 222006,222058,222032
 9.8000e+001 222282 -2.2622e+006 -2.6979e+006 -4.8494e+005 124192 222181,222233,222207
 9.8000e+001 222259 -5.3552e+005 -2.9664e+006 -7.8608e+005 124192 222155,222233,222181
 9.8000e+001 222483 -1.8313e+001 -1.4389e+002 -6.4551e+001 123702 222333,222385,222359
 9.8000e+001 222460 -2.6774e+001 -3.4658e+002 -2.7626e+002 123702 222333,222411,222385
 9.8000e+001 222437 -4.9307e+001 -9.1316e+002 -1.1618e+002 123702 222307,222411,222333
 9.8000e+001 222635 -5.0361e+002 -8.3427e+002  1.3561e+002 123312 222508,222560,222534
 9.8000e+001 222612  3.1892e+002 -5.8985e+002 -2.7911e+002 123312 222508,222586,222560
 9.8000e+001 222787 -2.6262e+002 -1.5150e+003 -3.4902e+002 122858 222686,222738,222712
 9.8000e+001 222764  2.4656e+001 -1.3173e+003  4.8048e+002 122858 222660,222738,222686
 9.8000e+001 222939 -1.4055e+001 -1.3220e+002  7.4665e+000 122568 222812,222864,222838
 9.8000e+001 222916  9.1001e+000 -2.4360e+001  1.0494e+001 122568 222812,222890,222864
 9.8000e+001 223091 -2.2037e+002 -1.5467e+002 -9.7240e+000 122392 222964,223016,222990
 9.8000e+001 223068  1.3467e+002 -5.0749e+002  4.8558e+002 122392 222964,223042,223016
 9.8000e+001 223292 -1.6531e+006 -1.1126e+006  9.8187e+005 121852 223142,223220,223194
 9.8000e+001 223269 -2.0994e+006 -1.0707e+006  9.3142e+005 121852 223116,223220,223142
 9.8000e+001 223246 -2.2213e+006 -1.1059e+006 -1.7558e+005 121852 223142,223194,223168
 9.8000e+001 223493 -1.7122e+006 -2.4726e+005  6.8096e+005 121406 223343,223395,223369
 9.8000e+001 223470 -1.4640e+006 -1.1833e+005  5.1428e+005 121406 223343,223421,223395
 9.8000e+001 223447 -5.9821e+005 -3.4665e+005  3.4191e+005 121406 223317,223421,223343
 9.8000e+001 223645  2.2030e+005 -1.5581e+007  3.8636e+006 121002 223544,223596,223570
 9.8000e+001 223622 -1.3232e+006 -1.3374e+007  3.5711e+006 121002 223518,223596,223544
 9.8000e+001 223846 -3.4417e+002 -7.0162e+003  1.8720e+003 120662 223670,223748,223696
 9.8000e+001 223823 -3.6483e+002 -2.4547e+003  1.6454e+003 120662 223670,223774,223748
 9.8000e+001 223800 -7.1136e+002 -4.1124e+003 -1.5587e+003 120662 223696,223748,223722
 9.8000e+001 224047 -1.5066e+003 -3.6655e+003  2.7205e+003 120222 223897,223949,223923
 9.8000e+001 224024 -6.9803e+002 -5.6997e+003  2.2569e+003 120222 223871,223949,223897
 9.8000e+001 224001 -8.3217e+002 -3.3619e+003 -6.0645e+002 120222 223871,223975,223949
 9.8000e+001 224248 -1.4186e+000 -1.1240e+000  1.2627e+000 119875 224124,224176,224150
 9.8000e+001 224225  1.4420e+000  3.7210e+000 -1.8299e+000 119875 224098,224176,224124
 9.8000e+001 224202 -3.3876e-001 -4.9680e+000  1.2973e+000 119875 224072,224176,224098
 9.8000e+001 224449  2.4652e+003 -6.4879e+002  1.0612e+003 119677 224325,224377,224351
 9.8000e+001 224426  1.8477e+003 -3.1296e+003  1.3382e+003 119677 224299,224377,224325
 9.8000e+001 224403  7.7749e+002 -1.1417e+003  4.7675e+002 119677 224273,224377,224299
 9.8000e+001 224552 -2.6790e+003 -1.5400e+002 -1.7045e+003 119273 224474,224526,224500
 9.8000e+001 224704  2.5328e+002  7.4523e+002 -4.1187e+002 118983 224603,224655,224629
 9.8000e+001 224681  3.6100e+002  3.4110e+002 -6.8375e+002 118983 224577,224655,224603
 9.8000e+001 224856  6.6940e+002 -6.3772e+002 -1.2813e+002 118529 224755,224807,224781
 9.8000e+001 224833  4.1507e+002  7.3154e+001 -2.1832e+002 118529 224729,224807,224755
 9.8000e+001 225008  1.8062e+002 -6.7690e+003  1.6642e+002 118353 224881,224933,224907
 9.8000e+001 224985  4.1495e+002  1.2489e+003  1.8807e+002 118353 224881,224959,224933
 9.8000e+001 225209 -1.1465e+006 -5.3860e+006 -2.0952e+006 117949 225059,225137,225111
 9.8000e+001 225186 -2.5251e+005 -3.0522e+006  8.7750e+005 117949 225033,225137,225059
 9.8000e+001 225163  9.8427e+005 -1.3624e+007  2.7839e+006 117949 225059,225111,225085
 9.8000e+001 225410  1.2195e+005 -8.8081e+006  2.6321e+005 117559 225260,225338,225312
 9.8000e+001 225387 -3.8547e+006 -9.8923e+006 -1.9931e+005 117559 225234,225338,225260
 9.8000e+001 225364 -7.1848e+005 -6.8708e+006 -2.2217e+006 117559 225260,225312,225286
 9.8000e+001 225611 -2.4349e+006 -1.1425e+007 -3.1557e+006 117361 225461,225513,225487
 9.8000e+001 225588 -4.3796e+006 -1.2929e+007  2.8689e+006 117361 225461,225539,225513
 9.8000e+001 225565 -2.4043e+005 -1.6891e+007  4.3123e+005 117361 225435,225539,225461
 9.8000e+001 225812  8.7154e+005 -1.1776e+007  7.2142e+005 116900 225636,225714,225662
 9.8000e+001 225789 -1.6760e+006 -2.8804e+006 -1.2815e+006 116900 225636,225740,225714
 9.8000e+001 225766 -1.2276e+004 -1.2023e+007  3.8815e+005 116900 225662,225714,225688
 9.8000e+001 225964  1.6662e+005 -8.8400e+006  2.6207e+005 116560 225837,225889,225863
 9.8000e+001 225941  5.0981e+005 -8.3716e+006  1.3563e+004 116560 225837,225915,225889
 9.8000e+001 226165  7.9880e+002 -8.1021e+003  6.0635e+002 116106 226015,226093,226041
 9.8000e+001 226142 -7.0167e+002 -2.7201e+003 -1.0900e+003 116106 225989,226093,226015
 9.8000e+001 226119 -2.3098e+002 -7.5874e+003 -8.1990e+002 116106 226041,226093,226067
 9.8000e+001 226268 -2.2195e+006 -4.6242e+006  2.2911e+006 115716 226190,226242,226216
 9.8000e+001 226420 -4.8914e+005 -1.4367e+007  2.2667e+006 115376 226293,226345,226319
 9.8000e+001 226397 -9.8785e+005 -1.6192e+007  5.5286e+006 115376 226293,226371,226345
 9.8000e+001 226621 -8.6304e+005 -2.8205e+006  5.1540e+005 114972 226497,226549,226523
 9.8000e+001 226598 -6.7638e+005 -1.6071e+007 -6.3976e+005 114972 226445,226549,226497
 9.8000e+001 226575  5.7302e+005 -7.0555e+006  8.6889e+005 114972 226445,226497,226471
 9.8000e+001 226773 -1.4164e+006 -5.3175e+006 -1.8582e+006 114670 226646,226698,226672
 9.8000e+001 226750  6.7818e+005 -1.0825e+007  1.3239e+006 114670 226646,226724,226698
 9.8000e+001 226974  4.7085e+004 -4.0516e+006  3.1566e+005 114082 226798,226850,226824
 9.8000e+001 226951  1.1543e+005 -3.7862e+006  1.9959e+005 114082 226798,226902,226850
 9.8000e+001 226928 -4.3335e+005 -6.1440e+006  2.9506e+005 114082 226850,226902,226876
 9.8000e+001 227175 -4.6916e+005 -7.3055e+006 -2.5851e+006 113678 226999,227051,227025
 9.8000e+001 227152 -1.2113e+006 -9.9303e+006 -3.1670e+006 113678 226999,227077,227051
 9.8000e+001 227129 -2.6273e+006 -4.4977e+006 -2.6253e+006 113678 226999,227103,227077
 9.8000e+001 227425 -3.7258e+006 -7.0285e+006 -6.7158e+006 113274 227226,227278,227252
 9.8000e+001 227402 -2.0908e+004 -6.8010e+006 -8.8556e+005 113274 227226,227330,227278
 9.8000e+001 227379 -3.3728e+006 -1.8113e+006 -3.4713e+005 113274 227200,227330,227226
 9.8000e+001 227356 -1.0438e+006 -3.4608e+005 -6.0138e+005 113274 227278,227330,227304
 9.8000e+001 227626 -2.2612e+006 -2.5913e+006 -2.9718e+006 112934 227502,227554,227528
 9.8000e+001 227603  4.1301e+005 -2.5819e+006 -6.7489e+005 112934 227450,227554,227502
 9.8000e+001 227580 -2.1357e+006 -6.8726e+005  9.8167e+005 112934 227450,227502,227476
 9.8000e+001 227876 -2.4011e+005 -1.7473e+006 -2.0236e+005 112437 227677,227755,227703
 9.8000e+001 227853 -9.9927e+005 -1.9790e+006  1.1117e+006 112437 227677,227781,227755
 9.8000e+001 227830 -2.8309e+005 -8.1451e+005  2.9422e+005 112437 227703,227755,227729
 9.8000e+001 227807  1.1013e+006 -8.5703e+006 -6.3472e+005 112437 227651,227781,227677
 9.8000e+001 228126 -2.4813e+005 -3.9393e+006 -6.7992e+005 112041 227927,228005,227953
 9.8000e+001 228103 -5.1248e+005 -3.8404e+006 -6.4491e+005 112041 227927,228031,228005
 9.8000e+001 228080  1.0890e+004 -4.9577e+006 -5.2009e+005 112041 227953,228005,227979
 9.8000e+001 228057 -1.0738e+006 -3.1789e+006 -1.0272e+006 112041 227901,228031,227927
 9.8000e+001 228327 -2.9839e+006 -2.7988e+006  2.0953e+005 111693 228151,228203,228177
 9.8000e+001 228304 -1.0338e+006 -2.5958e+006 -9.8340e+005 111693 228151,228229,228203
 9.8000e+001 228281  2.5480e+005 -5.2249e+006  9.5248e+005 111693 228151,228255,228229
 9.8000e+001 228479  1.5572e+002 -3.5013e+002  3.3716e+002 111253 228352,228404,228378
 9.8000e+001 228456  1.4742e+002 -2.8103e+002  1.2634e+002 111253 228352,228430,228404
 9.8000e+001 228582  2.3644e-312  1.9920e-312  3.1985e-312 110906 228504,228556,228530
 9.8000e+001 228783  5.4368e+004 -5.4373e+005 -8.9159e+004 110416 228633,228711,228659
 9.8000e+001 228760 -2.1913e+004 -9.1564e+005 -4.9182e+004 110416 228607,228711,228633
 9.8000e+001 228737  7.5004e+004 -1.2677e+006 -8.9368e+004 110416 228659,228711,228685
 9.8000e+001 228935 -7.4859e+005 -3.4141e+006 -2.0180e+006 110012 228808,228860,228834
 9.8000e+001 228912 -2.5345e+006 -6.9166e+006 -3.4011e+006 110012 228808,228886,228860
 9.8000e+001 229087 -3.3107e+006 -2.3273e+006 -2.2177e+006 109672 228960,229012,228986
 9.8000e+001 229064  4.7146e+005 -6.4293e+006 -1.4558e+006 109672 228960,229038,229012
 9.8000e+001 229190 -2.1208e+001 -9.1460e+001  3.9461e+001 109332 229112,229164,229138
 9.8000e+001 229391 -2.1738e+005 -8.5512e+004  5.5714e+004 109156 229267,229319,229293
 9.8000e+001 229368 -2.7278e+005 -6.5538e+005  8.7254e+004 109156 229215,229319,229267
 9.8000e+001 229345 -1.1645e+005 -1.4716e+005 -2.5099e+004 109156 229215,229267,229241
 9.8000e+001 229543  7.9865e+005 -7.1687e+006  9.1452e+005 108752 229416,229468,229442
 9.8000e+001 229520 -1.7126e+005 -3.1835e+006 -4.3419e+005 108752 229416,229494,229468
 9.8000e+001 229744 -1.5547e+005 -4.2167e+006 -6.3914e+004 108198 229594,229646,229620
 9.8000e+001 229721 -2.4934e+004 -4.1831e+006 -7.8100e+004 108198 229594,229672,229646
 9.8000e+001 229698 -6.5034e+005 -4.1092e+006 -9.2195e+004 108198 229568,229672,229594
 9.8000e+001 229847 -2.7022e+004 -9.6159e+005 -1.4949e+005 107758 229769,229821,229795
 9.8000e+001 230048 -3.2312e+005 -1.1183e+006 -2.7037e+005 107468 229898,229950,229924
 9.8000e+001 230025 -2.9204e+005 -7.9930e+005  3.6451e+005 107468 229872,229950,229898
 9.8000e+001 230002 -2.4144e+005 -6.5222e+005  2.3641e+005 107468 229872,229976,229950
 9.8000e+001 230298  1.4683e+005 -8.0310e+005  2.9850e+005 107121 230099,230203,230177
 9.8000e+001 230275  8.7241e+004 -1.0286e+006  2.5542e+005 107121 230073,230203,230099
 9.8000e+001 230252  4.7949e+005 -1.0786e+006 -2.9699e+005 107121 230099,230177,230151
 9.8000e+001 230229 -1.2763e+005 -1.0948e+006 -3.7365e+005 107121 230099,230151,230125
 9.8000e+001 230450 -5.0560e+005 -2.7730e+004  9.3257e+004 106823 230349,230401,230375
 9.8000e+001 230427 -2.6730e+005 -2.6811e+005  1.0222e+005 106823 230323,230401,230349
 9.8000e+001 230602 -5.3939e+006 -4.1877e+006 -7.1294e+006 106533 230501,230553,230527
 9.8000e+001 230579  2.9467e+006 -1.2825e+007  2.6190e+006 106533 230475,230553,230501
 9.8000e+001 230803 -5.5496e+004 -9.0180e+005 -8.1441e+004 106029 230679,230731,230705
 9.8000e+001 230780  3.4190e+004 -5.2164e+005 -4.9516e+004 106029 230653,230731,230679
 9.8000e+001 230757  2.9412e+003 -1.1273e+006 -1.2975e+005 106029 230627,230731,230653
 9.8000e+001 231004 -9.5383e+004 -1.6418e+006  2.4863e+005 105689 230854,230906,230880
 9.8000e+001 230981 -4.6617e+004 -1.6186e+006  2.6694e+005 105689 230828,230906,230854
 9.8000e+001 230958 -2.7154e+005 -7.9348e+005 -3.8598e+005 105689 230828,230932,230906
 9.8000e+001 231156  1.3735e+005 -5.5880e+006 -1.4841e+005 105377 231055,231107,231081
 9.8000e+001 231133 -5.6356e+005 -3.6225e+006  3.3379e+005 105377 231029,231107,231055
 9.8000e+001 231406 -1.1373e+006 -6.3617e+006 -8.6871e+005 104858 231207,231259,231233
 9.8000e+001 231383 -1.7190e+006 -5.8178e+006 -1.7887e+006 104858 231207,231311,231259
 9.8000e+001 231360 -1.2220e+006 -7.1491e+006 -2.2751e+006 104858 231259,231311,231285
 9.8000e+001 231337 -1.2741e+006 -7.0946e+006 -2.0942e+006 104858 231181,231311,231207
 9.8000e+001 231558 -2.0126e+004 -1.3647e+007 -5.2929e+005 104418 231457,231509,231483
 9.8000e+001 231535 -5.2440e+006 -1.4112e+007 -9.1041e+006 104418 231431,231509,231457
 9.8000e+001 231710 -3.8100e+006  5.6382e+003  5.0947e+005 103978 231583,231635,231609
 9.8000e+001 231687 -2.4198e+006 -6.3979e+004 -2.7563e+005 103978 231583,231661,231635
 9.8000e+001 231862 -9.6301e+005 -6.0623e+006 -8.3841e+005 103588 231761,231813,231787
 9.8000e+001 231839  3.0993e+005 -1.3676e+006 -1.2022e+005 103588 231735,231813,231761
 9.8000e+001 232014 -1.4890e+006 -5.6486e+006 -2.7220e+006 103248 231887,231939,231913
 9.8000e+001 231991 -2.9208e+006 -8.9646e+006 -4.7401e+006 103248 231887,231965,231939
 9.8000e+001 232215  6.3707e-001  8.9224e-001  4.6506e-001 102844 232039,232117,232065
 9.8000e+001 232192 -5.4511e-001  4.0000e-003 -1.7839e-001 102844 232039,232143,232117
 9.8000e+001 232169 -7.6319e-001 -2.7009e+000 -1.4401e+000 102844 232065,232117,232091
 9.8000e+001 232416 -3.0177e+006 -5.8427e+006 -2.6420e+006 102554 232240,232318,232292
 9.8000e+001 232393  5.1315e+005 -9.8975e+006 -2.1366e+005 102554 232240,232344,232318
 9.8000e+001 232370 -4.4179e+006 -2.3640e+006  1.7756e+005 102554 232240,232292,232266
 9.8000e+001 232568 -2.2005e+004 -1.5612e+006  1.2126e+005 102100 232441,232493,232467
 9.8000e+001 232545 -4.6321e+005 -1.6618e+006  9.5631e+004 102100 232441,232519,232493
 9.8000e+001 232769 -1.0834e+005 -1.5663e+006  1.9146e+005 101596 232645,232697,232671
 9.8000e+001 232746  3.6158e+004 -1.0360e+006  1.1478e+005 101596 232593,232697,232645
 9.8000e+001 232723 -1.5468e+005 -1.1074e+006  2.1776e+005 101596 232593,232645,232619
 9.8000e+001 232921 -6.2073e+005 -3.2808e+005  7.3320e+004 101420 232794,232846,232820
 9.8000e+001 232898 -6.6920e+005 -6.4417e+005  7.5164e+004 101420 232794,232872,232846
 9.8000e+001 233073 -4.7480e+005 -1.0646e+006 -1.9566e+005 101023 232946,232998,232972
 9.8000e+001 233050  1.1357e+005 -2.3223e+006  9.1342e+005 101023 232946,233024,232998
 9.8000e+001 233225  1.6211e+000  8.1225e-001  1.1563e+000 100661 233098,233150,233124
 9.8000e+001 233202 -4.9576e+000 -2.5621e+000 -3.6750e+000 100661 233098,233176,233150
 9.8000e+001 233426 -1.0242e+006 -5.8755e+006 -2.3850e+006 100265 233276,233328,233302
 9.8000e+001 233403 -1.2763e+006 -5.5491e+006 -1.3108e+006 100265 233276,233354,233328
 9.8000e+001 233380 -1.0580e+006 -5.3652e+006 -1.1849e+006 100265 233250,233354,233276
 9.8000e+001 233578 -1.4404e+004 -1.5695e+006  1.5020e+005 100032 233451,233503,233477
 9.8000e+001 233555 -1.3390e+005 -1.6020e+006  1.3469e+005 100032 233451,233529,233503
 9.8000e+001 233681 -3.1483e+006 -3.4370e+005 -1.5125e+005 99742 233603,233655,233629
 9.8000e+001 233784 -4.8333e+005 -8.3014e+005  3.5637e+005 99402 233706,233758,233732
 9.8000e+001 233936 -6.1068e+005 -6.9199e+005  6.1369e+005 99062 233835,233887,233861
 9.8000e+001 233913 -5.8873e+005 -5.0110e+005  1.9267e+005 99062 233809,233887,233835
 9.8000e+001 234088 -5.0051e+002 -7.7972e+002  6.6276e+002 98772 233987,234039,234013
 9.8000e+001 234065 -6.1988e+002 -1.1034e+003 -1.3495e+001 98772 233961,234039,233987
 9.8000e+001 234240  3.3815e-001  9.0012e-003  5.5171e-002 98160 234139,234191,234165
 9.8000e+001 234217 -4.2886e-001 -1.1416e-002 -6.9969e-002 98160 234113,234191,234139
 9.8000e+001 234441 -8.3120e+000 -1.8352e+002 -4.8063e+001 97820 234317,234369,234343
 9.8000e+001 234418  5.8862e+000 -4.7331e+002 -4.4258e+002 97820 234291,234369,234317
 9.8000e+001 234395 -7.4864e+002 -1.1069e+003 -9.2518e+002 97820 234265,234369,234291
 9.8000e+001 234593 -1.1449e+004 -7.7178e+003  9.0032e+003 97366 234466,234518,234492
 9.8000e+001 234570 -2.5732e+004 -1.3867e+004  1.7718e+004 97366 234466,234544,234518
 9.8000e+001 234794 -2.9190e+005  9.3249e+004 -1.4886e+003 96976 234618,234670,234644
 9.8000e+001 234771 -6.6155e+004 -3.0382e+004 -3.9310e+004 96976 234618,234722,234670
 9.8000e+001 234748 -3.3729e+004 -4.4381e+003  5.7983e+003 96976 234670,234722,234696
 9.8000e+001 234946 -9.4874e+005 -2.8451e+005  4.1998e+005 96568 234845,234897,234871
 9.8000e+001 234923 -8.4671e+005 -6.1371e+005  1.0037e+006 96568 234819,234897,234845
 9.8000e+001 235196 -5.1250e+002 -1.1707e+001 -1.0174e+002 96216 234997,235075,235049
 9.8000e+001 235173  2.7810e+002 -7.3032e+001 -2.4643e+002 96216 234997,235101,235075
 9.8000e+001 235150 -8.6619e+002  1.2767e+002  6.8659e+002 96216 234997,235049,235023
 9.8000e+001 235127  3.2168e+002 -1.5159e+002 -4.5290e+002 96216 234971,235101,234997
 9.8000e+001 235348 -5.7429e+005 -1.6893e+006 -6.6526e+004 95863 235247,235299,235273
 9.8000e+001 235325 -9.2752e+005 -1.3453e+006 -7.1288e+005 95863 235221,235299,235247
 9.8000e+001 235500  8.7664e+002  1.8591e+003  1.6337e+003 95339 235373,235425,235399
 9.8000e+001 235477 -2.0129e+001  2.0210e+003  2.1648e+002 95339 235373,235451,235425
 9.8000e+001 235701  3.6624e+003 -7.0366e+002  1.6904e+002 95023 235525,235577,235551
 9.8000e+001 235678  2.5978e+003 -2.3785e+003  1.6692e+003 95023 235525,235629,235577
 9.8000e+001 235655  4.1875e+003 -1.7182e+003  9.5254e+002 95023 235577,235629,235603
 9.8000e+001 235853 -2.5384e+005 -1.0354e+007 -9.0435e+005 94671 235726,235778,235752
 9.8000e+001 235830  3.7072e+005 -1.2548e+007  7.4166e+005 94671 235726,235804,235778
 9.8000e+001 236005 -2.8641e+006 -4.7652e+006  1.6135e+006 94261 235904,235956,235930
 9.8000e+001 235982 -1.5030e+006 -1.0011e+007 -3.6212e+006 94261 235878,235956,235904
 9.8000e+001 236206 -2.7096e+006 -5.0310e+005  2.1273e+005 93853 236056,236134,236082
 9.8000e+001 236183 -2.4938e+006 -4.5976e+005 -7.9848e+003 93853 236030,236134,236056
 9.8000e+001 236160 -2.6493e+006 -1.6072e+005  3.1930e+005 93853 236082,236134,236108
 9.8000e+001 236407 -9.8900e+005 -2.1028e+006  2.6379e+005 93557 236257,236309,236283
 9.8000e+001 236384 -2.2660e+006 -2.9072e+006 -2.1164e+006 93557 236231,236309,236257
 9.8000e+001 236361  1.5799e+006 -1.6162e+007  2.1267e+006 93557 236231,236335,236309
 9.8000e+001 236559  3.1221e+002 -9.2105e+000 -2.8241e+002 93149 236432,236484,236458
 9.8000e+001 236536  4.8525e+002  3.6999e+001 -5.0280e+001 93149 236432,236510,236484
 9.8000e+001 236711 -8.3262e+003 -3.9800e+003  4.3579e+003 92853 236584,236636,236610
 9.8000e+001 236688 -4.5228e+003 -8.3442e+003  3.8105e+003 92853 236584,236662,236636
 9.8000e+001 236912 -2.3233e+005 -1.4678e+005  1.3435e+005 92501 236736,236788,236762
 9.8000e+001 236889 -5.1200e+005 -1.1018e+005  1.4174e+005 92501 236736,236840,236788
 9.8000e+001 236866 -9.2816e+005 -8.2738e+005  8.5966e+005 92501 236788,236840,236814
 9.8000e+001 237113 -4.0980e+004 -1.8806e+006 -9.7950e+004 92291 236963,237041,237015
 9.8000e+001 237090  9.6907e+004 -1.3894e+006 -2.3521e+004 92291 236937,237041,236963
 9.8000e+001 237067 -1.0698e+005 -1.6388e+006  3.5487e+005 92291 236963,237015,236989
 9.8000e+001 237265 -3.7323e+003 -4.2492e+003 -2.2825e+003 91871 237138,237190,237164
 9.8000e+001 237242 -2.0999e+003 -7.6562e+002 -9.8903e+002 91871 237138,237216,237190
 9.8000e+001 237368 -4.9091e+005 -1.0707e+006 -1.1636e+005 91581 237290,237342,237316
 9.8000e+001 237520 -1.2118e+004 -2.8753e+004  1.6903e+004 91184 237419,237471,237445
 9.8000e+001 237497 -1.6113e+004 -2.9735e+004  1.6273e+004 91184 237393,237471,237419
 9.8000e+001 237672  1.0391e+003 -3.5250e+001  1.2686e+003 90894 237545,237597,237571
 9.8000e+001 237649 -1.1699e+003  2.4673e+003  1.3716e+002 90894 237545,237623,237597
 9.8000e+001 237873 -2.8260e+005 -6.3800e+005  3.9542e+005 90490 237749,237801,237775
 9.8000e+001 237850 -1.9677e+005 -1.6677e+006  5.3347e+005 90490 237723,237801,237749
 9.8000e+001 237827 -7.1962e+005 -1.8038e+006  8.5747e+005 90490 237697,237801,237723
 9.8000e+001 238074 -2.4927e+005 -2.1574e+006 -2.1063e+005 90100 237898,237976,237950
 9.8000e+001 238051 -1.1536e+006 -2.4126e+006 -7.7986e+004 90100 237898,238002,237976
 9.8000e+001 238028 -5.7849e+005 -5.6959e+005  8.2906e+004 90100 237898,237950,237924
 9.8000e+001 238275 -5.6506e+002 -6.2527e+002  8.3518e+002 89696 238125,238177,238151
 9.8000e+001 238252 -2.7614e+002 -3.3097e+002  1.8790e+002 89696 238099,238177,238125
 9.8000e+001 238229 -4.9166e+002 -2.7756e+002  4.3151e+002 89696 238099,238203,238177
 9.8000e+001 238427 -1.2930e+005 -2.4420e+004  2.0649e+004 89206 238326,238378,238352
 9.8000e+001 238404 -3.1587e+005 -7.7711e+004 -1.0615e+005 89206 238300,238378,238326
 9.8000e+001 238579 -1.2205e+004 -3.3005e+003  7.7893e+003 88908 238452,238504,238478
 9.8000e+001 238556 -2.0178e+004 -7.3575e+003  1.2687e+004 88908 238452,238530,238504
 9.8000e+001 238682  3.9757e-003  5.3450e-003  1.4890e-002 88568 238604,238656,238630
 9.8000e+001 238883 -1.2186e+006 -2.0876e+006  1.4840e+006 88278 238733,238811,238785
 9.8000e+001 238860 -8.4624e+005 -2.3486e+006  1.6484e+006 88278 238707,238811,238733
 9.8000e+001 238837 -7.2272e+004 -2.3133e+006  4.0905e+005 88278 238733,238785,238759
 9.8000e+001 239035 -1.8658e+006 -1.2667e+006 -5.9811e+005 87988 238908,238960,238934
 9.8000e+001 239012 -1.8123e+006 -5.2372e+005 -5.0245e+005 87988 238908,238986,238960
 9.8000e+001 239138  7.2952e+003 -7.2950e+002  1.2326e+003 87648 239060,239112,239086
 9.8000e+001 239339 -4.7915e+006 -1.6938e+006 -2.1202e+006 87358 239163,239215,239189
 9.8000e+001 239316 -4.8664e+006 -1.7882e+005  2.0944e+005 87358 239163,239241,239215
 9.8000e+001 239293 -2.2129e+006 -4.7253e+005 -2.6922e+005 87358 239163,239267,239241
 9.8000e+001 239589 -3.6061e+002 -2.6198e+004  4.6092e+003 86961 239390,239468,239416
 9.8000e+001 239566 -1.6965e+004 -1.7038e+004  2.5214e+004 86961 239390,239494,239468
 9.8000e+001 239543 -2.8172e+003 -2.4033e+003  1.9587e+003 86961 239416,239468,239442
 9.8000e+001 239520 -2.4152e+004 -2.5252e+004  2.0601e+004 86961 239364,239494,239390
 9.8000e+001 239741 -9.0722e+005 -6.0063e+005  2.4234e+005 86621 239640,239692,239666
 9.8000e+001 239718 -5.4303e+005 -1.7022e+006 -5.2333e+005 86621 239614,239692,239640
 9.8000e+001 239893 -3.6923e+005 -1.1959e+006  6.1529e+005 86217 239792,239844,239818
 9.8000e+001 239870 -3.0286e+005 -2.7752e+006  1.1846e+006 86217 239766,239844,239792
 9.8000e+001 240045 -9.8556e+005 -2.2893e+006  1.1004e+006 85827 239918,239970,239944
 9.8000e+001 240022 -4.4316e+005 -2.1181e+006  1.6446e+005 85827 239918,239996,239970
 9.8000e+001 240197 -8.1243e+005 -2.9510e+006  7.6943e+005 85437 240096,240148,240122
 9.8000e+001 240174 -8.8565e+005 -5.7096e+005  4.9343e+005 85437 240070,240148,240096
 9.8000e+001 240349 -2.3883e+002 -8.2315e+002  4.3895e+002 85147 240222,240274,240248
 9.8000e+001 240326 -8.5366e-001 -2.9678e+002 -8.6027e+001 85147 240222,240300,240274
 9.8000e+001 240501 -2.3738e+003 -1.2769e+003 -2.3217e+003 84807 240374,240426,240400
 9.8000e+001 240478 -1.1869e+003 -1.7953e+003 -1.6721e+003 84807 240374,240452,240426
 9.8000e+001 240653  6.8160e+002  2.2511e+002 -3.3097e+002 84303 240552,240604,240578
 9.8000e+001 240630  7.8414e+002  4.1815e+001 -2.3536e+001 84303 240526,240604,240552
 9.8000e+001 240854 -1.8184e+006 -6.9238e+006 -3.8845e+006 83929 240704,240756,240730
 9.8000e+001 240831  1.0916e+006 -4.8107e+006  2.3383e+006 83929 240704,240782,240756
 9.8000e+001 240808 -2.9462e+006  2.5876e+006  2.2895e+006 83929 240678,240782,240704
 9.8000e+001 241055 -9.1092e+002 -1.9563e+003  4.4084e+001 83539 240879,240957,240931
 9.8000e+001 241032 -4.3190e+003 -4.6649e+003  3.2716e+003 83539 240879,240983,240957
 9.8000e+001 241009 -1.6943e+003 -1.1323e+003  2.3628e+002 83539 240879,240931,240905
 9.8000e+001 241207 -1.1275e+001 -1.2099e+003  3.0347e+002 83079 241106,241158,241132
 9.8000e+001 241184 -9.8556e+001 -3.1960e+002  3.6986e+002 83079 241080,241158,241106
 9.8000e+001 241408 -6.4126e+005 -4.1403e+005 -6.5107e+005 82665 241232,241284,241258
 9.8000e+001 241385 -1.2030e+005  2.8696e+006 -2.5508e+006 82665 241232,241336,241284
 9.8000e+001 241362 -2.5869e+006 -1.1372e+007  4.3742e+006 82665 241284,241336,241310
 9.8000e+001 241658 -3.3548e+005 -3.2316e+006  3.2732e+005 82375 241485,241563,241511
 9.8000e+001 241635 -9.1870e+004 -2.1467e+006  3.4188e+005 82375 241433,241563,241485
 9.8000e+001 241612 -1.5637e+005 -2.4492e+006  3.1422e+005 82375 241433,241485,241459
 9.8000e+001 241589 -5.0876e+005 -3.8108e+006  5.3492e+005 82375 241511,241563,241537
 9.8000e+001 241810 -2.6709e+005 -1.4380e+005 -1.2354e+005 82035 241683,241735,241709
 9.8000e+001 241787 -7.1155e+004 -1.6049e+005 -6.1985e+004 82035 241683,241761,241735
 9.8000e+001 241962 -9.3417e+005 -1.0336e+006  5.0275e+005 81695 241861,241913,241887
 9.8000e+001 241939 -6.9696e+005 -1.5986e+006 -5.2319e+005 81695 241835,241913,241861
 9.8000e+001 242114 -6.4653e+005 -2.8611e+006  1.1273e+006 81355 242013,242065,242039
 9.8000e+001 242091 -1.2778e+005 -1.3557e+006  4.5013e+005 81355 241987,242065,242013
 9.8000e+001 242266 -1.2328e+003 -3.5104e+002 -3.1432e+002 80951 242139,242191,242165
 9.8000e+001 242243 -2.0601e+003 -3.0267e+003 -2.5707e+003 80951 242139,242217,242191
 9.8000e+001 242467 -3.6661e+005 -4.2757e+006  6.1918e+005 80311 242291,242369,242343
 9.8000e+001 242444  1.5587e+005 -2.2329e+006  4.3408e+005 80311 242291,242395,242369
 9.8000e+001 242421 -2.1081e+005 -1.0592e+006  2.3580e+005 80311 242291,242343,242317
 9.8000e+001 242619 -1.8722e+006 -2.2039e+006  6.1688e+005 80021 242492,242544,242518
 9.8000e+001 242596 -1.9270e+006 -2.3623e+006  1.9592e+006 80021 242492,242570,242544
 9.8000e+001 242869 -1.1904e+003 -6.7917e+002 -9.3065e+002 79631 242644,242722,242696
 9.8000e+001 242846  1.7988e+002 -2.9051e+003 -5.8464e+002 79631 242644,242774,242722
 9.8000e+001 242823  1.4758e+002 -2.4283e+003 -1.9888e+002 79631 242722,242774,242748
 9.8000e+001 242800 -9.3948e+002 -2.5017e+002  1.9845e+002 79631 242644,242696,242670
 9.8000e+001 243070  7.7472e+005 -1.5352e+007  4.3698e+006 79341 242920,242972,242946
 9.8000e+001 243047 -8.9444e+005 -4.9143e+006 -1.2365e+006 79341 242920,242998,242972
 9.8000e+001 243024 -4.6081e+005 -2.1818e+006  1.0025e+006 79341 242894,242998,242920
 9.8000e+001 243222 -2.9454e+005 -1.7934e+006  8.1631e+005 78801 243121,243173,243147
 9.8000e+001 243199 -2.3023e+005 -1.6816e+006  6.6369e+005 78801 243095,243173,243121
 9.8000e+001 243423  7.8701e+004 -1.6007e+006 -3.1599e+005 78511 243273,243325,243299
 9.8000e+001 243400 -1.1355e+004 -1.3374e+006 -4.4901e+005 78511 243273,243351,243325
 9.8000e+001 243377 -1.7435e+002 -1.3153e+006  2.1881e+004 78511 243247,243351,243273
 9.8000e+001 243624 -1.7447e+005 -1.6670e+006 -5.4679e+005 78107 243474,243552,243526
 9.8000e+001 243601 -2.1618e+005 -1.7708e+006 -5.8158e+005 78107 243448,243552,243474
 9.8000e+001 243578 -3.8723e+005 -1.1086e+006 -4.7784e+004 78107 243474,243526,243500
 9.8000e+001 243776 -5.8860e+005 -2.3590e+006 -8.8563e+005 77653 243649,243701,243675
 9.8000e+001 243753 -7.8180e+005 -1.2537e+006 -2.8656e+005 77653 243649,243727,243701
 9.8000e+001 243977 -4.3815e+005 -5.4601e+006  8.6954e+004 77093 243801,243853,243827
 9.8000e+001 243954 -7.7377e+004 -4.2690e+006  7.4610e+005 77093 243801,243879,243853
 9.8000e+001 243931 -3.3374e+005 -1.4977e+006 -1.3049e+005 77093 243801,243905,243879
 9.8000e+001 244080 -4.1431e+005 -4.4950e+006  3.6978e+005 76791 244002,244054,244028
 9.8000e+001 244232 -1.2112e+005 -1.6550e+006 -2.6380e+005 76311 244131,244183,244157
 9.8000e+001 244209 -9.1599e+003 -5.4457e+005 -2.4140e+005 76311 244105,244183,244131
 9.8000e+001 244433  6.5839e+005 -1.6857e+007  5.5508e+006 75903 244283,244335,244309
 9.8000e+001 244410 -6.9271e+005 -8.4276e+006 -1.2873e+006 75903 244283,244361,244335
 9.8000e+001 244387 -9.1600e+005 -5.3537e+006  7.6679e+005 75903 244257,244361,244283
 9.8000e+001 244585  4.2892e+005 -1.6477e+007  2.2389e+006 75419 244458,244510,244484
 9.8000e+001 244562 -1.1829e+006 -4.6705e+006 -7.8546e+005 75419 244458,244536,244510
 9.8000e+001 244737 -3.9183e+005 -4.6034e+005 -1.8098e+005 75215 244636,244688,244662
 9.8000e+001 244714 -3.1912e+005 -1.8557e+006 -1.7276e+005 75215 244610,244688,244636
 9.8000e+001 244889 -1.0096e+006 -3.7579e+006 -7.3527e+005 74857 244788,244840,244814
 9.8000e+001 244866 -3.9733e+005 -1.6015e+006 -2.5843e+005 74857 244762,244840,244788
 9.8000e+001 245041 -7.6570e+005 -3.0773e+006 -1.5043e+006 74653 244940,244992,244966
 9.8000e+001 245018 -7.6051e+005 -1.0630e+006  1.0839e+006 74653 244914,244992,244940
 9.8000e+001 245144 -7.3561e+005 -3.6822e+006 -8.7321e+005 74359 245066,245118,245092
 9.8000e+001 245296 -7.3257e+003 -1.4624e+005 -5.2073e+004 74007 245169,245221,245195
 9.8000e+001 245273 -4.5190e+004 -2.5574e+005 -7.8163e+004 74007 245169,245247,245221
 9.8000e+001 245448 -3.1585e+006 -4.1932e+006 -9.9453e+005 73711 245321,245373,245347
 9.8000e+001 245425 -2.7098e+006 -4.0830e+006 -9.2783e+005 73711 245321,245399,245373
 9.8000e+001 245600  2.3043e+006 -1.4682e+007 -2.6609e+006 73301 245499,245551,245525
 9.8000e+001 245577 -1.9643e+006 -7.0804e+006  2.8427e+006 73301 245473,245551,245499
 9.8000e+001 245752 -3.0499e+006 -4.8722e+006 -2.9340e+006 72995 245625,245677,245651
 9.8000e+001 245729  7.8527e+005 -1.6641e+007 -2.2145e+006 72995 245625,245703,245677
 9.8000e+001 245953 -1.0736e+006 -1.3003e+007  5.7378e+005 72585 245777,245829,245803
 9.8000e+001 245930 -3.5652e+005 -1.4192e+007  1.9615e+006 72585 245777,245855,245829
 9.8000e+001 245907 -7.7851e+005 -7.9839e+006 -1.5510e+005 72585 245777,245881,245855
 9.8000e+001 246154 -8.2802e+005 -7.2898e+006  1.7737e+006 72127 246030,246082,246056
 9.8000e+001 246131 -1.2483e+006 -7.2316e+006  7.8944e+005 72127 245978,246082,246030
 9.8000e+001 246108 -3.6118e+005 -1.1618e+007  8.8110e+005 72127 245978,246030,246004
 9.8000e+001 246257 -1.1872e+006 -1.6303e+005 -1.7445e+005 71737 246179,246231,246205
 9.8000e+001 246360  2.4077e+004 -2.5318e+006  4.9352e+005 71447 246282,246334,246308
 9.8000e+001 246512 -2.4194e+005 -1.5584e+006  8.6279e+005 71157 246385,246437,246411
 9.8000e+001 246489 -6.0231e+004 -1.0524e+006 -3.4517e+004 71157 246385,246463,246437
 9.8000e+001 246664 -1.4807e+005 -2.0984e+006 -6.8890e+005 70753 246537,246589,246563
 9.8000e+001 246641 -7.6046e+005 -5.5190e+005 -4.2976e+005 70753 246537,246615,246589
 9.8000e+001 246865 -1.4722e+006 -7.9613e+006  3.4937e+006 70249 246715,246767,246741
 9.8000e+001 246842 -3.2366e+006 -8.1012e+006 -4.5821e+005 70249 246715,246793,246767
 9.8000e+001 246819  3.9820e+004 -1.5307e+007 -4.3131e+006 70249 246689,246793,246715
 9.8000e+001 247066  5.3526e+004 -1.5713e+006  7.2052e+004 70023 246916,246994,246942
 9.8000e+001 247043 -2.3448e+005 -8.7562e+005  3.5418e+005 70023 246890,246994,246916
 9.8000e+001 247020  9.5744e+004 -1.6343e+006  2.9775e+005 70023 246942,246994,246968
 9.8000e+001 247267 -4.5329e+005 -3.3003e+006 -8.8338e+005 69633 247091,247143,247117
 9.8000e+001 247244 -1.9967e+005 -2.8572e+006 -6.8293e+005 69633 247091,247169,247143
 9.8000e+001 247221 -2.1171e+005 -2.0601e+006 -5.2583e+005 69633 247091,247195,247169
 9.8000e+001 247419 -1.2456e+006 -3.9430e+006  3.2053e+005 69457 247318,247370,247344
 9.8000e+001 247396 -1.2284e+006 -1.2466e+006  6.7115e+005 69457 247292,247370,247318
 9.8000e+001 247522 -1.4216e+002 -2.1442e+002  1.5137e+002 69209 247444,247496,247470
 9.8000e+001 247625 -9.4366e+005 -1.0127e+006 -7.8031e+005 68919 247547,247599,247573
 9.8000e+001 247777  1.1768e+005 -3.3698e+006 -1.9036e+005 68579 247650,247702,247676
 9.8000e+001 247754 -3.0963e+004 -7.2491e+005 -1.7013e+005 68579 247650,247728,247702
 9.8000e+001 247929 -3.4990e+005 -4.5609e+006  3.0504e+005 68289 247802,247854,247828
 9.8000e+001 247906 -9.1473e+005 -2.7674e+006 -1.3210e+006 68289 247802,247880,247854
 9.8000e+001 248081 -2.1815e+005 -2.1696e+006  7.3978e+005 67949 247980,248032,248006
 9.8000e+001 248058 -2.7103e+005 -3.1921e+005  5.0435e+004 67949 247954,248032,247980
 9.8000e+001 248233 -1.1579e+006 -5.0318e+006 -8.1277e+005 67616 248132,248184,248158
 9.8000e+001 248210 -9.0965e+005 -3.2583e+006 -2.8929e+005 67616 248106,248184,248132
 9.8000e+001 248434 -6.7812e+004 -2.2518e+006 -1.4052e+005 67212 248284,248336,248310
 9.8000e+001 248411 -9.0447e+004 -2.2423e+006 -9.2377e+004 67212 248258,248336,248284
 9.8000e+001 248388 -6.8185e+005 -6.8463e+005 -4.7574e+005 67212 248258,248362,248336
 9.8000e+001 248586 -2.4782e+005 -2.9888e+006 -1.5200e+005 66872 248485,248537,248511
 9.8000e+001 248563 -2.6430e+005 -1.1943e+006 -3.2673e+005 66872 248459,248537,248485
 9.8000e+001 248738 -5.6484e+005 -5.1753e+006  2.4565e+005 66510 248637,248689,248663
 9.8000e+001 248715 -7.3035e+005 -3.6075e+006  1.3134e+004 66510 248611,248689,248637
 9.8000e+001 248890 -9.6641e+004 -7.4264e+005  2.1408e+005 66220 248789,248841,248815
 9.8000e+001 248867 -1.6048e+005 -1.0068e+006 -2.8760e+005 66220 248763,248841,248789
 9.8000e+001 249091 -9.7535e+005 -5.9254e+006  1.4743e+006 65759 248915,248967,248941
 9.8000e+001 249068 -8.4473e+005 -3.9154e+006  1.7318e+006 65759 248915,248993,248967
 9.8000e+001 249045 -3.6865e+005 -2.8582e+006  3.0158e+005 65759 248915,249019,248993
 9.8000e+001 249243 -1.2507e+005 -6.2852e+006  1.3416e+006 65419 249142,249194,249168
 9.8000e+001 249220  1.6186e+005 -6.6752e+005  1.2958e+005 65419 249116,249194,249142
 9.8000e+001 249395 -1.6917e+005 -2.8407e+006 -7.2701e+005 65079 249268,249320,249294
 9.8000e+001 249372 -3.3618e+005 -3.1182e+006 -5.4899e+005 65079 249268,249346,249320
 9.8000e+001 249547 -1.8626e+006 -8.4074e+006  2.0261e+006 64739 249420,249472,249446
 9.8000e+001 249524 -9.1295e+005 -6.0017e+006 -2.9335e+006 64739 249420,249498,249472
 9.8000e+001 249650 -1.2312e+006 -4.4427e+006 -1.9918e+006 64342 249572,249624,249598
 9.8000e+001 249851 -2.4659e+004 -3.7506e+006 -2.6361e+005 63938 249701,249779,249753
 9.8000e+001 249828 -1.3799e+005 -3.8876e+006  3.8740e+005 63938 249675,249779,249701
 9.8000e+001 249805 -3.7276e+005 -1.1212e+006 -2.1903e+005 63938 249701,249753,249727
 9.8000e+001 250052 -2.8880e+005 -1.2713e+006 -1.2195e+006 63341 249876,249954,249902
 9.8000e+001 250029 -1.2306e+006 -1.8998e+006 -2.9354e+005 63341 249876,249980,249954
 9.8000e+001 250006  5.2627e+005 -3.9166e+006  1.0017e+006 63341 249902,249954,249928
 9.8000e+001 250253 -7.7576e+005 -5.3571e+005 -4.8507e+004 63058 250077,250129,250103
 9.8000e+001 250230 -2.7521e+006 -3.2414e+006  1.5499e+006 63058 250077,250155,250129
 9.8000e+001 250207 -4.9734e+005 -2.1529e+006  4.5524e+005 63058 250077,250181,250155
 9.8000e+001 250454 -4.4615e+005 -4.3640e+006  1.7376e+005 62832 250304,250382,250330
 9.8000e+001 250431 -8.7664e+004 -5.2097e+006 -1.4315e+006 62832 250278,250382,250304
 9.8000e+001 250408 -7.5439e+005 -3.6920e+006 -6.4293e+004 62832 250330,250382,250356
 9.8000e+001 250606 -1.3096e+006 -2.7149e+006 -1.2794e+006 62428 250479,250531,250505
 9.8000e+001 250583 -5.0602e+005 -8.0990e+006 -1.8195e+006 62428 250479,250557,250531
 9.8000e+001 250758 -1.4493e+005 -5.9955e+006  9.5614e+005 62202 250631,250683,250657
 9.8000e+001 250735 -5.9202e+005 -4.8703e+006 -8.4173e+005 62202 250631,250709,250683
 9.8000e+001 250861 -3.3104e+005 -7.8552e+005 -1.2273e+005 61954 250783,250835,250809
 9.8000e+001 251062 -2.8119e+006 -2.8219e+006  2.6863e+005 61557 250912,250990,250938
 9.8000e+001 251039 -1.2369e+005 -8.2281e+006 -2.9611e+006 61557 250886,250990,250912
 9.8000e+001 251016 -3.1691e+006 -4.6374e+006 -3.8867e+006 61557 250938,250990,250964
 9.8000e+001 251263 -4.6957e+005 -4.4936e+006  2.4410e+004 61167 251113,251165,251139
 9.8000e+001 251240 -7.6915e+005 -3.3049e+006 -2.1335e+004 61167 251113,251191,251165
 9.8000e+001 251217 -1.1269e+006 -3.4263e+006 -2.0349e+005 61167 251087,251191,251113
 9.8000e+001 251415 -6.2781e+005 -2.0041e+006  1.2185e+006 60827 251288,251340,251314
 9.8000e+001 251392 -1.3715e+005 -6.2499e+005 -3.5811e+004 60827 251288,251366,251340
 9.8000e+001 251567 -2.7605e+005 -2.4745e+006 -1.6265e+005 60487 251466,251518,251492
 9.8000e+001 251544 -3.3847e+005 -1.6910e+006 -5.7706e+005 60487 251440,251518,251466
 9.8000e+001 251719  1.9549e+005 -4.9279e+006  1.0157e+005 59983 251592,251644,251618
 9.8000e+001 251696 -9.6053e+004 -2.2028e+006 -1.2893e+005 59983 251592,251670,251644
 9.8000e+001 251920 -1.6283e+005 -1.2889e+006 -4.0954e+004 59807 251770,251848,251796
 9.8000e+001 251897 -9.6012e+004 -6.6159e+005 -1.1024e+005 59807 251744,251848,251770
 9.8000e+001 251874 -8.1203e+004 -7.8963e+005  4.5122e+004 59807 251796,251848,251822
 9.8000e+001 252023  5.9270e+005 -3.5237e+006 -3.1341e+005 59517 251945,251997,251971
 9.8000e+001 252175  9.1279e+005 -7.7042e+006 -1.0947e+005 59269 252074,252126,252100
 9.8000e+001 252152  7.7179e+003 -5.6153e+006 -6.1666e+003 59269 252048,252126,252074
 9.8000e+001 252278 -9.2232e+005 -3.0254e+006  3.7697e+005 58979 252200,252252,252226
 9.8000e+001 252381 -2.7979e+006 -1.3490e+006  8.2194e+005 58689 252303,252355,252329
 9.8000e+001 252533 -1.0509e+006 -3.0774e+006 -5.5151e+005 58249 252432,252484,252458
 9.8000e+001 252510 -8.6749e+005 -3.2217e+006 -1.1933e+006 58249 252406,252484,252432
 9.8000e+001 252734  1.2070e+005 -2.7347e+006 -5.9099e+005 57902 252584,252662,252610
 9.8000e+001 252711 -3.1058e+004 -1.4447e+006  3.0299e+004 57902 252558,252662,252584
 9.8000e+001 252688  2.0549e+005 -2.8440e+006 -2.5116e+005 57902 252610,252662,252636
 9.8000e+001 252886  2.9149e+005 -5.8708e+006 -4.9230e+005 57540 252785,252837,252811
 9.8000e+001 252863  8.8736e+004 -3.1557e+006  2.5554e+005 57540 252759,252837,252785
 9.8000e+001 253038 -8.8204e+005 -6.0009e+006  1.7862e+006 57086 252937,252989,252963
 9.8000e+001 253015 -2.8103e+005 -7.6847e+005  2.5321e+005 57086 252911,252989,252937
 9.8000e+001 253239 -6.0597e+005 -4.6463e+006 -3.8915e+005 56796 253063,253141,253115
 9.8000e+001 253216 -3.2202e+005 -4.5700e+006 -4.1984e+005 56796 253063,253167,253141
 9.8000e+001 253193 -5.3415e+006 -3.7964e+005  2.9629e+005 56796 253063,253115,253089
 9.8000e+001 253342 -6.4360e+005 -1.0045e+007 -1.5816e+005 56349 253264,253316,253290
 9.8000e+001 253543 -1.0914e+005 -3.5034e+006 -1.1954e+006 56009 253367,253419,253393
 9.8000e+001 253520 -3.1379e+005 -1.4599e+006 -6.6647e+005 56009 253367,253445,253419
 9.8000e+001 253497 -4.0504e+005 -1.4177e+006 -6.7907e+005 56009 253367,253471,253445
 9.8000e+001 253695 -2.7553e+005 -8.8890e+005  4.5300e+005 55733 253594,253646,253620
 9.8000e+001 253672 -5.7664e+005 -3.3001e+005  4.2167e+005 55733 253568,253646,253594
 9.8000e+001 253798 -9.9346e+005 -1.0414e+006 -3.5892e+005 55557 253720,253772,253746
 9.8000e+001 253950 -5.9086e+005 -2.3038e+006 -7.8708e+004 55153 253849,253901,253875
 9.8000e+001 253927 -3.3964e+005 -2.6766e+006 -5.0410e+005 55153 253823,253901,253849
 9.8000e+001 254151 -1.0808e+006 -3.2563e+006  9.6872e+004 54863 253975,254053,254001
 9.8000e+001 254128 -1.2104e+006 -2.7373e+006  3.4263e+005 54863 253975,254079,254053
 9.8000e+001 254105 -1.2506e+006 -6.0171e+006  1.3945e+006 54863 254001,254053,254027
 9.8000e+001 254303 -2.2785e+005 -4.5518e+005  3.0236e+005 54373 254176,254228,254202
 9.8000e+001 254280 -3.2344e+005 -5.5140e+005  3.6302e+005 54373 254176,254254,254228
 9.8000e+001 254455 -1.9858e+005 -4.3849e+006 -4.4821e+005 53975 254354,254406,254380
 9.8000e+001 254432 -4.1105e+005 -9.4492e+005  1.3290e+005 53975 254328,254406,254354
 9.8000e+001 254607  6.7366e+004 -5.3340e+006  1.4301e+005 53585 254480,254532,254506
 9.8000e+001 254584 -5.7386e+005 -3.9470e+006  1.3589e+005 53585 254480,254558,254532
 9.8000e+001 254808 -5.6933e+005 -3.7172e+006  1.0032e+005 53245 254658,254736,254684
 9.8000e+001 254785 -8.4609e+005 -8.7733e+005 -5.9856e+005 53245 254632,254736,254658
 9.8000e+001 254762 -2.2184e+005 -1.0850e+006  3.6319e+005 53245 254684,254736,254710
 9.8000e+001 254911 -1.7797e+005 -1.7392e+006 -3.5331e+005 52955 254833,254885,254859
 9.8000e+001 255063 -3.9865e+005 -6.8735e+006  9.5417e+004 52551 254962,255014,254988
 9.8000e+001 255040 -5.8974e+005 -6.8607e+006  6.4925e+004 52551 254936,255014,254962
 9.8000e+001 255264 -1.0074e+006 -9.8995e+005 -5.9127e+005 52261 255114,255166,255140
 9.8000e+001 255241 -1.0283e+006 -2.0549e+006 -2.2279e+005 52261 255114,255192,255166
 9.8000e+001 255218 -4.6012e+006 -1.2083e+006  4.4191e+005 52261 255088,255192,255114
 9.8000e+001 255416 -9.9323e+005 -5.5158e+006  2.1788e+006 51971 255289,255341,255315
 9.8000e+001 255393 -1.9687e+005 -4.7663e+006 -4.6691e+005 51971 255289,255367,255341
 9.8000e+001 255568  3.8208e+004 -1.4351e+006 -4.9051e+005 51681 255441,255493,255467
 9.8000e+001 255545 -1.4445e+005 -1.0872e+006 -5.3125e+005 51681 255441,255519,255493
 9.8000e+001 255769 -2.8888e+005 -2.3147e+006  1.7538e+005 51291 255619,255697,255671
 9.8000e+001 255746 -2.6787e+005 -1.9434e+006 -2.0371e+005 51291 255593,255697,255619
 9.8000e+001 255723 -3.5503e+005 -6.2923e+006 -7.7699e+005 51291 255619,255671,255645
 9.8000e+001 255921 -7.5990e+005 -2.7287e+006  7.5587e+005 50951 255820,255872,255846
 9.8000e+001 255898 -2.4983e+005 -1.0798e+006 -1.2516e+005 50951 255794,255872,255820
 9.8000e+001 256171 -4.7778e+005 -6.1221e+006  1.0457e+006 50547 256024,256076,256050
 9.8000e+001 256148 -7.7122e+005 -4.3215e+006  1.1262e+005 50547 255972,256076,256024
 9.8000e+001 256125 -3.1064e+005 -3.5824e+006  6.5478e+005 50547 255946,256076,255972
 9.8000e+001 256102 -8.1589e+005 -6.0244e+006  6.8278e+005 50547 255972,256024,255998
 9.8000e+001 256323  9.0260e+004 -4.2978e+006  5.2208e+005 50093 256196,256248,256222
 9.8000e+001 256300 -1.0021e+006 -2.6159e+006 -8.1878e+005 50093 256196,256274,256248
 9.8000e+001 256426  2.2807e+002 -9.4096e+002  3.9414e+002 49845 256348,256400,256374
 9.8000e+001 256627  1.7854e+005 -6.2449e+006  8.7911e+004 49555 256477,256555,256503
 9.8000e+001 256604  1.0500e+005 -2.4425e+006  3.0288e+005 49555 256451,256555,256477
 9.8000e+001 256581 -3.4440e+005 -5.3630e+006  3.8606e+005 49555 256503,256555,256529
 9.8000e+001 256828 -5.2044e+005 -2.4089e+006 -3.2078e+005 49056 256652,256730,256678
 9.8000e+001 256805 -7.3597e+005 -2.1695e+006 -1.8799e+005 49056 256652,256756,256730
 9.8000e+001 256782 -3.1856e+005 -3.6959e+006  6.2623e+005 49056 256678,256730,256704
 9.8000e+001 256931 -4.7183e+004 -1.4440e+005  3.0673e+004 48766 256853,256905,256879
 9.8000e+001 257083 -1.6021e+006 -5.5704e+006 -7.7817e+005 48568 256982,257034,257008
 9.8000e+001 257060 -5.6290e+005 -1.4135e+006 -7.0747e+005 48568 256956,257034,256982
 9.8000e+001 257186  2.1554e+003 -4.5453e+006 -1.2239e+003 48228 257108,257160,257134
 9.8000e+001 257338 -1.0911e+006 -4.3234e+005  2.4644e+005 47888 257237,257289,257263
 9.8000e+001 257315 -3.7893e+005 -3.1264e+006  1.4651e+006 47888 257211,257289,257237
 9.8000e+001 257539 -4.6132e+005 -3.5452e+006  1.8683e+005 47548 257363,257441,257415
 9.8000e+001 257516 -6.7017e+005 -3.2677e+006 -3.0429e+005 47548 257363,257467,257441
 9.8000e+001 257493 -7.8644e+005 -2.6720e+006 -6.1356e+002 47548 257363,257415,257389
 9.8000e+001 257740  1.3976e+005 -6.5407e+006  6.7045e+005 46994 257564,257642,257616
 9.8000e+001 257717 -4.7645e+005 -3.9579e+006 -3.2425e+005 46994 257564,257668,257642
 9.8000e+001 257694 -1.0175e+006 -6.5209e+006 -2.9182e+005 46994 257564,257616,257590
 9.8000e+001 257843 -2.7562e+005 -9.9258e+005 -2.0882e+005 46654 257765,257817,257791
 9.8000e+001 257995 -5.2786e+005 -3.1660e+006  3.3696e+005 46364 257894,257946,257920
 9.8000e+001 257972 -7.2755e+005 -3.0943e+006  3.5770e+005 46364 257868,257946,257894
 9.8000e+001 258147  1.3623e+004 -3.8454e+006  9.3562e+004 46024 258046,258098,258072
 9.8000e+001 258124 -4.6178e+005 -2.5246e+006  5.1830e+005 46024 258020,258098,258046
 9.8000e+001 258250 -5.8069e+005 -8.4126e+005  5.1668e+005 45741 258172,258224,258198
 9.8000e+001 258402 -8.2447e+005 -2.6363e+006  4.8826e+005 45401 258301,258353,258327
 9.8000e+001 258379 -2.8618e+005 -2.5808e+006  7.0021e+005 45401 258275,258353,258301
 9.8000e+001 258603 -6.4199e+005 -1.9601e+006  6.2312e+004 45071 258427,258505,258479
 9.8000e+001 258580 -3.0063e+005 -4.3860e+006  3.4514e+005 45071 258427,258531,258505
 9.8000e+001 258557 -3.1586e+005 -2.7278e+006  2.0502e+005 45071 258427,258479,258453
 9.8000e+001 258755 -1.6910e+005 -4.8245e+006 -3.2766e+005 44681 258654,258706,258680
 9.8000e+001 258732 -4.6058e+005 -3.1207e+006 -3.5095e+005 44681 258628,258706,258654
 9.8000e+001 258907 -2.7477e+005 -3.0514e+006 -1.5012e+005 44157 258806,258858,258832
 9.8000e+001 258884 -6.3825e+005 -2.4765e+006 -1.0654e+005 44157 258780,258858,258806
 9.8000e+001 259010 -5.7676e+005 -2.0800e+006 -1.0845e+004 43705 258932,258984,258958
 9.8000e+001 259113 -6.9200e+005 -1.7242e+006 -5.9216e+004 43284 259035,259087,259061
 9.8000e+001 259216 -3.8755e+005 -4.3874e+006 -1.3212e+005 42954 259138,259190,259164
 9.8000e+001 259319 -6.0520e+005 -1.6502e+006 -3.4493e+004 42116 259241,259293,259267
 9.8000e+001 259422 -4.9826e+005 -6.0671e+006  7.3089e+005 41804 259344,259396,259370
 9.8000e+001 259525 -6.7172e+005 -7.4356e+006  1.2392e+006 41219 259447,259499,259473
 9.8000e+001 259628 -4.7585e+005 -3.6389e+006 -5.9101e+005 385 259550,259602,259576
 1.0000e+001 190120 -1.2270e+006 -3.0865e+006  1.4566e+005 189630 189993,190045,190019
 1.0000e+001 190097 -5.6489e+005 -3.1248e+006  2.5798e+005 189630 189993,190071,190045
 1.0000e+001 190319 -6.6971e+005 -5.1699e+006  1.8684e+005 189312 190169,190221,190195
 1.0000e+001 190296 -7.8774e+005 -4.4655e+006 -4.9451e+005 189312 190169,190247,190221
 1.0000e+001 190273 -7.1388e+005 -4.2467e+006 -1.2078e+005 189312 190143,190247,190169
 1.0000e+001 190518 -3.0889e+005 -4.3938e+006 -4.8247e+005 189124 190368,190446,190420
 1.0000e+001 190495 -1.1200e+006 -3.8775e+006 -8.6444e+004 189124 190342,190446,190368
 1.0000e+001 190472 -1.1245e+006 -4.3170e+006 -1.3924e+006 189124 190368,190420,190394
 1.0000e+001 190619 -4.8238e+005 -5.9955e+005 -3.8141e+004 188926 190541,190593,190567
 1.0000e+001 190771 -1.0346e+006 -5.0291e+006 -3.3045e+005 188614 190670,190722,190696
 1.0000e+001 190748 -5.4227e+005 -4.9775e+006 -1.5279e+005 188614 190644,190722,190670
 1.0000e+001 190972 -3.1144e+005 -4.1501e+006  1.8157e+005 188324 190848,190900,190874
 1.0000e+001 190949 -3.6497e+005 -4.4917e+006 -1.8156e+004 188324 190796,190900,190848
 1.0000e+001 190926 -6.4294e+005 -5.3447e+006 -2.6035e+005 188324 190796,190848,190822
 1.0000e+001 191124 -2.4888e+005 -2.9438e+006 -1.0085e+005 188034 191023,191075,191049
 1.0000e+001 191101 -5.6657e+005 -2.6407e+006 -2.6278e+005 188034 190997,191075,191023
 1.0000e+001 191276 -2.1559e+005 -2.9615e+006 -9.6636e+004 187836 191149,191201,191175
 1.0000e+001 191253 -4.3524e+005 -2.4984e+006  1.4031e+005 187836 191149,191227,191201
 1.0000e+001 191379 -3.7279e+005 -1.5723e+006 -1.1217e+005 187546 191301,191353,191327
 1.0000e+001 191531 -3.3266e+004 -6.4236e+006 -1.6609e+006 187256 191430,191482,191456
 1.0000e+001 191508 -5.4465e+005 -5.1118e+006  2.3566e+005 187256 191404,191482,191430
 1.0000e+001 191634 -2.9292e+005 -4.1313e+006 -4.7381e+005 187058 191556,191608,191582
 1.0000e+001 191835 -4.2511e+005 -3.5512e+006  2.1953e+005 186860 191659,191711,191685
 1.0000e+001 191812 -3.4899e+005 -3.8688e+006  1.6290e+005 186860 191659,191737,191711
 1.0000e+001 191789 -3.6854e+004 -2.4826e+006  1.8103e+005 186860 191659,191763,191737
 1.0000e+001 191987 -4.8014e+005 -2.6528e+006 -5.6597e+005 186662 191886,191938,191912
 1.0000e+001 191964 -3.3930e+005 -3.0816e+006 -2.6598e+005 186662 191860,191938,191886
 1.0000e+001 192090 -7.0571e+005 -2.1878e+006 -1.7351e+005 186486 192012,192064,192038
 1.0000e+001 192242 -5.1060e+005 -5.9232e+006  9.0488e+003 186288 192115,192167,192141
 1.0000e+001 192219 -4.6003e+005 -5.1999e+006  2.0322e+005 186288 192115,192193,192167
 1.0000e+001 192394 -1.4177e+005 -5.1708e+006 -3.0143e+005 185935 192293,192345,192319
 1.0000e+001 192371 -4.0920e+005 -4.3913e+006 -4.7443e+005 185935 192267,192345,192293
 1.0000e+001 192546 -3.7660e+005 -2.9984e+006 -1.1021e+005 185675 192419,192471,192445
 1.0000e+001 192523 -1.3510e+005 -2.9936e+006  1.6284e+004 185675 192419,192497,192471
 1.0000e+001 192649 -4.2281e+005 -2.2165e+006 -9.6575e+004 185499 192571,192623,192597
 1.0000e+001 192801 -1.2797e+006 -2.3332e+006 -5.0967e+005 185301 192674,192726,192700
 1.0000e+001 192778 -5.6794e+005 -2.3625e+006  9.9467e+004 185301 192674,192752,192726
 1.0000e+001 193002 -1.4927e+005 -2.7029e+006 -5.0662e+005 185046 192852,192930,192878
 1.0000e+001 192979 -4.2070e+005 -3.7539e+006 -4.3129e+005 185046 192826,192930,192852
 1.0000e+001 192956  3.5110e+005 -4.5842e+006  6.4370e+004 185046 192878,192930,192904
 1.0000e+001 193203 -1.5891e+006 -3.7304e+006 -3.9318e+005 184798 193079,193131,193105
 1.0000e+001 193180 -2.1436e+005 -5.4237e+006 -1.0872e+006 184798 193027,193131,193079
 1.0000e+001 193157 -3.5244e+005 -5.5916e+006  6.8406e+005 184798 193027,193079,193053
 1.0000e+001 193404 -1.9737e+005 -4.1996e+006 -4.5494e+005 184600 193254,193306,193280
 1.0000e+001 193381 -5.7421e+005 -4.1305e+006  4.3627e+004 184600 193254,193332,193306
 1.0000e+001 193358 -8.6973e+005 -3.4125e+006 -8.0787e+004 184600 193228,193332,193254
 1.0000e+001 193556  2.1106e+005 -4.6530e+006  2.2347e+004 184402 193429,193481,193455
 1.0000e+001 193533  7.3902e+004 -4.2349e+006 -2.8943e+005 184402 193429,193507,193481
 1.0000e+001 193708 -8.3013e+005 -4.2758e+006 -1.8090e+005 184204 193607,193659,193633
 1.0000e+001 193685 -9.1770e+005 -5.6771e+006 -5.5373e+005 184204 193581,193659,193607
 1.0000e+001 193860 -5.0386e+005 -2.9785e+006  3.5265e+005 183908 193759,193811,193785
 1.0000e+001 193837 -2.4854e+005 -3.2735e+006  3.9805e+005 183908 193733,193811,193759
 1.0000e+001 194061 -1.2277e+005 -1.6253e+006 -3.7203e+005 183710 193911,193989,193937
 1.0000e+001 194038 -6.5935e+005 -2.3000e+006  2.1096e+005 183710 193885,193989,193911
 1.0000e+001 194015 -4.7292e+004 -3.4542e+006 -5.0500e+004 183710 193937,193989,193963
 1.0000e+001 194262 -1.3050e+006 -3.7602e+006 -1.1012e+006 183420 194086,194164,194112
 1.0000e+001 194239 -1.3185e+006 -3.2315e+006 -2.4405e+004 183420 194086,194190,194164
 1.0000e+001 194216 -5.9544e+005 -7.9305e+006  8.8610e+005 183420 194112,194164,194138
 1.0000e+001 194414 -2.0505e+005 -5.4378e+006  6.3451e+005 183222 194287,194339,194313
 1.0000e+001 194391 -6.2235e+005 -3.1484e+006 -5.8154e+003 183222 194287,194365,194339
 1.0000e+001 194517 -9.2479e+005 -3.8776e+006  1.1209e+005 183024 194439,194491,194465
 1.0000e+001 194718 -2.9692e+005 -9.8281e+006  6.4659e+005 182734 194568,194620,194594
 1.0000e+001 194695 -8.1830e+005 -4.3667e+006 -1.8539e+006 182734 194542,194620,194568
 1.0000e+001 194672 -2.0974e+006 -2.0451e+006 -8.7941e+005 182734 194542,194646,194620
 1.0000e+001 194870 -3.5114e+005 -3.1124e+006  4.7244e+004 182444 194769,194821,194795
 1.0000e+001 194847 -2.3742e+005 -2.5009e+006 -9.8787e+004 182444 194743,194821,194769
 1.0000e+001 195071 -1.7356e+006 -4.9967e+006 -4.7399e+004 182154 194895,194947,194921
 1.0000e+001 195048 -1.0568e+006 -3.0400e+006  5.6417e+005 182154 194895,194999,194947
 1.0000e+001 195025 -3.2448e+005 -6.2779e+006  7.2572e+005 182154 194947,194999,194973
 1.0000e+001 195223 -1.0520e+006 -4.3900e+006  5.6235e+005 181814 195096,195148,195122
 1.0000e+001 195200 -7.0063e+005 -2.7867e+006  9.5025e+005 181814 195096,195174,195148
 1.0000e+001 195375 -6.2726e+004 -4.3869e+006  3.7044e+005 181524 195248,195300,195274
 1.0000e+001 195352  8.5926e+004 -4.1592e+006  2.6243e+005 181524 195248,195326,195300
 1.0000e+001 195527 -2.5143e+005 -1.5917e+006 -5.9262e+005 181326 195426,195478,195452
 1.0000e+001 195504 -6.5080e+005 -1.7002e+006 -3.4173e+005 181326 195400,195478,195426
 1.0000e+001 195679  5.9377e+005 -7.1487e+006  3.0765e+005 180936 195578,195630,195604
 1.0000e+001 195656 -3.8573e+005 -4.1415e+006  5.8240e+004 180936 195552,195630,195578
 1.0000e+001 195831 -6.5364e+005 -5.3402e+005 -3.0145e+005 180646 195704,195756,195730
 1.0000e+001 195808 -5.5513e+005 -1.8222e+005 -7.7968e+004 180646 195704,195782,195756
 1.0000e+001 196032 -5.3635e+005 -2.7637e+006  1.3898e+006 180306 195882,195960,195934
 1.0000e+001 196009 -1.2396e+006 -3.1895e+006  1.9343e+005 180306 195856,195960,195882
 1.0000e+001 195986  5.0076e+005 -4.3458e+006 -3.8719e+005 180306 195882,195934,195908
 1.0000e+001 196233 -2.7864e+005 -1.3301e+006 -7.8923e+005 179944 196057,196109,196083
 1.0000e+001 196210 -1.7200e+006 -7.9967e+006  1.4101e+006 179944 196057,196135,196109
 1.0000e+001 196187 -3.3034e+006  5.3026e+006 -1.8506e+006 179944 196057,196161,196135
 1.0000e+001 196385 -2.5520e+002 -1.4669e+005 -3.1480e+003 179604 196258,196310,196284
 1.0000e+001 196362  3.0446e+002 -1.4382e+005 -3.5513e+003 179604 196258,196336,196310
 1.0000e+001 196586  2.8757e+005 -2.6524e+006 -3.3859e+005 179114 196410,196488,196436
 1.0000e+001 196563 -1.2742e+005 -1.6398e+006 -2.0510e+005 179114 196410,196514,196488
 1.0000e+001 196540 -2.9803e+004 -2.7417e+006 -2.8860e+005 179114 196436,196488,196462
 1.0000e+001 196738 -7.4610e+005 -2.7604e+006 -4.0202e+005 178674 196611,196663,196637
 1.0000e+001 196715 -1.1786e+005 -3.9572e+006 -1.4750e+005 178674 196611,196689,196663
 1.0000e+001 196939  9.0241e+005 -6.4906e+006 -6.4355e+005 178334 196789,196867,196841
 1.0000e+001 196916 -8.8320e+004 -6.4610e+006 -1.4139e+005 178334 196763,196867,196789
 1.0000e+001 196893 -6.8478e+005 -5.5237e+006 -2.2749e+006 178334 196789,196841,196815
 1.0000e+001 197091 -3.2538e+005 -3.1853e+006 -5.2030e+005 177930 196990,197042,197016
 1.0000e+001 197068 -6.4485e+005 -4.3777e+006 -3.6160e+005 177930 196964,197042,196990
 1.0000e+001 197194 -2.8048e+002 -1.1443e+006 -4.2365e+002 177732 197116,197168,197142
 1.0000e+001 197346 -6.1283e+005 -6.8618e+006  3.7146e+004 177534 197219,197271,197245
 1.0000e+001 197323 -2.1236e+005 -8.3636e+006  8.4566e+005 177534 197219,197297,197271
 1.0000e+001 197547 -9.4924e+005 -2.9175e+006 -1.8759e+006 177130 197397,197449,197423
 1.0000e+001 197524 -7.7439e+005 -3.1894e+006 -2.9289e+005 177130 197397,197475,197449
 1.0000e+001 197501 -1.0800e+006 -7.7425e+006 -9.7018e+005 177130 197371,197475,197397
 1.0000e+001 197748 -4.7524e+005 -6.7193e+006  6.1289e+005 176790 197598,197676,197624
 1.0000e+001 197725 -2.7281e+005 -5.7470e+006  8.0140e+005 176790 197572,197676,197598
 1.0000e+001 197702 -7.0754e+005 -5.2550e+006  1.1180e+006 176790 197624,197676,197650
 1.0000e+001 197900 -1.7916e+005 -3.7182e+006 -8.0652e+005 176300 197773,197825,197799
 1.0000e+001 197877 -5.5366e+004 -3.8537e+006 -8.4193e+005 176300 197773,197851,197825
 1.0000e+001 198052 -1.2327e+005 -6.8496e+006 -1.3976e+006 176010 197925,197977,197951
 1.0000e+001 198029 -8.3134e+005 -5.0434e+006 -7.3787e+005 176010 197925,198003,197977
 1.0000e+001 198204 -2.3172e+006 -6.2312e+006  1.7671e+006 175670 198103,198155,198129
 1.0000e+001 198181 -1.5942e+006 -6.3202e+006  2.0312e+005 175670 198077,198155,198103
 1.0000e+001 198405 -7.7729e+005 -6.2260e+006 -1.9564e+005 175266 198255,198307,198281
 1.0000e+001 198382 -4.7275e+005 -5.8626e+006  9.2611e+004 175266 198229,198307,198255
 1.0000e+001 198359 -2.2931e+005 -5.7063e+006 -2.4891e+004 175266 198229,198333,198307
 1.0000e+001 198606 -4.7369e+005 -3.7205e+006 -4.4698e+005 174876 198430,198508,198482
 1.0000e+001 198583 -8.2026e+005 -3.9181e+006  5.4934e+005 174876 198430,198534,198508
 1.0000e+001 198560 -4.3147e+005 -4.1561e+006 -2.9525e+005 174876 198430,198482,198456
 1.0000e+001 198758 -2.9692e+004 -1.1070e+005 -5.8126e+004 174536 198657,198709,198683
 1.0000e+001 198735 -3.0156e+004 -1.1149e+005 -5.7378e+004 174536 198631,198709,198657
 1.0000e+001 199008 -1.4896e+005 -9.7039e+006  1.1728e+005 174132 198835,198913,198887
 1.0000e+001 198985 -8.7697e+004 -6.4298e+006  2.9214e+005 174132 198809,198913,198835
 1.0000e+001 198962 -5.7627e+004 -6.5979e+006 -9.9558e+005 174132 198783,198913,198809
 1.0000e+001 198939 -3.8449e+005 -7.7813e+006  7.0281e+005 174132 198835,198887,198861
 1.0000e+001 199160 -3.8064e+005 -6.4791e+006  7.5023e+005 173842 199059,199111,199085
 1.0000e+001 199137 -7.5592e+005 -4.5653e+006  2.7741e+004 173842 199033,199111,199059
 1.0000e+001 199361 -6.8840e+005 -6.6128e+006  8.4191e+005 173438 199237,199289,199263
 1.0000e+001 199338 -8.2098e+005 -5.1063e+006  1.1279e+006 173438 199211,199289,199237
 1.0000e+001 199315 -7.1967e+005 -6.3793e+006  4.6423e+004 173438 199185,199289,199211
 1.0000e+001 199513  1.9675e+004 -7.3807e+006  1.0958e+006 173190 199386,199438,199412
 1.0000e+001 199490 -5.1702e+005 -6.2048e+006  3.0993e+005 173190 199386,199464,199438
 1.0000e+001 199665 -1.6296e+005 -2.9997e+006  8.7926e+004 172750 199564,199616,199590
 1.0000e+001 199642 -5.1745e+005 -1.9659e+006 -1.2605e+005 172750 199538,199616,199564
 1.0000e+001 199817 -6.6406e+005 -7.5520e+006 -2.2038e+006 172524 199690,199742,199716
 1.0000e+001 199794 -2.4831e+006 -4.7547e+006 -1.5132e+006 172524 199690,199768,199742
 1.0000e+001 199969 -8.6378e+005 -5.7669e+006 -1.4235e+006 172348 199842,199894,199868
 1.0000e+001 199946  2.6006e+005 -5.6494e+006  6.7678e+004 172348 199842,199920,199894
 1.0000e+001 200121  1.9081e+005 -7.2056e+006 -8.1028e+005 172008 199994,200046,200020
 1.0000e+001 200098 -4.6995e+005 -4.1926e+006 -5.7486e+005 172008 199994,200072,200046
 1.0000e+001 200273 -7.1612e+005 -7.7353e+006  1.4372e+006 171668 200172,200224,200198
 1.0000e+001 200250 -3.9409e+005 -7.9723e+006  2.0873e+006 171668 200146,200224,200172
 1.0000e+001 200474 -5.4126e+005 -8.6953e+006 -5.6577e+005 171264 200350,200402,200376
 1.0000e+001 200451 -7.5086e+005 -7.0447e+006 -7.1711e+004 171264 200324,200402,200350
 1.0000e+001 200428 -6.4817e+005 -6.7502e+006  2.7562e+005 171264 200298,200402,200324
 1.0000e+001 200626  2.1756e+005 -8.5415e+006  4.3908e+005 170832 200525,200577,200551
 1.0000e+001 200603 -1.2972e+005 -7.2594e+006  3.3448e+005 170832 200499,200577,200525
 1.0000e+001 200827  2.2178e+005 -7.6292e+006  1.0642e+006 170492 200677,200729,200703
 1.0000e+001 200804 -9.4222e+005 -4.1601e+006 -1.6762e+006 170492 200651,200729,200677
 1.0000e+001 200781 -1.4742e+006 -4.7051e+006 -1.2798e+006 170492 200651,200755,200729
 1.0000e+001 201077  5.6411e+005 -2.9783e+006  4.7110e+004 170088 200878,200956,200904
 1.0000e+001 201054 -6.4363e+005 -3.7697e+006 -1.2394e+006 170088 200852,200956,200878
 1.0000e+001 201031  2.0157e+005 -2.9305e+006  1.8988e+006 170088 200904,200956,200930
 1.0000e+001 201008  2.7389e+006 -8.3715e+006  1.9753e+006 170088 200852,200982,200956
 1.0000e+001 201278  3.1756e+005 -3.9333e+006  7.4001e+005 169798 201102,201154,201128
 1.0000e+001 201255 -1.1235e+006 -9.6503e+006  3.9782e+005 169798 201102,201206,201154
 1.0000e+001 201232 -1.7202e+006 -3.8007e+006  1.4346e+006 169798 201154,201206,201180
 1.0000e+001 201430 -1.2504e+006 -1.0734e+007 -9.2434e+005 169337 201303,201355,201329
 1.0000e+001 201407 -7.6223e+005 -6.5353e+006 -8.3612e+005 169337 201303,201381,201355
 1.0000e+001 201631 -2.6828e+005 -6.2315e+006 -3.4114e+005 168883 201481,201559,201507
 1.0000e+001 201608  2.8728e+005 -6.2162e+006 -2.9425e+005 168883 201455,201559,201481
 1.0000e+001 201585 -1.1235e+006 -8.0784e+006 -9.8642e+005 168883 201507,201559,201533
 1.0000e+001 201832 -2.6101e+005 -9.5774e+006 -6.9401e+004 168479 201682,201734,201708
 1.0000e+001 201809 -1.2429e+006 -8.8036e+006 -7.4123e+005 168479 201656,201734,201682
 1.0000e+001 201786 -9.2531e+005 -7.5476e+006 -4.2144e+005 168479 201656,201760,201734
 1.0000e+001 202033 -1.8806e+005 -5.4161e+006  9.2890e+005 167825 201883,201935,201909
 1.0000e+001 202010  1.9127e+004 -5.8951e+006 -2.8607e+005 167825 201857,201935,201883
 1.0000e+001 201987 -8.3471e+004 -7.9206e+006  2.3155e+005 167825 201857,201961,201935
 1.0000e+001 202234 -1.0856e+006 -7.3741e+006 -2.1380e+006 167435 202058,202136,202084
 1.0000e+001 202211 -2.7139e+006 -1.1332e+007  2.3935e+006 167435 202058,202162,202136
 1.0000e+001 202188 -1.2159e+006 -3.8731e+006  3.1203e+005 167435 202084,202136,202110
 1.0000e+001 202386  9.6478e+004 -5.7692e+006  2.7245e+005 167002 202285,202337,202311
 1.0000e+001 202363 -3.3778e+005 -4.0613e+006  3.1151e+005 167002 202259,202337,202285
 1.0000e+001 202538  9.3325e+004 -6.7393e+006 -2.0472e+005 166662 202411,202463,202437
 1.0000e+001 202515 -4.4362e+005 -4.2498e+006  1.8220e+005 166662 202411,202489,202463
 1.0000e+001 202690 -5.8590e+005 -6.8107e+006 -7.7916e+005 166322 202589,202641,202615
 1.0000e+001 202667  1.3693e+005 -6.9211e+006 -8.2584e+005 166322 202563,202641,202589
 1.0000e+001 202891 -1.4957e+006 -4.9041e+006  4.9743e+005 165918 202715,202767,202741
 1.0000e+001 202868 -1.4267e+006 -4.7903e+006 -3.0060e+004 165918 202715,202793,202767
 1.0000e+001 202845 -2.9137e+005 -4.4760e+006 -3.5800e+005 165918 202715,202819,202793
 1.0000e+001 203092 -1.2508e+006 -8.1412e+006 -7.0397e+005 165628 202916,202968,202942
 1.0000e+001 203069 -5.8169e+005 -1.0613e+007 -3.8731e+005 165628 202916,202994,202968
 1.0000e+001 203046 -9.6550e+005 -1.1140e+007  1.3176e+005 165628 202916,203020,202994
 1.0000e+001 203293 -2.0527e+006 -1.1483e+007  2.4529e+006 165266 203143,203195,203169
 1.0000e+001 203270 -3.1591e+006 -6.5552e+006 -7.4016e+005 165266 203143,203221,203195
 1.0000e+001 203247 -4.0035e+003 -8.9277e+006 -3.5106e+006 165266 203117,203221,203143
 1.0000e+001 203445 -5.4387e+005 -4.4000e+006  2.4241e+005 164826 203318,203370,203344
 1.0000e+001 203422 -1.1586e+005 -4.7347e+006  4.8826e+005 164826 203318,203396,203370
 1.0000e+001 203597 -7.8177e+005 -6.9683e+006 -4.0855e+003 164386 203470,203522,203496
 1.0000e+001 203574 -2.6584e+005 -5.0995e+006  2.2927e+005 164386 203470,203548,203522
 1.0000e+001 203798  6.0911e+004 -6.7853e+006  8.7513e+005 163996 203622,203674,203648
 1.0000e+001 203775 -4.2194e+005 -3.0665e+006  2.4664e+004 163996 203622,203726,203674
 1.0000e+001 203752 -1.7121e+006 -7.4071e+006  1.8325e+006 163996 203674,203726,203700
 1.0000e+001 203901 -3.9373e+005 -3.5540e+006 -5.5644e+005 163770 203823,203875,203849
 1.0000e+001 204053 -1.0144e+006 -6.3055e+006  6.7828e+005 163474 203952,204004,203978
 1.0000e+001 204030 -9.4111e+005 -6.6391e+006  1.1595e+004 163474 203926,204004,203952
 1.0000e+001 204205  1.2612e+005 -5.9875e+006 -6.0576e+005 163034 204104,204156,204130
 1.0000e+001 204182 -1.0940e+006 -7.5997e+006 -2.0158e+006 163034 204078,204156,204104
 1.0000e+001 204357 -3.2924e+005 -6.5166e+006  7.6700e+005 162624 204256,204308,204282
 1.0000e+001 204334 -2.5779e+005 -3.1957e+006 -6.8057e+002 162624 204230,204308,204256
 1.0000e+001 204509 -1.6440e+003 -5.1157e+004  9.3239e+003 162200 204382,204434,204408
 1.0000e+001 204486 -1.6681e+003 -5.0776e+004  9.1958e+003 162200 204382,204460,204434
 1.0000e+001 204710 -1.2291e+005 -1.5406e+006  1.5831e+005 161810 204560,204638,204586
 1.0000e+001 204687  3.1338e+003 -2.2394e+006 -5.3670e+005 161810 204534,204638,204560
 1.0000e+001 204664 -2.4602e+005 -1.1650e+006 -1.7506e+005 161810 204586,204638,204612
 1.0000e+001 204862 -1.4304e+006 -5.3517e+006 -1.0170e+006 161406 204735,204787,204761
 1.0000e+001 204839 -1.8636e+006 -6.6507e+006 -2.8802e+005 161406 204735,204813,204787
 1.0000e+001 205014 -4.2825e+005 -3.2387e+006  7.8579e+005 161180 204887,204939,204913
 1.0000e+001 204991 -4.6555e+005 -1.9549e+006  1.2117e+005 161180 204887,204965,204939
 1.0000e+001 205215  3.0595e+005 -3.3191e+006 -2.4222e+005 160726 205039,205091,205065
 1.0000e+001 205192 -7.1957e+005 -7.3744e+006 -4.1081e+005 160726 205039,205143,205091
 1.0000e+001 205169 -4.4350e+005 -1.9556e+006 -1.2767e+004 160726 205091,205143,205117
 1.0000e+001 205416 -3.6714e+005 -4.2311e+006  9.7451e+005 160272 205292,205344,205318
 1.0000e+001 205393 -4.3084e+005 -3.9493e+006  9.3793e+005 160272 205240,205344,205292
 1.0000e+001 205370 -5.2935e+005 -4.5570e+006  6.0141e+005 160272 205240,205292,205266
 1.0000e+001 205568  6.5912e+003 -4.0309e+006  7.9553e+005 159932 205441,205493,205467
 1.0000e+001 205545 -3.1343e+005 -4.4780e+006  1.0486e+006 159932 205441,205519,205493
 1.0000e+001 205720 -2.1401e+004 -3.5697e+006 -7.0212e+005 159542 205593,205645,205619
 1.0000e+001 205697 -3.5664e+005 -5.9786e+005 -1.0637e+005 159542 205593,205671,205645
 1.0000e+001 205872  2.9687e+005 -8.2731e+005  8.1497e+004 159252 205745,205797,205771
 1.0000e+001 205849 -3.8543e+005 -4.0016e+006 -2.3392e+005 159252 205745,205823,205797
 1.0000e+001 206024 -2.8564e+006 -2.7214e+006 -1.0452e+006 159004 205923,205975,205949
 1.0000e+001 206001 -9.2622e+005 -3.2013e+006  2.0503e+005 159004 205897,205975,205923
 1.0000e+001 206127 -1.5912e+002 -2.3992e+002  2.7229e+002 158364 206049,206101,206075
 1.0000e+001 206328 -3.7656e+005 -4.1483e+006  9.0780e+004 157960 206178,206256,206204
 1.0000e+001 206305 -1.9542e+005 -3.6336e+006  6.7942e+005 157960 206152,206256,206178
 1.0000e+001 206282  4.0148e+004 -3.7243e+006  3.6197e+005 157960 206204,206256,206230
 1.0000e+001 206529 -3.5204e+005 -6.3663e+006  2.3901e+005 157648 206405,206457,206431
 1.0000e+001 206506 -1.5783e+006 -5.9844e+006 -3.5347e+005 157648 206379,206457,206405
 1.0000e+001 206483 -3.8312e+005 -6.0929e+006 -7.0443e+005 157648 206353,206457,206379
 1.0000e+001 206730  4.1743e+005 -1.0334e+007  5.6493e+005 157208 206554,206606,206580
 1.0000e+001 206707  1.0203e+005 -1.2896e+007  6.3712e+005 157208 206554,206632,206606
 1.0000e+001 206684 -3.2751e+006 -5.2638e+006  8.6428e+005 157208 206554,206658,206632
 1.0000e+001 206882 -9.9434e+003 -3.1070e+006  3.9278e+005 157010 206755,206807,206781
 1.0000e+001 206859  3.7834e+004 -3.3550e+006  5.0021e+005 157010 206755,206833,206807
 1.0000e+001 207034 -1.1949e+004 -8.1325e+006 -7.6219e+003 156620 206907,206959,206933
 1.0000e+001 207011 -5.5463e+004 -8.0362e+006  7.4484e+003 156620 206907,206985,206959
 1.0000e+001 207186 -3.2418e+004 -3.1869e+006  1.1078e+005 156330 207085,207137,207111
 1.0000e+001 207163 -1.2612e+005 -3.2392e+006 -4.8331e+005 156330 207059,207137,207085
 1.0000e+001 207387 -1.0490e+005 -6.9444e+006  3.6415e+005 155890 207211,207289,207237
 1.0000e+001 207364 -2.7948e+005 -6.9913e+006  1.4172e+005 155890 207211,207315,207289
 1.0000e+001 207341 -1.0690e+006 -4.6250e+006  1.8181e+006 155890 207237,207289,207263
 1.0000e+001 207588  5.4800e+005 -1.1684e+007  1.8724e+006 155436 207438,207490,207464
 1.0000e+001 207565 -4.9783e+005 -1.0669e+007  3.6611e+005 155436 207412,207490,207438
 1.0000e+001 207542 -3.6349e+005 -9.3118e+006  1.5256e+005 155436 207412,207516,207490
 1.0000e+001 207789 -5.2919e+005 -1.6846e+007 -6.9372e+005 155260 207639,207691,207665
 1.0000e+001 207766 -1.3653e+006 -9.5798e+006  2.0026e+006 155260 207613,207691,207639
 1.0000e+001 207743 -2.1989e+005 -8.4745e+006  9.4994e+004 155260 207613,207717,207691
 1.0000e+001 207990 -1.8355e+005 -1.8324e+006  4.5126e+005 154920 207840,207918,207892
 1.0000e+001 207967 -1.0058e+006 -2.2233e+006 -1.2692e+005 154920 207814,207918,207840
 1.0000e+001 207944 -1.8286e+005 -1.2565e+006  9.6811e+004 154920 207840,207892,207866
 1.0000e+001 208191  3.4284e+005 -9.1598e+006 -1.2379e+006 154630 208015,208093,208041
 1.0000e+001 208168 -1.1455e+006 -6.2138e+006 -4.5677e+005 154630 208015,208119,208093
 1.0000e+001 208145 -9.4073e+005 -8.5154e+006 -1.8791e+006 154630 208041,208093,208067
 1.0000e+001 208343 -6.7008e+004 -2.0420e+006  1.0912e+005 154240 208216,208268,208242
 1.0000e+001 208320  7.6545e+004 -1.5049e+006  4.8425e+004 154240 208216,208294,208268
 1.0000e+001 208495 -3.6770e+005 -1.3232e+007 -2.1995e+006 153950 208394,208446,208420
 1.0000e+001 208472 -1.3071e+006 -9.7667e+006  3.4977e+005 153950 208368,208446,208394
 1.0000e+001 208647 -3.8878e+005 -8.7952e+006  2.9544e+006 153603 208520,208572,208546
 1.0000e+001 208624 -2.9336e+006 -5.7116e+006  1.2835e+005 153603 208520,208598,208572
 1.0000e+001 208848 -5.9140e+005 -6.6935e+006  8.3362e+005 153149 208698,208776,208724
 1.0000e+001 208825  1.6334e+005 -9.2726e+006 -4.4515e+005 153149 208672,208776,208698
 1.0000e+001 208802 -1.3914e+006 -8.1645e+006  2.3733e+005 153149 208724,208776,208750
 1.0000e+001 209000 -5.1642e+005 -8.9565e+006 -6.7727e+003 152859 208873,208925,208899
 1.0000e+001 208977 -1.4933e+005 -1.0988e+007  2.8487e+005 152859 208873,208951,208925
 1.0000e+001 209152 -1.4384e+005 -9.8476e+006 -9.0339e+004 152569 209051,209103,209077
 1.0000e+001 209129 -8.5870e+005 -9.9893e+006 -2.3343e+005 152569 209025,209103,209051
 1.0000e+001 209304 -2.3783e+005 -1.4134e+006 -5.8319e+004 152065 209177,209229,209203
 1.0000e+001 209281 -3.4792e+005 -2.7115e+006  5.0933e+005 152065 209177,209255,209229
 1.0000e+001 209456  2.7790e+005 -9.8533e+006  9.9580e+004 151775 209355,209407,209381
 1.0000e+001 209433  2.2637e+005 -1.1808e+007 -1.1995e+005 151775 209329,209407,209355
 1.0000e+001 209608 -5.4134e+005 -1.2189e+007 -2.2995e+005 151371 209481,209533,209507
 1.0000e+001 209585  2.6652e+005 -1.3624e+007  7.7131e+004 151371 209481,209559,209533
 1.0000e+001 209760 -2.0099e+006 -7.6841e+006 -1.4666e+006 150981 209659,209711,209685
 1.0000e+001 209737 -3.7621e+005 -7.2412e+006 -1.1944e+006 150981 209633,209711,209659
 1.0000e+001 209912  8.0486e+005 -1.6392e+007 -9.7603e+005 150619 209811,209863,209837
 1.0000e+001 209889  1.1041e+006 -1.2719e+007  5.6557e+005 150619 209785,209863,209811
 1.0000e+001 210064 -1.3292e+005 -1.0161e+007 -6.9446e+005 150279 209937,209989,209963
 1.0000e+001 210041 -2.8138e+005 -7.5198e+006 -9.9636e+005 150279 209937,210015,209989
 1.0000e+001 210265 -1.2065e+005 -1.2051e+007 -2.9468e+006 149989 210115,210167,210141
 1.0000e+001 210242 -1.3990e+006 -8.6455e+006  1.2416e+006 149989 210115,210193,210167
 1.0000e+001 210219 -1.7493e+006 -1.3478e+007  7.4976e+005 149989 210089,210193,210115
 1.0000e+001 210417 -1.0294e+006 -9.1603e+006 -7.3323e+005 149599 210316,210368,210342
 1.0000e+001 210394 -8.3670e+005 -6.5640e+006 -1.6684e+004 149599 210290,210368,210316
 1.0000e+001 210618 -2.6447e+006 -7.3250e+006 -1.4076e+006 149095 210468,210520,210494
 1.0000e+001 210595 -2.3822e+006 -7.7947e+006  1.8491e+006 149095 210442,210520,210468
 1.0000e+001 210572 -5.1820e+005 -1.3875e+007  1.9246e+006 149095 210442,210546,210520
 1.0000e+001 210819 -3.6979e+005 -2.3870e+006  5.4106e+005 148748 210695,210747,210721
 1.0000e+001 210796 -2.8770e+004 -4.4518e+006  1.2377e+006 148748 210669,210747,210695
 1.0000e+001 210773 -6.5140e+005 -4.0993e+006  1.6344e+006 148748 210643,210747,210669
 1.0000e+001 210971 -1.1341e+005 -1.6705e+006  2.0136e+004 148408 210870,210922,210896
 1.0000e+001 210948 -3.1926e+005 -1.8129e+006 -1.8060e+005 148408 210844,210922,210870
 1.0000e+001 211123 -5.5326e+005 -6.2955e+006  1.5228e+006 148118 210996,211048,211022
 1.0000e+001 211100 -1.5811e+006 -7.1859e+006  2.2412e+006 148118 210996,211074,211048
 1.0000e+001 211275 -1.8770e+006 -8.7786e+006  6.9437e+005 147778 211148,211200,211174
 1.0000e+001 211252 -2.1091e+006 -1.1398e+007  2.3369e+006 147778 211148,211226,211200
 1.0000e+001 211427 -8.5560e+005 -8.9932e+006 -4.0407e+005 147324 211326,211378,211352
 1.0000e+001 211404 -1.4658e+005 -8.4627e+006 -4.2742e+004 147324 211300,211378,211326
 1.0000e+001 211628  1.0184e+005 -5.4000e+005  3.1372e+004 147012 211452,211504,211478
 1.0000e+001 211605 -2.9630e+004 -1.6356e+006 -2.2117e+004 147012 211452,211556,211504
 1.0000e+001 211582 -6.6430e+004 -1.8898e+006 -3.2547e+003 147012 211504,211556,211530
 1.0000e+001 211829 -8.9485e+005 -7.0759e+006  9.4551e+005 146636 211679,211757,211731
 1.0000e+001 211806  1.0355e+006 -1.0817e+007 -2.3407e+005 146636 211653,211757,211679
 1.0000e+001 211783  5.1949e+005 -6.4369e+006  4.4402e+005 146636 211679,211731,211705
 1.0000e+001 211981  1.0797e+005 -1.9143e+006  6.3897e+004 146246 211880,211932,211906
 1.0000e+001 211958 -5.3118e+004 -3.8316e+005 -6.4182e+004 146246 211854,211932,211880
 1.0000e+001 212133  8.1352e+004 -1.7239e+006 -3.0237e+003 145956 212006,212058,212032
 1.0000e+001 212110 -2.3548e+005 -1.5808e+006 -5.3943e+004 145956 212006,212084,212058
 1.0000e+001 212285 -1.0920e+005 -1.9508e+006  4.5460e+004 145544 212184,212236,212210
 1.0000e+001 212262 -1.2062e+005 -6.8501e+005 -6.0684e+004 145544 212158,212236,212184
 1.0000e+001 212486 -8.7663e+004 -5.7677e+006  6.8278e+005 144990 212362,212414,212388
 1.0000e+001 212463  5.9085e+004 -4.9982e+006  1.1361e+006 144990 212310,212414,212362
 1.0000e+001 212440 -6.0608e+005 -2.7582e+006  7.5795e+005 144990 212310,212362,212336
 1.0000e+001 212638 -8.1804e+005 -4.3250e+006  1.2039e+006 144600 212537,212589,212563
 1.0000e+001 212615 -3.1941e+005 -2.3566e+006  1.1350e+005 144600 212511,212589,212537
 1.0000e+001 212839 -4.9859e+004 -9.4394e+005 -9.8468e+004 144210 212689,212741,212715
 1.0000e+001 212816  6.1745e+003 -1.3594e+006  2.0983e+005 144210 212663,212741,212689
 1.0000e+001 212793 -2.6583e+005 -1.5938e+006 -1.6647e+005 144210 212663,212767,212741
 1.0000e+001 212991 -1.3367e+006 -2.7907e+006  1.1140e+006 143920 212890,212942,212916
 1.0000e+001 212968 -8.2961e+005 -6.7006e+006  5.6674e+005 143920 212864,212942,212890
 1.0000e+001 213143  3.1393e+004 -1.5567e+006  1.5748e+005 143480 213016,213068,213042
 1.0000e+001 213120  1.5532e+004 -1.2370e+006 -1.4870e+005 143480 213016,213094,213068
 1.0000e+001 213295 -6.7142e+005 -3.1825e+006  9.3801e+005 142990 213194,213246,213220
 1.0000e+001 213272 -1.2956e+006 -2.1534e+006 -2.9004e+005 142990 213168,213246,213194
 1.0000e+001 213447 -8.1343e+005 -4.3944e+006  9.0486e+005 142600 213320,213372,213346
 1.0000e+001 213424 -1.5786e+006 -2.5241e+006 -4.0696e+005 142600 213320,213398,213372
 1.0000e+001 213599 -4.4433e+005 -4.0887e+006 -1.6032e+005 142260 213472,213524,213498
 1.0000e+001 213576 -6.7984e+004 -4.4066e+006  8.2250e+005 142260 213472,213550,213524
 1.0000e+001 213751 -1.2724e+006 -5.3492e+006  8.8218e+005 141870 213624,213676,213650
 1.0000e+001 213728 -1.7981e+006 -5.3002e+006  6.9990e+005 141870 213624,213702,213676
 1.0000e+001 213903 -1.5527e+006 -4.6808e+006 -2.2800e+006 141530 213776,213828,213802
 1.0000e+001 213880 -4.0888e+005 -5.5170e+006 -7.9600e+005 141530 213776,213854,213828
 1.0000e+001 214055 -8.0937e+004 -7.1773e+005 -8.1403e+004 141218 213928,213980,213954
 1.0000e+001 214032  2.3458e+005 -2.2496e+006  2.8693e+005 141218 213928,214006,213980
 1.0000e+001 214207 -2.1140e+005 -9.9999e+005 -9.5728e+004 140928 214080,214132,214106
 1.0000e+001 214184 -3.1428e+005 -1.0491e+006  1.2762e+005 140928 214080,214158,214132
 1.0000e+001 214359 -4.9383e+005 -2.3416e+006 -7.2746e+005 140538 214232,214284,214258
 1.0000e+001 214336  9.8611e+004 -5.8518e+006  1.6308e+006 140538 214232,214310,214284
 1.0000e+001 214560 -8.5378e+004 -1.9258e+006  2.2213e+005 140248 214384,214462,214410
 1.0000e+001 214537 -1.1584e+005 -9.5132e+005  9.7507e+003 140248 214384,214488,214462
 1.0000e+001 214514 -2.3830e+004 -1.2674e+006 -2.9222e+004 140248 214410,214462,214436
 1.0000e+001 214712 -1.5334e+005 -5.5956e+006  3.7349e+005 140000 214611,214663,214637
 1.0000e+001 214689 -6.1718e+005 -3.4559e+006 -4.7480e+004 140000 214585,214663,214611
 1.0000e+001 214913 -5.2421e+005 -3.5252e+006 -9.8128e+005 139596 214737,214815,214763
 1.0000e+001 214890 -4.1333e+005 -1.8270e+006 -9.7990e+004 139596 214737,214841,214815
 1.0000e+001 214867  3.2896e+005 -5.5325e+006 -5.6924e+005 139596 214763,214815,214789
 1.0000e+001 215016  3.5799e+001 -3.8454e+004  7.6516e+001 139420 214938,214990,214964
 1.0000e+001 215168 -1.1595e+005 -3.7308e+006  1.2045e+006 139130 215067,215119,215093
 1.0000e+001 215145 -6.1091e+005 -3.8743e+006  8.8083e+005 139130 215041,215119,215067
 1.0000e+001 215320 -8.4032e+005 -1.6914e+006  5.0999e+005 138790 215219,215271,215245
 1.0000e+001 215297 -4.3072e+004 -4.1847e+006  1.1880e+006 138790 215193,215271,215219
 1.0000e+001 215472 -3.0094e+005 -1.8783e+006  7.2481e+005 138514 215345,215397,215371
 1.0000e+001 215449 -2.3970e+005 -1.1795e+006  1.8129e+005 138514 215345,215423,215397
 1.0000e+001 215624 -1.0917e+006 -5.7145e+006 -3.7307e+005 138174 215497,215549,215523
 1.0000e+001 215601 -3.9941e+005 -5.5489e+006 -7.6199e+005 138174 215497,215575,215549
 1.0000e+001 215776 -1.1160e+006 -4.4571e+006  1.5324e+006 137734 215649,215701,215675
 1.0000e+001 215753 -1.3574e+006 -4.1955e+006  9.4740e+005 137734 215649,215727,215701
 1.0000e+001 215977 -2.7387e+006 -8.1026e+006  1.8785e+006 137344 215801,215879,215827
 1.0000e+001 215954  3.1743e+005 -7.9399e+006  1.8717e+006 137344 215801,215905,215879
 1.0000e+001 215931  3.0785e+006 -1.5162e+007 -2.8841e+006 137344 215827,215879,215853
 1.0000e+001 216129 -6.3407e+005 -6.2492e+006 -5.5132e+005 136940 216028,216080,216054
 1.0000e+001 216106 -6.8871e+005 -5.9489e+006 -7.1958e+005 136940 216002,216080,216028
 1.0000e+001 216330 -5.4600e+005 -5.3581e+006  3.2926e+005 136600 216180,216232,216206
 1.0000e+001 216307 -6.9555e+005 -5.5551e+006  9.0228e+005 136600 216154,216232,216180
 1.0000e+001 216284 -8.7456e+005 -4.7830e+006  5.6171e+005 136600 216154,216258,216232
 1.0000e+001 216482 -4.7984e+005 -5.2439e+006 -6.8849e+005 136260 216381,216433,216407
 1.0000e+001 216459 -6.6616e+005 -4.5378e+006 -6.1986e+005 136260 216355,216433,216381
 1.0000e+001 216634 -4.2960e+005 -4.4553e+006  7.4192e+005 135970 216533,216585,216559
 1.0000e+001 216611 -1.9242e+005 -5.4177e+006  8.5833e+005 135970 216507,216585,216533
 1.0000e+001 216835 -6.4419e+005 -4.7757e+006 -7.7564e+004 135608 216685,216763,216711
 1.0000e+001 216812  1.2516e+005 -5.0418e+006 -6.5826e+005 135608 216659,216763,216685
 1.0000e+001 216789 -6.4818e+005 -6.4630e+006  2.1225e+005 135608 216711,216763,216737
 1.0000e+001 217036 -1.0596e+005 -3.2630e+006  4.7848e+005 135312 216912,216964,216938
 1.0000e+001 217013 -1.2040e+005 -3.8013e+006  6.1636e+005 135312 216886,216964,216912
 1.0000e+001 216990 -1.1817e+005 -4.6786e+006  2.8618e+005 135312 216860,216964,216886
 1.0000e+001 217237 -2.2261e+004 -1.1249e+006  7.6941e+004 134908 217061,217139,217113
 1.0000e+001 217214 -2.5826e+005 -1.3594e+006  7.9013e+005 134908 217061,217165,217139
 1.0000e+001 217191 -3.3783e+005 -6.8457e+005 -3.9690e+004 134908 217061,217113,217087
 1.0000e+001 217438 -8.1912e+005 -1.1465e+007  1.2174e+006 134568 217288,217366,217314
 1.0000e+001 217415 -4.2843e+005 -1.0613e+007  1.5449e+006 134568 217262,217366,217288
 1.0000e+001 217392  1.9652e+005 -8.1147e+006  5.6956e+005 134568 217314,217366,217340
 1.0000e+001 217590  8.4545e+004 -2.4774e+006  7.4283e+005 134106 217463,217515,217489
 1.0000e+001 217567 -2.2373e+004 -2.2355e+006  3.4363e+005 134106 217463,217541,217515
 1.0000e+001 217791 -2.9897e+006 -1.8455e+007 -9.1729e+006 133816 217641,217693,217667
 1.0000e+001 217768  1.1586e+006 -2.2355e+007  4.3597e+006 133816 217641,217719,217693
 1.0000e+001 217745 -4.6484e+006 -5.5813e+006  3.0500e+006 133816 217615,217719,217641
 1.0000e+001 217992 -1.1580e+006 -4.9159e+006  5.7016e+005 133355 217842,217920,217894
 1.0000e+001 217969 -4.8699e+005 -7.5917e+006 -8.8477e+005 133355 217816,217920,217842
 1.0000e+001 217946 -1.0115e+006 -4.4290e+006 -2.1140e+005 133355 217842,217894,217868
 1.0000e+001 218193 -9.8153e+005 -4.2537e+006 -1.1702e+006 132851 218017,218095,218069
 1.0000e+001 218170 -8.5325e+005 -5.3476e+006  1.6539e+006 132851 218017,218121,218095
 1.0000e+001 218147 -8.6646e+005 -6.2144e+006 -8.6900e+005 132851 218017,218069,218043
 1.0000e+001 218345 -5.0897e+005 -2.7689e+006  7.1091e+005 132511 218244,218296,218270
 1.0000e+001 218322 -9.7882e+005 -2.4904e+006  1.8719e+005 132511 218218,218296,218244
 1.0000e+001 218497 -2.5937e+006 -1.6394e+007 -5.4141e+005 132235 218396,218448,218422
 1.0000e+001 218474 -2.6731e+006 -8.5398e+006  1.0162e+006 132235 218370,218448,218396
 1.0000e+001 218698 -8.3790e+004 -6.3195e+006  3.0345e+005 131945 218574,218626,218600
 1.0000e+001 218675 -5.2361e+005 -8.5363e+006  5.1808e+005 131945 218522,218626,218574
 1.0000e+001 218652 -3.5095e+005 -7.2927e+006  1.1411e+005 131945 218522,218574,218548
 1.0000e+001 218850 -1.3451e+005 -1.0819e+007 -1.5394e+006 131655 218723,218775,218749
 1.0000e+001 218827 -1.3716e+006 -9.3415e+006  6.4947e+004 131655 218723,218801,218775
 1.0000e+001 218953 -1.0303e+006 -5.2564e+006 -2.1486e+005 131215 218875,218927,218901
 1.0000e+001 219105 -4.3647e+005 -7.3591e+006 -2.2291e+005 130875 218978,219030,219004
 1.0000e+001 219082 -3.2735e+005 -5.3555e+006  3.2975e+004 130875 218978,219056,219030
 1.0000e+001 219306 -2.6711e+005 -5.1195e+006  2.4638e+005 130429 219156,219234,219208
 1.0000e+001 219283 -7.7221e+005 -4.5122e+006  2.2672e+005 130429 219130,219234,219156
 1.0000e+001 219260 -4.3033e+005 -5.1851e+006  5.2212e+005 130429 219156,219208,219182
 1.0000e+001 219507 -2.2989e+005 -2.5597e+006  5.3192e+004 130025 219383,219435,219409
 1.0000e+001 219484 -2.8165e+005 -3.3861e+006  2.0644e+005 130025 219331,219435,219383
 1.0000e+001 219461 -3.9396e+004 -3.3776e+006  1.5965e+005 130025 219331,219383,219357
 1.0000e+001 219659 -1.4757e+006 -8.5880e+006 -1.6233e+006 129685 219558,219610,219584
 1.0000e+001 219636 -5.8144e+005 -9.3425e+006 -2.6730e+006 129685 219532,219610,219558
 1.0000e+001 219860 -2.9956e+005 -3.8660e+006  3.8641e+005 129395 219710,219788,219762
 1.0000e+001 219837 -3.8194e+005 -4.6032e+006  2.7762e+005 129395 219684,219788,219710
 1.0000e+001 219814  1.9134e+005 -4.8825e+006 -3.7599e+005 129395 219710,219762,219736
 1.0000e+001 220061  4.6945e+004 -2.7812e+006  1.9157e+005 128991 219937,219989,219963
 1.0000e+001 220038 -1.1391e+005 -4.4754e+006 -2.3785e+005 128991 219885,219989,219937
 1.0000e+001 220015  1.4442e+005 -3.6936e+006  2.4739e+004 128991 219885,219937,219911
 1.0000e+001 220262 -2.5649e+005 -2.5449e+006 -2.1473e+005 128701 220086,220164,220112
 1.0000e+001 220239  2.9951e+005 -3.5564e+006  1.1127e+005 128701 220086,220190,220164
 1.0000e+001 220216 -1.0647e+005 -2.1233e+006  4.7530e+005 128701 220112,220164,220138
 1.0000e+001 220463 -1.3678e+006 -8.8338e+006  1.5396e+006 128297 220339,220391,220365
 1.0000e+001 220440  4.3233e+005 -1.0601e+007  1.2552e+006 128297 220313,220391,220339
 1.0000e+001 220417 -1.4315e+005 -1.1942e+007 -1.1371e+006 128297 220287,220391,220313
 1.0000e+001 220615  4.7896e+004 -9.5502e+006 -8.6880e+005 128007 220488,220540,220514
 1.0000e+001 220592 -4.5807e+005 -8.3749e+006 -9.8900e+005 128007 220488,220566,220540
 1.0000e+001 220767  8.5365e+004 -3.3841e+006 -5.4067e+005 127567 220640,220692,220666
 1.0000e+001 220744 -2.3828e+005 -2.3524e+006 -4.0616e+005 127567 220640,220718,220692
 1.0000e+001 220919  1.0724e+005 -1.0516e+007  1.5188e+005 127163 220792,220844,220818
 1.0000e+001 220896  1.3361e+006 -1.1878e+007  1.4998e+006 127163 220792,220870,220844
 1.0000e+001 221071 -6.4847e+005 -3.8721e+006  3.4695e+005 126915 220970,221022,220996
 1.0000e+001 221048 -6.5793e+005 -3.7864e+006  3.7956e+005 126915 220944,221022,220970
 1.0000e+001 221272 -1.1516e+006 -9.2470e+006  4.4057e+005 126461 221122,221174,221148
 1.0000e+001 221249 -1.3415e+006 -9.3288e+006  3.2037e+005 126461 221122,221200,221174
 1.0000e+001 221226 -4.1135e+005 -1.0589e+007 -2.3075e+005 126461 221096,221200,221122
 1.0000e+001 221375  3.2230e+000 -1.5722e+005  4.8615e+001 126213 221297,221349,221323
 1.0000e+001 221478 -3.2089e+001 -2.6529e+005 -5.8652e+001 125766 221400,221452,221426
 1.0000e+001 221679 -8.5949e+004 -2.3616e+006 -1.2379e+004 125212 221503,221555,221529
 1.0000e+001 221656 -1.6280e+005 -3.0964e+006 -1.9423e+005 125212 221503,221581,221555
 1.0000e+001 221633 -2.2017e+005 -3.6216e+006  7.3297e+004 125212 221503,221607,221581
 1.0000e+001 221929 -5.2315e+005 -2.4763e+006  2.9644e+004 124872 221782,221834,221808
 1.0000e+001 221906 -7.4631e+005 -2.7471e+006  2.6248e+005 124872 221756,221834,221782
 1.0000e+001 221883 -5.9064e+005 -3.8023e+006  6.0192e+005 124872 221704,221834,221756
 1.0000e+001 221860 -6.4472e+005 -3.8016e+006  7.1119e+005 124872 221704,221756,221730
 1.0000e+001 222130 -4.6586e+005 -7.4624e+006 -9.2901e+005 124582 221980,222058,222006
 1.0000e+001 222107 -1.3029e+006 -8.1201e+006 -1.5046e+006 124582 221954,222058,221980
 1.0000e+001 222084 -1.3605e+006 -8.1306e+006 -1.4087e+006 124582 222006,222058,222032
 1.0000e+001 222282 -2.1299e+006 -9.9086e+006 -2.1998e+006 124192 222181,222233,222207
 1.0000e+001 222259 -8.4250e+005 -1.0168e+007 -2.7766e+006 124192 222155,222233,222181
 1.0000e+001 222483 -5.3616e+005 -5.6156e+006  2.3116e+005 123702 222333,222385,222359
 1.0000e+001 222460 -3.1037e+005 -5.8101e+006 -1.4958e+005 123702 222333,222411,222385
 1.0000e+001 222437 -3.9478e+004 -2.8281e+006 -2.7533e+005 123702 222307,222411,222333
 1.0000e+001 222635 -3.3324e+005 -3.7589e+006 -2.4289e+005 123312 222508,222560,222534
 1.0000e+001 222612  5.2172e+005 -7.4105e+006 -2.1215e+005 123312 222508,222586,222560
 1.0000e+001 222787 -1.8283e+005 -4.2954e+006 -1.1953e+005 122858 222686,222738,222712
 1.0000e+001 222764 -1.2459e+005 -3.8770e+006 -2.6843e+005 122858 222660,222738,222686
 1.0000e+001 222939 -4.2399e+005 -6.5801e+006 -4.7373e+004 122568 222812,222864,222838
 1.0000e+001 222916 -1.0090e+005 -4.6300e+006  4.5729e+005 122568 222812,222890,222864
 1.0000e+001 223091 -4.3687e+005 -4.8924e+006 -3.9287e+005 122392 222964,223016,222990
 1.0000e+001 223068  3.7218e+005 -5.5888e+006  2.2431e+005 122392 222964,223042,223016
 1.0000e+001 223292 -4.9763e+005 -9.7332e+006 -7.1557e+005 121852 223142,223220,223194
 1.0000e+001 223269 -7.9602e+005 -9.8261e+006 -7.9042e+005 121852 223116,223220,223142
 1.0000e+001 223246 -3.1041e+005 -9.4192e+006 -1.3384e+006 121852 223142,223194,223168
 1.0000e+001 223493 -1.1898e+006 -1.0042e+007  2.8628e+005 121406 223343,223395,223369
 1.0000e+001 223470 -3.5057e+005 -7.8326e+006 -1.5020e+006 121406 223343,223421,223395
 1.0000e+001 223447 -1.1459e+006 -6.6376e+006  1.0771e+006 121406 223317,223421,223343
 1.0000e+001 223645  2.8858e+004 -9.9393e+006  5.3702e+005 121002 223544,223596,223570
 1.0000e+001 223622 -8.0547e+005 -6.5582e+006  8.4797e+005 121002 223518,223596,223544
 1.0000e+001 223846 -5.7312e+004 -9.3008e+006  3.3561e+005 120662 223670,223748,223696
 1.0000e+001 223823  5.1943e+005 -7.5135e+006 -4.1515e+005 120662 223670,223774,223748
 1.0000e+001 223800  2.2390e+005 -6.6593e+006 -5.8518e+005 120662 223696,223748,223722
 1.0000e+001 224047 -4.7399e+005 -5.8575e+006  7.5769e+005 120222 223897,223949,223923
 1.0000e+001 224024 -4.5323e+005 -6.9000e+006 -5.0841e+005 120222 223871,223949,223897
 1.0000e+001 224001  4.2820e+005 -1.0188e+007  3.4546e+005 120222 223871,223975,223949
 1.0000e+001 224248  2.4545e+005 -6.3151e+006 -1.2562e+004 119875 224124,224176,224150
 1.0000e+001 224225 -9.6703e+005 -1.2047e+007 -7.7890e+005 119875 224098,224176,224124
 1.0000e+001 224202 -8.6346e+005 -4.1734e+006 -4.5254e+005 119875 224072,224176,224098
 1.0000e+001 224449 -3.2750e+005 -5.4184e+006 -2.2865e+005 119677 224325,224377,224351
 1.0000e+001 224426 -7.0569e+005 -6.9371e+006 -1.2238e+005 119677 224299,224377,224325
 1.0000e+001 224403 -4.1532e+005 -7.6537e+006  1.1934e+005 119677 224273,224377,224299
 1.0000e+001 224552 -8.2515e+005 -6.0830e+006 -3.7900e+005 119273 224474,224526,224500
 1.0000e+001 224704 -2.5247e+006 -1.0571e+007 -1.7383e+006 118983 224603,224655,224629
 1.0000e+001 224681 -1.4280e+006 -1.0800e+007 -1.8283e+006 118983 224577,224655,224603
 1.0000e+001 224856 -2.3411e+005 -1.0766e+007 -8.2146e+005 118529 224755,224807,224781
 1.0000e+001 224833  3.9161e+004 -1.1803e+007 -1.0627e+006 118529 224729,224807,224755
 1.0000e+001 225008 -2.7903e+004 -6.7294e+006  1.5075e+004 118353 224881,224933,224907
 1.0000e+001 224985 -1.1523e+005 -5.8731e+006  1.0756e+005 118353 224881,224959,224933
 1.0000e+001 225209 -9.4772e+005 -5.7143e+006 -4.7402e+005 117949 225059,225137,225111
 1.0000e+001 225186 -8.9085e+005 -5.8077e+006 -7.6940e+005 117949 225033,225137,225059
 1.0000e+001 225163 -8.8945e+004 -8.4240e+006  4.9362e+005 117949 225059,225111,225085
 1.0000e+001 225410  4.9162e+003 -6.5628e+006 -5.8800e+005 117559 225260,225338,225312
 1.0000e+001 225387 -1.0686e+006 -6.5962e+006  1.0840e+005 117559 225234,225338,225260
 1.0000e+001 225364 -6.6838e+005 -5.4585e+006 -1.9104e+006 117559 225260,225312,225286
 1.0000e+001 225611 -1.8942e+006 -1.1893e+007 -6.0672e+006 117361 225461,225513,225487
 1.0000e+001 225588  2.8357e+006 -1.1860e+007  5.2561e+005 117361 225461,225539,225513
 1.0000e+001 225565 -3.0962e+006 -3.8704e+006  5.5522e+006 117361 225435,225539,225461
 1.0000e+001 225812  2.0336e+005 -6.2459e+006 -1.5972e+005 116900 225636,225714,225662
 1.0000e+001 225789  4.7595e+005 -6.1035e+006 -3.0455e+005 116900 225636,225740,225714
 1.0000e+001 225766 -3.6832e+005 -6.2695e+006 -6.1272e+005 116900 225662,225714,225688
 1.0000e+001 225964 -2.2595e+005 -6.0633e+006  3.9183e+005 116560 225837,225889,225863
 1.0000e+001 225941 -8.7576e+004 -5.3621e+006  1.9382e+005 116560 225837,225915,225889
 1.0000e+001 226165 -1.5329e+005 -8.1616e+006  3.2815e+005 116106 226015,226093,226041
 1.0000e+001 226142  8.7584e+005 -1.0952e+007 -2.0114e+006 116106 225989,226093,226015
 1.0000e+001 226119 -2.2043e+006 -5.9594e+006 -2.9186e+005 116106 226041,226093,226067
 1.0000e+001 226268 -1.3366e+006 -8.4035e+006  4.9444e+005 115716 226190,226242,226216
 1.0000e+001 226420 -6.9398e+005 -7.4230e+006  1.8967e+006 115376 226293,226345,226319
 1.0000e+001 226397 -7.7814e+005 -6.8551e+006  8.9499e+005 115376 226293,226371,226345
 1.0000e+001 226621 -4.4274e+004 -5.5198e+006 -1.5425e+005 114972 226497,226549,226523
 1.0000e+001 226598 -6.5661e+005 -8.2515e+006 -8.4132e+005 114972 226445,226549,226497
 1.0000e+001 226575 -4.2131e+005 -5.7639e+006  1.7039e+005 114972 226445,226497,226471
 1.0000e+001 226773 -3.6261e+005 -5.6894e+006 -5.4555e+005 114670 226646,226698,226672
 1.0000e+001 226750 -2.6803e+005 -6.4313e+006 -2.5685e+005 114670 226646,226724,226698
 1.0000e+001 226974  1.9915e+005 -4.1353e+006 -1.7653e+005 114082 226798,226850,226824
 1.0000e+001 226951 -9.3565e+004 -3.1721e+006 -4.7097e+005 114082 226798,226902,226850
 1.0000e+001 226928 -2.3180e+005 -3.7459e+006 -4.3910e+005 114082 226850,226902,226876
 1.0000e+001 227175 -7.8739e+005 -7.0515e+006  4.0823e+004 113678 226999,227051,227025
 1.0000e+001 227152 -1.3646e+006 -8.2070e+006 -6.3747e+005 113678 226999,227077,227051
 1.0000e+001 227129 -6.6139e+005 -1.0192e+007 -1.3811e+006 113678 226999,227103,227077
 1.0000e+001 227425 -4.4566e+004 -8.2744e+006 -4.8632e+005 113274 227226,227278,227252
 1.0000e+001 227402 -1.5227e+005 -8.2621e+006 -1.2387e+006 113274 227226,227330,227278
 1.0000e+001 227379  1.4207e+005 -9.8890e+006 -1.5989e+006 113274 227200,227330,227226
 1.0000e+001 227356 -3.0494e+006 -8.4188e+006  4.9052e+005 113274 227278,227330,227304
 1.0000e+001 227626  1.7434e+005 -3.9981e+006 -5.2662e+005 112934 227502,227554,227528
 1.0000e+001 227603  5.6255e+004 -3.3902e+006 -2.6058e+005 112934 227450,227554,227502
 1.0000e+001 227580 -7.3101e+005 -5.9893e+006 -7.9459e+005 112934 227450,227502,227476
 1.0000e+001 227876 -4.4053e+004 -4.2629e+006 -4.3824e+005 112437 227677,227755,227703
 1.0000e+001 227853 -7.4664e+005 -4.5470e+006  3.0191e+005 112437 227677,227781,227755
 1.0000e+001 227830 -4.8276e+005 -2.6584e+006  5.1001e+005 112437 227703,227755,227729
 1.0000e+001 227807 -4.5812e+005 -5.6000e+006 -5.6313e+004 112437 227651,227781,227677
 1.0000e+001 228126 -7.6311e+005 -5.5073e+006  4.6083e+005 112041 227927,228005,227953
 1.0000e+001 228103 -2.1999e+005 -7.5310e+006 -7.0749e+005 112041 227927,228031,228005
 1.0000e+001 228080 -7.3822e+005 -7.1763e+006  4.2689e+005 112041 227953,228005,227979
 1.0000e+001 228057 -2.8208e+005 -5.4724e+006 -6.8919e+005 112041 227901,228031,227927
 1.0000e+001 228327 -7.5718e+005 -7.2663e+006 -1.1184e+006 111693 228151,228203,228177
 1.0000e+001 228304 -8.1832e+005 -4.5344e+006 -1.2796e+006 111693 228151,228229,228203
 1.0000e+001 228281  3.0698e+005 -6.3951e+006  7.7083e+004 111693 228151,228255,228229
 1.0000e+001 228479 -1.5078e+006 -9.2146e+006 -3.6048e+006 111253 228352,228404,228378
 1.0000e+001 228456 -2.2200e+006 -7.4293e+006 -1.2637e+006 111253 228352,228430,228404
 1.0000e+001 228582  1.5710e+001 -5.4649e+004 -3.3173e+002 110906 228504,228556,228530
 1.0000e+001 228783 -6.9066e+005 -6.8592e+006  1.0197e+006 110416 228633,228711,228659
 1.0000e+001 228760 -4.4997e+005 -2.8366e+006  2.6189e+004 110416 228607,228711,228633
 1.0000e+001 228737 -3.2481e+005 -4.3841e+006  8.9456e+005 110416 228659,228711,228685
 1.0000e+001 228935 -1.4284e+005 -3.7059e+006 -2.7391e+005 110012 228808,228860,228834
 1.0000e+001 228912 -8.0870e+004 -6.1866e+006 -6.5516e+005 110012 228808,228886,228860
 1.0000e+001 229087 -6.1585e+005 -4.4176e+006 -8.3744e+005 109672 228960,229012,228986
 1.0000e+001 229064 -6.4844e+005 -5.7539e+006 -3.2462e+005 109672 228960,229038,229012
 1.0000e+001 229190  8.7650e+003 -1.7659e+006 -4.6183e+004 109332 229112,229164,229138
 1.0000e+001 229391 -1.4311e+005 -1.6530e+006 -2.4234e+005 109156 229267,229319,229293
 1.0000e+001 229368 -3.5810e+005 -2.8099e+006 -3.3831e+005 109156 229215,229319,229267
 1.0000e+001 229345 -2.3530e+005 -1.9216e+006  1.1989e+005 109156 229215,229267,229241
 1.0000e+001 229543 -2.4510e+005 -9.0815e+006  6.2704e+005 108752 229416,229468,229442
 1.0000e+001 229520 -5.1449e+005 -9.4229e+006  8.1896e+005 108752 229416,229494,229468
 1.0000e+001 229744 -3.2187e+005 -7.4979e+006  5.1069e+005 108198 229594,229646,229620
 1.0000e+001 229721 -1.0905e+006 -7.6954e+006  5.8234e+005 108198 229594,229672,229646
 1.0000e+001 229698  3.0824e+005 -1.0113e+007 -7.1174e+005 108198 229568,229672,229594
 1.0000e+001 229847 -1.4131e+005 -2.9050e+006 -9.9558e+004 107758 229769,229821,229795
 1.0000e+001 230048 -9.5001e+005 -4.6163e+006 -1.1215e+006 107468 229898,229950,229924
 1.0000e+001 230025 -4.4992e+005 -4.0602e+006 -2.0066e+005 107468 229872,229950,229898
 1.0000e+001 230002 -6.1848e+005 -4.4308e+006  1.1817e+005 107468 229872,229976,229950
 1.0000e+001 230298  5.1081e+004 -4.4159e+006  3.7063e+005 107121 230099,230203,230177
 1.0000e+001 230275 -7.4661e+005 -3.6947e+006 -3.9428e+004 107121 230073,230203,230099
 1.0000e+001 230252 -9.6240e+005 -4.7539e+006  4.3516e+004 107121 230099,230177,230151
 1.0000e+001 230229 -6.0975e+005 -5.4023e+006  5.8642e+005 107121 230099,230151,230125
 1.0000e+001 230450  4.9684e+005 -5.7591e+006 -5.8065e+005 106823 230349,230401,230375
 1.0000e+001 230427 -3.4519e+005 -1.5408e+006  3.3186e+005 106823 230323,230401,230349
 1.0000e+001 230602 -1.1243e+006 -6.5920e+006 -1.1047e+006 106533 230501,230553,230527
 1.0000e+001 230579 -1.1006e+006 -7.3874e+006 -2.1021e+006 106533 230475,230553,230501
 1.0000e+001 230803 -5.2550e+005 -2.4356e+006  3.0469e+005 106029 230679,230731,230705
 1.0000e+001 230780 -1.2422e+006 -5.5774e+006  6.9152e+005 106029 230653,230731,230679
 1.0000e+001 230757 -2.1390e+005 -6.2924e+006  9.5963e+005 106029 230627,230731,230653
 1.0000e+001 231004  1.6321e+005 -4.6623e+006 -3.1855e+005 105689 230854,230906,230880
 1.0000e+001 230981  4.6994e+004 -4.7132e+006 -3.5762e+005 105689 230828,230906,230854
 1.0000e+001 230958 -7.4122e+005 -4.0204e+006 -9.1263e+005 105689 230828,230932,230906
 1.0000e+001 231156 -9.6165e+005 -4.1263e+006  1.0376e+006 105377 231055,231107,231081
 1.0000e+001 231133  1.1302e+006 -1.2986e+007 -1.4176e+006 105377 231029,231107,231055
 1.0000e+001 231406  1.3800e+005 -6.6943e+006 -4.1580e+004 104858 231207,231259,231233
 1.0000e+001 231383 -1.2228e+006 -6.7844e+006 -2.7039e+005 104858 231207,231311,231259
 1.0000e+001 231360 -7.4278e+005 -1.0041e+007 -7.9932e+005 104858 231259,231311,231285
 1.0000e+001 231337 -2.3583e+005 -9.2716e+006 -8.0875e+005 104858 231181,231311,231207
 1.0000e+001 231558 -8.2193e+005 -3.6573e+006  2.0329e+006 104418 231457,231509,231483
 1.0000e+001 231535 -1.8290e+005 -3.5233e+006  4.4304e+005 104418 231431,231509,231457
 1.0000e+001 231710 -5.4441e+005 -4.1298e+006 -3.7253e+005 103978 231583,231635,231609
 1.0000e+001 231687 -6.2550e+005 -3.0932e+006 -4.2233e+005 103978 231583,231661,231635
 1.0000e+001 231862  2.1405e+004 -6.0991e+005 -7.7713e+004 103588 231761,231813,231787
 1.0000e+001 231839 -4.3303e+003 -7.3680e+005 -7.5340e+004 103588 231735,231813,231761
 1.0000e+001 232014 -1.1689e+006 -7.6802e+006 -2.0973e+006 103248 231887,231939,231913
 1.0000e+001 231991  2.3206e+005 -1.2044e+007 -2.6449e+006 103248 231887,231965,231939
 1.0000e+001 232215 -4.5223e+005 -3.8364e+006  3.5326e+005 102844 232039,232117,232065
 1.0000e+001 232192 -3.7389e+005 -4.6689e+006 -1.3460e+005 102844 232039,232143,232117
 1.0000e+001 232169 -1.5722e+005 -4.1501e+006  5.6285e+005 102844 232065,232117,232091
 1.0000e+001 232416 -2.1596e+006 -9.0068e+006 -1.2055e+006 102554 232240,232318,232292
 1.0000e+001 232393  7.1117e+005 -1.1384e+007  2.3068e+005 102554 232240,232344,232318
 1.0000e+001 232370 -2.1698e+006 -8.3955e+006 -1.0498e+006 102554 232240,232292,232266
 1.0000e+001 232568 -7.5936e+005 -4.9821e+006  1.1498e+006 102100 232441,232493,232467
 1.0000e+001 232545 -6.9218e+005 -4.5569e+006  3.3453e+005 102100 232441,232519,232493
 1.0000e+001 232769 -1.8930e+005 -1.4718e+006 -1.6412e+005 101596 232645,232697,232671
 1.0000e+001 232746 -3.7987e+005 -2.2207e+006 -2.1560e+005 101596 232593,232697,232645
 1.0000e+001 232723  7.0094e+004 -5.1932e+006 -3.6156e+005 101596 232593,232645,232619
 1.0000e+001 232921 -2.5715e+004 -8.9530e+005 -8.3156e+003 101420 232794,232846,232820
 1.0000e+001 232898 -1.1498e+004 -6.8274e+005  1.2482e+004 101420 232794,232872,232846
 1.0000e+001 233073 -1.1239e+006 -4.8117e+006 -5.1425e+005 101023 232946,232998,232972
 1.0000e+001 233050 -3.1369e+005 -6.3558e+006  6.2861e+005 101023 232946,233024,232998
 1.0000e+001 233225 -1.1687e+005 -5.6053e+006 -1.1526e+004 100661 233098,233150,233124
 1.0000e+001 233202  1.3938e+005 -7.0836e+006  1.0220e+005 100661 233098,233176,233150
 1.0000e+001 233426 -9.2290e+005 -6.0104e+006 -1.0951e+006 100265 233276,233328,233302
 1.0000e+001 233403 -6.6050e+005 -5.7520e+006 -5.8475e+005 100265 233276,233354,233328
 1.0000e+001 233380 -6.5489e+005 -7.3100e+006 -8.9406e+005 100265 233250,233354,233276
 1.0000e+001 233578 -4.7074e+005 -1.3673e+006 -9.7755e+005 100032 233451,233503,233477
 1.0000e+001 233555 -2.3861e+005 -1.3912e+006 -1.7752e+005 100032 233451,233529,233503
 1.0000e+001 233681 -1.0649e+005 -1.1400e+006  1.1064e+005 99742 233603,233655,233629
 1.0000e+001 233784 -3.5071e+005 -4.8463e+006 -3.1938e+004 99402 233706,233758,233732
 1.0000e+001 233936 -7.3667e+005 -3.5308e+006  1.3133e+005 99062 233835,233887,233861
 1.0000e+001 233913 -4.5658e+005 -2.2814e+006 -3.6108e+005 99062 233809,233887,233835
 1.0000e+001 234088 -3.3813e+005 -3.7779e+006  4.6080e+005 98772 233987,234039,234013
 1.0000e+001 234065 -8.3876e+005 -3.9037e+006  1.5485e+006 98772 233961,234039,233987
 1.0000e+001 234240 -1.3943e+005 -1.7663e+006  3.5226e+005 98160 234139,234191,234165
 1.0000e+001 234217 -4.3436e+004 -1.0530e+006  1.0323e+005 98160 234113,234191,234139
 1.0000e+001 234441 -2.6967e+005 -3.7457e+006  3.1449e+005 97820 234317,234369,234343
 1.0000e+001 234418 -3.1035e+005 -3.8549e+006  6.4092e+004 97820 234291,234369,234317
 1.0000e+001 234395 -4.4903e+005 -4.2202e+006 -6.4989e+004 97820 234265,234369,234291
 1.0000e+001 234593 -7.7061e+005 -2.9597e+006 -6.5305e+004 97366 234466,234518,234492
 1.0000e+001 234570 -2.0296e+005 -5.8642e+006 -1.0848e+005 97366 234466,234544,234518
 1.0000e+001 234794 -9.7973e+005 -2.4418e+006 -4.4594e+005 96976 234618,234670,234644
 1.0000e+001 234771 -4.2883e+005 -5.6307e+006  2.3067e+005 96976 234618,234722,234670
 1.0000e+001 234748 -7.8394e+005 -3.8839e+006 -8.5089e+005 96976 234670,234722,234696
 1.0000e+001 234946 -9.5792e+005 -2.8312e+006  8.7142e+005 96568 234845,234897,234871
 1.0000e+001 234923 -9.8164e+005 -2.5231e+006  5.2255e+005 96568 234819,234897,234845
 1.0000e+001 235196 -9.8147e+004 -2.5899e+006 -1.7443e+005 96216 234997,235075,235049
 1.0000e+001 235173 -6.6880e+004 -5.0016e+006  7.5073e+005 96216 234997,235101,235075
 1.0000e+001 235150 -6.1655e+005 -4.2349e+006  1.7282e+005 96216 234997,235049,235023
 1.0000e+001 235127 -1.1500e+005 -5.5727e+006 -6.7909e+005 96216 234971,235101,234997
 1.0000e+001 235348 -7.8928e+005 -2.3039e+006 -1.1150e+006 95863 235247,235299,235273
 1.0000e+001 235325 -6.5816e+005 -1.8632e+006 -1.0408e+006 95863 235221,235299,235247
 1.0000e+001 235500 -1.3161e+006 -5.0747e+006 -1.4288e+006 95339 235373,235425,235399
 1.0000e+001 235477 -1.1132e+006 -6.9470e+006  1.2121e+006 95339 235373,235451,235425
 1.0000e+001 235701  9.7511e+004 -4.5150e+006  9.8585e+005 95023 235525,235577,235551
 1.0000e+001 235678 -6.0240e+004 -2.9536e+006 -2.2237e+005 95023 235525,235629,235577
 1.0000e+001 235655 -7.4225e+005 -2.9763e+006  6.6140e+004 95023 235577,235629,235603
 1.0000e+001 235853  5.7365e+005 -6.5077e+006  1.0275e+006 94671 235726,235778,235752
 1.0000e+001 235830 -3.4885e+005 -4.2089e+006 -6.9800e+005 94671 235726,235804,235778
 1.0000e+001 236005 -1.0784e+006 -5.0418e+006 -2.2163e+005 94261 235904,235956,235930
 1.0000e+001 235982 -1.3649e+006 -6.0813e+006 -1.1734e+006 94261 235878,235956,235904
 1.0000e+001 236206 -8.2209e+005 -2.1383e+006  1.2258e+006 93853 236056,236134,236082
 1.0000e+001 236183 -2.0808e+005 -2.0547e+006 -2.5815e+005 93853 236030,236134,236056
 1.0000e+001 236160 -5.3243e+005 -3.9926e+006  8.6638e+005 93853 236082,236134,236108
 1.0000e+001 236407 -1.0722e+006 -4.6791e+006 -2.8183e+005 93557 236257,236309,236283
 1.0000e+001 236384 -1.3437e+006 -4.8207e+006 -6.2297e+005 93557 236231,236309,236257
 1.0000e+001 236361 -2.5089e+005 -6.4702e+006 -2.1540e+005 93557 236231,236335,236309
 1.0000e+001 236559 -1.2491e+005 -1.9149e+006 -1.8572e+005 93149 236432,236484,236458
 1.0000e+001 236536 -2.5023e+005 -2.1629e+006 -2.9382e+005 93149 236432,236510,236484
 1.0000e+001 236711 -1.3016e+005 -2.7712e+006  4.7790e+005 92853 236584,236636,236610
 1.0000e+001 236688 -1.3862e+004 -2.9224e+006  4.6521e+005 92853 236584,236662,236636
 1.0000e+001 236912 -1.3500e+005 -4.7687e+006  6.7932e+005 92501 236736,236788,236762
 1.0000e+001 236889 -2.6300e+005 -4.2216e+006  3.7399e+005 92501 236736,236840,236788
 1.0000e+001 236866 -2.7000e+005 -3.5885e+006  7.7517e+005 92501 236788,236840,236814
 1.0000e+001 237113 -1.8772e+004 -3.4654e+006  4.8086e+005 92291 236963,237041,237015
 1.0000e+001 237090 -1.2793e+004 -2.4525e+006  2.5190e+005 92291 236937,237041,236963
 1.0000e+001 237067 -1.7812e+005 -3.3279e+006  7.6955e+005 92291 236963,237015,236989
 1.0000e+001 237265 -9.6911e+005 -2.8680e+006 -1.3564e+005 91871 237138,237190,237164
 1.0000e+001 237242 -1.2411e+006 -3.2463e+006 -3.7840e+005 91871 237138,237216,237190
 1.0000e+001 237368  9.5017e+001 -3.2659e+006 -6.2167e+001 91581 237290,237342,237316
 1.0000e+001 237520 -4.1730e+005 -2.1449e+006  7.8350e+005 91184 237419,237471,237445
 1.0000e+001 237497 -2.4967e+005 -3.0408e+006 -2.0341e+004 91184 237393,237471,237419
 1.0000e+001 237672 -1.0821e+006 -2.9904e+006  1.0340e+003 90894 237545,237597,237571
 1.0000e+001 237649 -8.2937e+005 -3.6605e+006  2.6051e+005 90894 237545,237623,237597
 1.0000e+001 237873 -5.6292e+005 -4.5013e+006  6.8430e+004 90490 237749,237801,237775
 1.0000e+001 237850 -1.2282e+005 -4.3046e+006  4.5560e+005 90490 237723,237801,237749
 1.0000e+001 237827 -1.8764e+005 -4.3323e+006 -1.3980e+006 90490 237697,237801,237723
 1.0000e+001 238074 -8.9067e+005 -6.1187e+006 -2.8798e+005 90100 237898,237976,237950
 1.0000e+001 238051 -1.4796e+006 -6.3875e+006 -4.2815e+004 90100 237898,238002,237976
 1.0000e+001 238028 -5.9923e+005 -6.2019e+006 -5.1430e+005 90100 237898,237950,237924
 1.0000e+001 238275 -8.9635e+005 -5.2205e+006  4.3827e+005 89696 238125,238177,238151
 1.0000e+001 238252 -1.0226e+006 -4.3452e+006 -1.2631e+006 89696 238099,238177,238125
 1.0000e+001 238229 -1.8607e+006 -5.7681e+006 -6.5034e+005 89696 238099,238203,238177
 1.0000e+001 238427 -1.6467e+005 -2.9071e+006 -5.8307e+004 89206 238326,238378,238352
 1.0000e+001 238404  1.4399e+005 -3.5591e+006  1.0888e+005 89206 238300,238378,238326
 1.0000e+001 238579 -1.0735e+006 -5.5652e+006  8.8784e+005 88908 238452,238504,238478
 1.0000e+001 238556 -7.1646e+005 -5.7143e+006  1.3843e+006 88908 238452,238530,238504
 1.0000e+001 238682 -3.5687e+001 -2.9741e+005 -9.1203e+001 88568 238604,238656,238630
 1.0000e+001 238883 -1.9432e+005 -3.3916e+006  3.8073e+005 88278 238733,238811,238785
 1.0000e+001 238860 -5.6074e+003 -4.0039e+006  4.1409e+005 88278 238707,238811,238733
 1.0000e+001 238837 -1.1430e+005 -3.2763e+006  5.8829e+005 88278 238733,238785,238759
 1.0000e+001 239035 -4.4168e+005 -5.6175e+006 -1.2956e+005 87988 238908,238960,238934
 1.0000e+001 239012 -9.6203e+005 -4.9182e+006  7.2085e+005 87988 238908,238986,238960
 1.0000e+001 239138 -2.1181e+005 -3.5197e+006 -2.1493e+005 87648 239060,239112,239086
 1.0000e+001 239339 -8.7272e+005 -4.1826e+006 -1.2364e+006 87358 239163,239215,239189
 1.0000e+001 239316 -1.2377e+006 -4.5156e+006  1.9640e+005 87358 239163,239241,239215
 1.0000e+001 239293 -5.4450e+005 -2.6380e+006 -6.8465e+005 87358 239163,239267,239241
 1.0000e+001 239589 -1.4668e+004 -3.1984e+006  2.5255e+005 86961 239390,239468,239416
 1.0000e+001 239566  5.8937e+004 -3.3028e+006  5.5366e+004 86961 239390,239494,239468
 1.0000e+001 239543 -1.5555e+005 -1.0234e+006  7.7611e+004 86961 239416,239468,239442
 1.0000e+001 239520 -6.3326e+005 -1.9248e+006  2.5236e+005 86961 239364,239494,239390
 1.0000e+001 239741 -1.0504e+006 -4.8597e+006 -1.1309e+006 86621 239640,239692,239666
 1.0000e+001 239718 -4.8864e+005 -5.4498e+006 -1.5294e+006 86621 239614,239692,239640
 1.0000e+001 239893 -1.1656e+005 -4.2412e+006  2.1226e+005 86217 239792,239844,239818
 1.0000e+001 239870 -2.5253e+005 -4.6157e+006  1.0939e+005 86217 239766,239844,239792
 1.0000e+001 240045 -5.5616e+005 -3.9440e+006 -1.8750e+005 85827 239918,239970,239944
 1.0000e+001 240022 -9.2727e+004 -3.8378e+006  1.0220e+005 85827 239918,239996,239970
 1.0000e+001 240197 -1.0768e+005 -4.8153e+006  6.2566e+005 85437 240096,240148,240122
 1.0000e+001 240174 -8.4044e+005 -4.2994e+006 -1.4231e+005 85437 240070,240148,240096
 1.0000e+001 240349 -2.9647e+005 -2.8185e+006  9.1673e+005 85147 240222,240274,240248
 1.0000e+001 240326 -4.3233e+005 -1.8004e+006 -2.6956e+004 85147 240222,240300,240274
 1.0000e+001 240501 -8.2271e+005 -3.2629e+006  1.1455e+005 84807 240374,240426,240400
 1.0000e+001 240478 -9.3462e+005 -3.3977e+006  2.3824e+005 84807 240374,240452,240426
 1.0000e+001 240653 -1.0747e+004 -3.6742e+005 -6.2017e+004 84303 240552,240604,240578
 1.0000e+001 240630 -1.0191e+004 -3.6557e+005 -6.1699e+004 84303 240526,240604,240552
 1.0000e+001 240854 -2.7506e+005 -7.5477e+006 -2.0606e+006 83929 240704,240756,240730
 1.0000e+001 240831  5.3751e+005 -6.6784e+006  9.0799e+005 83929 240704,240782,240756
 1.0000e+001 240808 -1.2996e+006 -2.4010e+006  1.0780e+006 83929 240678,240782,240704
 1.0000e+001 241055 -6.4459e+003 -2.1529e+006 -1.7575e+005 83539 240879,240957,240931
 1.0000e+001 241032 -6.1240e+005 -2.4090e+006  4.6151e+004 83539 240879,240983,240957
 1.0000e+001 241009 -2.9453e+005 -1.1937e+006 -2.2318e+005 83539 240879,240931,240905
 1.0000e+001 241207  1.2628e+005 -3.4190e+006  4.3430e+005 83079 241106,241158,241132
 1.0000e+001 241184 -4.8149e+005 -1.6661e+006  4.4601e+005 83079 241080,241158,241106
 1.0000e+001 241408  6.5275e+005 -4.7775e+006 -2.3363e+005 82665 241232,241284,241258
 1.0000e+001 241385 -8.7826e+005 -9.7920e+006 -2.3435e+006 82665 241232,241336,241284
 1.0000e+001 241362 -2.4748e+006  1.0490e+006  4.1321e+006 82665 241284,241336,241310
 1.0000e+001 241658 -8.4696e+004 -3.3159e+006  1.9785e+005 82375 241485,241563,241511
 1.0000e+001 241635  1.2633e+005 -2.3529e+006  1.9799e+005 82375 241433,241563,241485
 1.0000e+001 241612  3.3365e+003 -2.7690e+006  2.8278e+005 82375 241433,241485,241459
 1.0000e+001 241589 -3.9929e+005 -3.8104e+006  4.3342e+005 82375 241511,241563,241537
 1.0000e+001 241810 -6.6974e+005 -3.5909e+006  8.9071e+004 82035 241683,241735,241709
 1.0000e+001 241787 -9.9049e+005 -3.7074e+006  1.7278e+005 82035 241683,241761,241735
 1.0000e+001 241962 -7.8453e+005 -4.7273e+006 -2.5931e+005 81695 241861,241913,241887
 1.0000e+001 241939 -7.8490e+005 -4.4251e+006  2.4320e+005 81695 241835,241913,241861
 1.0000e+001 242114 -1.5195e+006 -4.6128e+006 -4.8788e+004 81355 242013,242065,242039
 1.0000e+001 242091 -1.3961e+006 -3.9065e+006  2.8742e+005 81355 241987,242065,242013
 1.0000e+001 242266 -4.7969e+005 -2.3835e+006 -7.7045e+005 80951 242139,242191,242165
 1.0000e+001 242243 -5.6453e+005 -2.8606e+006 -4.3865e+005 80951 242139,242217,242191
 1.0000e+001 242467 -1.7998e+004 -3.3234e+006  2.7553e+005 80311 242291,242369,242343
 1.0000e+001 242444  1.1279e+005 -2.9878e+006  1.6215e+005 80311 242291,242395,242369
 1.0000e+001 242421 -2.4710e+004 -3.4693e+006  2.9363e+005 80311 242291,242343,242317
 1.0000e+001 242619 -1.6693e+006 -3.6105e+006 -5.8252e+005 80021 242492,242544,242518
 1.0000e+001 242596 -1.5853e+006 -3.3655e+006 -2.6110e+004 80021 242492,242570,242544
 1.0000e+001 242869 -4.0051e+005 -3.2996e+006 -4.7497e+004 79631 242644,242722,242696
 1.0000e+001 242846 -3.3709e+005 -3.2757e+006 -7.5086e+004 79631 242644,242774,242722
 1.0000e+001 242823 -4.4184e+005 -3.1827e+006  5.2097e+005 79631 242722,242774,242748
 1.0000e+001 242800 -4.0560e+005 -3.0694e+006 -2.6311e+005 79631 242644,242696,242670
 1.0000e+001 243070 -5.1182e+005 -1.0167e+007  1.2381e+006 79341 242920,242972,242946
 1.0000e+001 243047 -1.0138e+006 -6.3004e+006 -6.5100e+005 79341 242920,242998,242972
 1.0000e+001 243024 -7.3945e+005 -4.0403e+006  1.3885e+006 79341 242894,242998,242920
 1.0000e+001 243222  1.1819e+004 -2.1072e+006  5.5469e+005 78801 243121,243173,243147
 1.0000e+001 243199 -4.9442e+005 -3.8376e+006  1.0392e+006 78801 243095,243173,243121
 1.0000e+001 243423 -1.7478e+005 -5.8377e+006 -3.4777e+004 78511 243273,243325,243299
 1.0000e+001 243400 -3.7872e+005 -6.6650e+006  4.4435e+005 78511 243273,243351,243325
 1.0000e+001 243377 -3.3355e+003 -6.5883e+006  1.5489e+005 78511 243247,243351,243273
 1.0000e+001 243624 -3.2934e+005 -3.4632e+006 -4.7099e+005 78107 243474,243552,243526
 1.0000e+001 243601 -3.1588e+005 -2.6512e+006 -6.3919e+005 78107 243448,243552,243474
 1.0000e+001 243578 -7.3418e+005 -3.9850e+006 -9.4612e+005 78107 243474,243526,243500
 1.0000e+001 243776 -5.6299e+005 -3.8481e+006 -9.3662e+005 77653 243649,243701,243675
 1.0000e+001 243753 -1.2885e+006 -5.2100e+006 -2.3147e+005 77653 243649,243727,243701
 1.0000e+001 243977 -3.7061e+005 -4.6943e+006 -7.0313e+005 77093 243801,243853,243827
 1.0000e+001 243954 -1.0526e+005 -3.9907e+006 -8.2184e+004 77093 243801,243879,243853
 1.0000e+001 243931 -3.0347e+005 -4.2540e+006  5.7681e+004 77093 243801,243905,243879
 1.0000e+001 244080 -1.1640e+006 -4.4107e+006  3.2192e+005 76791 244002,244054,244028
 1.0000e+001 244232 -3.8257e+005 -4.5161e+006  2.2779e+005 76311 244131,244183,244157
 1.0000e+001 244209 -9.8036e+004 -6.0306e+006  6.2603e+005 76311 244105,244183,244131
 1.0000e+001 244433 -8.6726e+005 -9.8503e+006  1.1664e+006 75903 244283,244335,244309
 1.0000e+001 244410 -3.9556e+005 -8.6608e+006  3.0807e+005 75903 244283,244361,244335
 1.0000e+001 244387 -1.6636e+006 -7.2870e+006  1.3496e+006 75903 244257,244361,244283
 1.0000e+001 244585 -2.2276e+005 -1.0305e+007  4.5328e+005 75419 244458,244510,244484
 1.0000e+001 244562 -3.7624e+005 -7.7722e+006 -1.5053e+005 75419 244458,244536,244510
 1.0000e+001 244737 -3.7578e+005 -2.5143e+006 -1.4574e+005 75215 244636,244688,244662
 1.0000e+001 244714 -3.2854e+005 -4.4416e+006 -1.7101e+005 75215 244610,244688,244636
 1.0000e+001 244889 -1.1092e+006 -3.8277e+006  5.8259e+003 74857 244788,244840,244814
 1.0000e+001 244866 -9.5371e+005 -3.1568e+006 -4.8940e+004 74857 244762,244840,244788
 1.0000e+001 245041  3.6413e+004 -4.8069e+005 -1.6277e+005 74653 244940,244992,244966
 1.0000e+001 245018 -2.8176e+004 -2.9327e+005  9.1521e+004 74653 244914,244992,244940
 1.0000e+001 245144  1.2011e+005 -5.1833e+006 -2.0753e+005 74359 245066,245118,245092
 1.0000e+001 245296 -4.1616e+005 -2.6430e+006 -7.3575e+005 74007 245169,245221,245195
 1.0000e+001 245273 -4.5369e+005 -3.2272e+006 -6.9458e+005 74007 245169,245247,245221
 1.0000e+001 245448 -1.2363e+006 -5.3939e+006  1.6377e+006 73711 245321,245373,245347
 1.0000e+001 245425 -5.3645e+005 -5.2140e+006 -1.6231e+006 73711 245321,245399,245373
 1.0000e+001 245600  6.9266e+005 -8.4822e+006 -9.8412e+005 73301 245499,245551,245525
 1.0000e+001 245577 -1.1838e+006 -5.7111e+006  1.2663e+006 73301 245473,245551,245499
 1.0000e+001 245752  3.4322e+003 -4.4700e+006 -8.0830e+005 72995 245625,245677,245651
 1.0000e+001 245729  1.9872e+005 -5.6230e+006 -7.3460e+005 72995 245625,245703,245677
 1.0000e+001 245953 -1.7371e+006 -8.8028e+006  7.9456e+005 72585 245777,245829,245803
 1.0000e+001 245930 -1.0470e+006 -9.1998e+006  1.6624e+006 72585 245777,245855,245829
 1.0000e+001 245907 -8.7789e+005 -8.2506e+006  1.3334e+006 72585 245777,245881,245855
 1.0000e+001 246154 -2.1738e+005 -4.0643e+006  9.7446e+005 72127 246030,246082,246056
 1.0000e+001 246131 -8.2041e+005 -5.9573e+006  5.7512e+005 72127 245978,246082,246030
 1.0000e+001 246108 -1.3385e+005 -5.8671e+006  1.8570e+005 72127 245978,246030,246004
 1.0000e+001 246257 -7.7651e+005 -3.3156e+006 -2.6003e+005 71737 246179,246231,246205
 1.0000e+001 246360 -1.8588e+005 -2.2018e+006  1.7008e+005 71447 246282,246334,246308
 1.0000e+001 246512 -2.8317e+005 -3.1673e+006  6.3242e+005 71157 246385,246437,246411
 1.0000e+001 246489 -9.0746e+004 -3.0897e+006  5.6147e+005 71157 246385,246463,246437
 1.0000e+001 246664 -4.3889e+005 -3.4663e+006 -4.4323e+005 70753 246537,246589,246563
 1.0000e+001 246641 -7.5379e+005 -3.3525e+006 -2.5683e+005 70753 246537,246615,246589
 1.0000e+001 246865 -8.9408e+005 -7.2992e+006  2.1145e+006 70249 246715,246767,246741
 1.0000e+001 246842 -1.0547e+006 -6.9795e+006  5.3568e+005 70249 246715,246793,246767
 1.0000e+001 246819 -6.6049e+005 -8.2212e+006 -2.9331e+005 70249 246689,246793,246715
 1.0000e+001 247066 -2.4581e+005 -2.9268e+006  4.2817e+005 70023 246916,246994,246942
 1.0000e+001 247043  2.5063e+005 -4.1749e+006 -8.9164e+004 70023 246890,246994,246916
 1.0000e+001 247020 -3.2827e+005 -2.7761e+006 -2.1019e+004 70023 246942,246994,246968
 1.0000e+001 247267 -2.8425e+005 -4.4037e+006 -2.2974e+005 69633 247091,247143,247117
 1.0000e+001 247244 -1.2265e+005 -4.0392e+006 -1.0830e+005 69633 247091,247169,247143
 1.0000e+001 247221 -7.9918e+002 -2.9559e+006 -5.3613e+004 69633 247091,247195,247169
 1.0000e+001 247419 -5.2020e+005 -5.5588e+006  4.3661e+005 69457 247318,247370,247344
 1.0000e+001 247396 -9.3109e+005 -4.4195e+006  3.7103e+005 69457 247292,247370,247318
 1.0000e+001 247522 -1.5239e+001 -3.3494e+004  3.0539e+002 69209 247444,247496,247470
 1.0000e+001 247625 -1.9689e+006 -3.4371e+006 -3.7815e+005 68919 247547,247599,247573
 1.0000e+001 247777  1.1204e+005 -5.8305e+006 -1.0285e+006 68579 247650,247702,247676
 1.0000e+001 247754 -4.9158e+005 -4.1508e+006 -6.4113e+005 68579 247650,247728,247702
 1.0000e+001 247929 -5.5075e+005 -3.2640e+006  1.4145e+006 68289 247802,247854,247828
 1.0000e+001 247906 -3.4630e+005 -2.5255e+006  7.6989e+005 68289 247802,247880,247854
 1.0000e+001 248081 -3.7234e+005 -4.3090e+006  1.0701e+006 67949 247980,248032,248006
 1.0000e+001 248058 -6.8786e+005 -2.3073e+006  1.4990e+005 67949 247954,248032,247980
 1.0000e+001 248233 -1.2837e+006 -5.9942e+006 -6.3316e+005 67616 248132,248184,248158
 1.0000e+001 248210 -7.6261e+005 -5.8565e+006 -4.1290e+005 67616 248106,248184,248132
 1.0000e+001 248434 -2.7658e+005 -4.1817e+006 -7.2044e+005 67212 248284,248336,248310
 1.0000e+001 248411 -2.3769e+005 -4.2872e+006 -1.1200e+006 67212 248258,248336,248284
 1.0000e+001 248388 -1.5580e+006 -4.1393e+006 -8.1786e+005 67212 248258,248362,248336
 1.0000e+001 248586  2.5069e+004 -4.4848e+006  6.0597e+005 66872 248485,248537,248511
 1.0000e+001 248563 -8.1010e+005 -2.4495e+006 -1.1051e+005 66872 248459,248537,248485
 1.0000e+001 248738 -2.6959e+005 -5.3230e+006  1.1716e+005 66510 248637,248689,248663
 1.0000e+001 248715 -3.8600e+005 -8.0353e+006  1.6661e+005 66510 248611,248689,248637
 1.0000e+001 248890 -8.1662e+004 -1.5807e+006  3.4640e+005 66220 248789,248841,248815
 1.0000e+001 248867 -3.5441e+005 -2.0663e+006 -4.7833e+005 66220 248763,248841,248789
 1.0000e+001 249091 -7.9622e+005 -5.0747e+006  1.9600e+006 65759 248915,248967,248941
 1.0000e+001 249068 -5.1469e+005 -4.0494e+006  1.5342e+006 65759 248915,248993,248967
 1.0000e+001 249045 -5.4011e+005 -4.1120e+006  1.5750e+006 65759 248915,249019,248993
 1.0000e+001 249243 -1.7727e+005 -7.4587e+006  1.4616e+006 65419 249142,249194,249168
 1.0000e+001 249220 -4.6218e+005 -5.1381e+006  3.4696e+005 65419 249116,249194,249142
 1.0000e+001 249395 -3.5497e+005 -3.0844e+006 -2.2063e+005 65079 249268,249320,249294
 1.0000e+001 249372 -3.6344e+005 -3.9154e+006 -4.6181e+005 65079 249268,249346,249320
 1.0000e+001 249547 -6.7924e+004 -1.5960e+006 -1.2645e+005 64739 249420,249472,249446
 1.0000e+001 249524 -6.2009e+005 -1.7802e+006  2.0776e+004 64739 249420,249498,249472
 1.0000e+001 249650 -8.0946e+005 -4.2472e+006 -1.1480e+006 64342 249572,249624,249598
 1.0000e+001 249851 -1.1307e+006 -7.2150e+006 -1.1098e+006 63938 249701,249779,249753
 1.0000e+001 249828 -8.3201e+005 -7.6706e+006  2.0432e+006 63938 249675,249779,249701
 1.0000e+001 249805 -9.8888e+005 -1.6666e+007 -5.8128e+005 63938 249701,249753,249727
 1.0000e+001 250052 -1.1336e+006 -5.2866e+006 -1.8397e+005 63341 249876,249954,249902
 1.0000e+001 250029 -7.9005e+005 -5.2911e+006 -5.6906e+005 63341 249876,249980,249954
 1.0000e+001 250006  3.8377e+005 -5.4726e+006 -1.7774e+003 63341 249902,249954,249928
 1.0000e+001 250253 -3.6162e+005 -1.0181e+007 -1.3001e+006 63058 250077,250129,250103
 1.0000e+001 250230 -1.0927e+006 -6.6792e+006 -3.9343e+005 63058 250077,250155,250129
 1.0000e+001 250207 -4.8435e+005 -6.4860e+006 -5.1607e+005 63058 250077,250181,250155
 1.0000e+001 250454 -9.7346e+005 -6.9807e+006  1.3286e+006 62832 250304,250382,250330
 1.0000e+001 250431  2.0460e+005 -8.7771e+006 -2.3454e+006 62832 250278,250382,250304
 1.0000e+001 250408 -2.4044e+006 -4.2478e+006  2.6229e+005 62832 250330,250382,250356
 1.0000e+001 250606  1.5591e+005 -9.6034e+006 -2.0527e+005 62428 250479,250531,250505
 1.0000e+001 250583 -1.1945e+002 -8.2691e+006 -4.8886e+005 62428 250479,250557,250531
 1.0000e+001 250758 -2.6151e+005 -6.5767e+006  5.3935e+005 62202 250631,250683,250657
 1.0000e+001 250735 -2.5889e+005 -7.5640e+006  1.9878e+006 62202 250631,250709,250683
 1.0000e+001 250861 -1.2263e+006 -2.4545e+006  1.1340e+005 61954 250783,250835,250809
 1.0000e+001 251062 -1.8159e+006 -7.6784e+006 -6.8109e+005 61557 250912,250990,250938
 1.0000e+001 251039 -3.2719e+005 -8.0809e+006 -3.4485e+005 61557 250886,250990,250912
 1.0000e+001 251016 -1.5997e+006 -8.2015e+006 -1.1135e+006 61557 250938,250990,250964
 1.0000e+001 251263 -9.1930e+005 -7.1358e+006  3.2952e+004 61167 251113,251165,251139
 1.0000e+001 251240 -5.5453e+005 -6.7555e+006 -1.9972e+005 61167 251113,251191,251165
 1.0000e+001 251217 -1.1737e+006 -6.5672e+006  1.7992e+006 61167 251087,251191,251113
 1.0000e+001 251415 -9.0495e+005 -4.3153e+006  1.1093e+006 60827 251288,251340,251314
 1.0000e+001 251392 -8.8004e+005 -1.6159e+006 -2.4193e+005 60827 251288,251366,251340
 1.0000e+001 251567  2.8697e+004 -4.4591e+006  5.5913e+005 60487 251466,251518,251492
 1.0000e+001 251544 -1.5367e+005 -3.0039e+006 -2.5291e+005 60487 251440,251518,251466
 1.0000e+001 251719 -3.0493e+005 -8.8926e+006 -1.5576e+005 59983 251592,251644,251618
 1.0000e+001 251696 -8.3640e+005 -7.4122e+006 -6.8288e+004 59983 251592,251670,251644
 1.0000e+001 251920  8.7430e+004 -2.0788e+006 -5.6292e+004 59807 251770,251848,251796
 1.0000e+001 251897  7.9504e+004 -2.0716e+006 -6.9617e+004 59807 251744,251848,251770
 1.0000e+001 251874  6.9340e+004 -2.4065e+006 -2.1150e+005 59807 251796,251848,251822
 1.0000e+001 252023 -3.2598e+004 -4.8099e+006  6.4356e+004 59517 251945,251997,251971
 1.0000e+001 252175  6.0742e+005 -7.3035e+006 -5.1904e+005 59269 252074,252126,252100
 1.0000e+001 252152 -9.3053e+005  1.4067e+006  7.8471e+005 59269 252048,252126,252074
 1.0000e+001 252278 -3.8552e+005 -2.8475e+006  1.2683e+006 58979 252200,252252,252226
 1.0000e+001 252381 -2.0032e+006 -2.6157e+006  8.0305e+005 58689 252303,252355,252329
 1.0000e+001 252533 -7.0605e+005 -4.0833e+006  1.1804e+005 58249 252432,252484,252458
 1.0000e+001 252510 -5.6505e+005 -4.1877e+006 -4.3533e+005 58249 252406,252484,252432
 1.0000e+001 252734 -4.3594e+005 -3.5409e+006  3.4182e+005 57902 252584,252662,252610
 1.0000e+001 252711  7.5857e+005 -4.6923e+006 -1.0607e+005 57902 252558,252662,252584
 1.0000e+001 252688 -3.8711e+005 -2.3120e+006 -3.0034e+005 57902 252610,252662,252636
 1.0000e+001 252886 -1.4457e+005 -4.1136e+006 -1.7877e+005 57540 252785,252837,252811
 1.0000e+001 252863  1.0654e+005 -4.2171e+006 -1.3379e+005 57540 252759,252837,252785
 1.0000e+001 253038 -4.6864e+005 -5.2075e+006  1.0232e+006 57086 252937,252989,252963
 1.0000e+001 253015 -2.1729e+005 -2.5842e+006  1.4125e+005 57086 252911,252989,252937
 1.0000e+001 253239 -3.6781e+005 -5.2178e+006 -5.8701e+005 56796 253063,253141,253115
 1.0000e+001 253216  2.9598e+005 -5.6890e+006  2.8964e+004 56796 253063,253167,253141
 1.0000e+001 253193 -9.2406e+005 -4.1912e+006 -2.4871e+005 56796 253063,253115,253089
 1.0000e+001 253342 -4.8687e+005 -4.8750e+006  4.0688e+005 56349 253264,253316,253290
 1.0000e+001 253543 -8.2360e+005 -6.5504e+006 -7.0727e+005 56009 253367,253419,253393
 1.0000e+001 253520 -8.2845e+005 -4.5585e+006 -3.0782e+005 56009 253367,253445,253419
 1.0000e+001 253497 -4.6511e+005 -5.1226e+006 -8.1704e+004 56009 253367,253471,253445
 1.0000e+001 253695 -1.5795e+004 -3.7929e+006  9.5473e+004 55733 253594,253646,253620
 1.0000e+001 253672 -1.6480e+005 -3.0660e+006  9.8941e+004 55733 253568,253646,253594
 1.0000e+001 253798 -5.1089e+005 -2.3696e+006 -1.6112e+005 55557 253720,253772,253746
 1.0000e+001 253950 -4.6502e+005 -3.7495e+006  3.3029e+005 55153 253849,253901,253875
 1.0000e+001 253927  3.0894e+005 -4.4534e+006 -5.3290e+005 55153 253823,253901,253849
 1.0000e+001 254151 -1.1728e+006 -4.3044e+006  6.9519e+005 54863 253975,254053,254001
 1.0000e+001 254128 -6.0445e+005 -4.5279e+006 -3.5527e+004 54863 253975,254079,254053
 1.0000e+001 254105 -3.2931e+005 -3.2261e+006  6.2588e+004 54863 254001,254053,254027
 1.0000e+001 254303  4.2317e+004 -4.9840e+006  1.5483e+005 54373 254176,254228,254202
 1.0000e+001 254280 -9.5028e+005 -4.3706e+006  3.7237e+005 54373 254176,254254,254228
 1.0000e+001 254455 -3.8444e+005 -5.0926e+006 -3.8233e+005 53975 254354,254406,254380
 1.0000e+001 254432 -9.1578e+005 -1.9563e+006  5.6359e+003 53975 254328,254406,254354
 1.0000e+001 254607 -5.1049e+005 -4.2204e+006 -4.9665e+005 53585 254480,254532,254506
 1.0000e+001 254584 -2.9920e+005 -4.3624e+006 -5.5813e+005 53585 254480,254558,254532
 1.0000e+001 254808 -8.8255e+005 -3.3235e+006 -7.5275e+004 53245 254658,254736,254684
 1.0000e+001 254785 -1.0329e+006 -2.4050e+006 -3.4839e+005 53245 254632,254736,254658
 1.0000e+001 254762 -5.0214e+005 -2.5195e+006 -4.5076e+005 53245 254684,254736,254710
 1.0000e+001 254911 -2.7302e+005 -4.9013e+006 -2.5568e+005 52955 254833,254885,254859
 1.0000e+001 255063 -6.9266e+005 -5.0593e+006 -1.7059e+005 52551 254962,255014,254988
 1.0000e+001 255040 -6.6706e+005 -5.5841e+006 -3.9340e+005 52551 254936,255014,254962
 1.0000e+001 255264 -1.1857e+006 -1.9163e+006 -6.8559e+004 52261 255114,255166,255140
 1.0000e+001 255241 -1.2166e+006 -3.9212e+006  5.1685e+005 52261 255114,255192,255166
 1.0000e+001 255218 -6.5793e+005 -6.3166e+006 -1.6480e+006 52261 255088,255192,255114
 1.0000e+001 255416 -2.8877e+005 -4.4017e+006  1.1655e+006 51971 255289,255341,255315
 1.0000e+001 255393 -3.5413e+005 -4.1160e+006 -2.1845e+005 51971 255289,255367,255341
 1.0000e+001 255568 -5.7881e+005 -2.4826e+006 -3.0818e+005 51681 255441,255493,255467
 1.0000e+001 255545  8.2222e+004 -6.4997e+006  3.8341e+005 51681 255441,255519,255493
 1.0000e+001 255769 -2.9182e+005 -3.4527e+006  4.0688e+004 51291 255619,255697,255671
 1.0000e+001 255746 -2.5785e+005 -2.9889e+006 -3.0870e+005 51291 255593,255697,255619
 1.0000e+001 255723 -1.0866e+005 -4.6808e+006 -1.9900e+005 51291 255619,255671,255645
 1.0000e+001 255921 -4.8040e+005 -2.7376e+006  6.8313e+005 50951 255820,255872,255846
 1.0000e+001 255898 -4.4839e+005 -2.6825e+006  4.5678e+005 50951 255794,255872,255820
 1.0000e+001 256171 -1.1502e+006 -3.7808e+006 -1.0085e+005 50547 256024,256076,256050
 1.0000e+001 256148 -8.5958e+005 -4.0876e+006  3.9539e+005 50547 255972,256076,256024
 1.0000e+001 256125 -3.3053e+005 -4.8258e+006 -1.5455e+005 50547 255946,256076,255972
 1.0000e+001 256102 -8.7563e+005 -3.3578e+006  1.6789e+005 50547 255972,256024,255998
 1.0000e+001 256323  2.0392e+005 -5.0210e+006  8.8448e+005 50093 256196,256248,256222
 1.0000e+001 256300 -7.5020e+005 -2.7956e+006 -8.6285e+005 50093 256196,256274,256248
 1.0000e+001 256426  2.8919e+002 -1.4307e+005  5.3476e+002 49845 256348,256400,256374
 1.0000e+001 256627 -3.7749e+005 -4.4808e+006  2.7500e+005 49555 256477,256555,256503
 1.0000e+001 256604 -4.0277e+005 -4.1977e+006  2.8320e+005 49555 256451,256555,256477
 1.0000e+001 256581 -4.6104e+005 -3.7784e+006  3.0720e+005 49555 256503,256555,256529
 1.0000e+001 256828 -2.6472e+005 -3.4363e+006 -2.5072e+005 49056 256652,256730,256678
 1.0000e+001 256805 -5.2410e+005 -3.1868e+006 -6.3226e+004 49056 256652,256756,256730
 1.0000e+001 256782 -5.3595e+005 -3.4697e+006 -2.1750e+005 49056 256678,256730,256704
 1.0000e+001 256931 -9.3041e+005 -2.0219e+006 -6.4383e+005 48766 256853,256905,256879
 1.0000e+001 257083 -5.4251e+005 -4.4093e+006 -2.8683e+005 48568 256982,257034,257008
 1.0000e+001 257060 -3.7639e+005 -3.7127e+006 -4.7836e+005 48568 256956,257034,256982
 1.0000e+001 257186 -2.8285e+003 -1.4612e+006  1.3367e+003 48228 257108,257160,257134
 1.0000e+001 257338 -4.1459e+005 -1.9840e+006  5.7999e+005 47888 257237,257289,257263
 1.0000e+001 257315 -4.5734e+005 -2.0421e+006  5.2603e+005 47888 257211,257289,257237
 1.0000e+001 257539 -3.2220e+005 -4.1257e+006  1.4023e+005 47548 257363,257441,257415
 1.0000e+001 257516 -5.9425e+005 -3.9719e+006 -1.7320e+005 47548 257363,257467,257441
 1.0000e+001 257493 -5.2026e+005 -3.1382e+006 -1.1604e+005 47548 257363,257415,257389
 1.0000e+001 257740 -2.6139e+005 -3.8790e+006  3.6235e+005 46994 257564,257642,257616
 1.0000e+001 257717 -4.2214e+005 -3.3610e+006  1.7882e+005 46994 257564,257668,257642
 1.0000e+001 257694 -6.8033e+005 -4.0661e+006  3.0560e+004 46994 257564,257616,257590
 1.0000e+001 257843 -8.7594e+005 -3.2671e+006  1.3570e+005 46654 257765,257817,257791
 1.0000e+001 257995 -7.3156e+005 -3.4268e+006  2.7175e+005 46364 257894,257946,257920
 1.0000e+001 257972 -6.5715e+005 -4.2396e+006 -1.8376e+005 46364 257868,257946,257894
 1.0000e+001 258147 -2.2422e+005 -3.3771e+006  2.1092e+005 46024 258046,258098,258072
 1.0000e+001 258124 -4.0870e+005 -3.4091e+006  1.5968e+005 46024 258020,258098,258046
 1.0000e+001 258250 -7.0323e+005 -2.8629e+006  8.2530e+005 45741 258172,258224,258198
 1.0000e+001 258402 -1.7018e+005 -3.0709e+006  2.6568e+005 45401 258301,258353,258327
 1.0000e+001 258379 -5.0058e+005 -2.3962e+006  1.9268e+005 45401 258275,258353,258301
 1.0000e+001 258603 -5.8941e+005 -2.1230e+006  7.7536e+004 45071 258427,258505,258479
 1.0000e+001 258580 -3.3045e+005 -4.6304e+006  4.0060e+005 45071 258427,258531,258505
 1.0000e+001 258557 -2.0469e+005 -2.6755e+006  2.6675e+005 45071 258427,258479,258453
 1.0000e+001 258755 -1.9868e+005 -3.5530e+006 -1.8469e+005 44681 258654,258706,258680
 1.0000e+001 258732 -1.8761e+005 -3.9292e+006 -2.1302e+005 44681 258628,258706,258654
 1.0000e+001 258907 -3.8539e+005 -2.7226e+006 -2.7974e+005 44157 258806,258858,258832
 1.0000e+001 258884 -6.3093e+005 -2.4155e+006 -2.4429e+005 44157 258780,258858,258806
 1.0000e+001 259010 -5.6032e+005 -1.8973e+006 -2.8091e+004 43705 258932,258984,258958
 1.0000e+001 259113 -2.5158e+005 -4.5281e+006  3.9362e+005 43284 259035,259087,259061
 1.0000e+001 259216 -5.1238e+005 -3.8452e+006 -2.3239e+005 42954 259138,259190,259164
 1.0000e+001 259319 -9.5089e+005 -2.1306e+006 -4.1229e+003 42116 259241,259293,259267
 1.0000e+001 259422 -3.7375e+005 -3.4792e+006 -2.1685e+005 41804 259344,259396,259370
 1.0000e+001 259525 -5.8729e+005 -4.9006e+006  5.5069e+005 41219 259447,259499,259473
 1.0000e+001 259628 -8.1787e+005 -2.8613e+006 -2.6055e+005 385 259550,259602,259576
 1.0000e+002 190120 -5.6767e+004 -3.4144e+006 -3.7174e+005 189630 189993,190045,190019
 1.0000e+002 190097 -7.8932e+005 -2.7931e+006 -2.5232e+005 189630 189993,190071,190045
 1.0000e+002 190319 -1.4427e+006 -4.0447e+006 -2.2263e+005 189312 190169,190221,190195
 1.0000e+002 190296 -6.8175e+005 -3.2863e+006 -8.8877e+005 189312 190169,190247,190221
 1.0000e+002 190273 -8.9222e+005 -2.6621e+006  2.9328e+005 189312 190143,190247,190169
 1.0000e+002 190518 -3.5692e+005 -9.3348e+005 -1.3223e+005 189124 190368,190446,190420
 1.0000e+002 190495 -6.4579e+005 -5.1405e+005  1.8842e+005 189124 190342,190446,190368
 1.0000e+002 190472 -7.9644e+005 -9.8762e+005 -2.9968e+005 189124 190368,190420,190394
 1.0000e+002 190619 -4.6591e+005 -4.8549e+005 -1.9599e+004 188926 190541,190593,190567
 1.0000e+002 190771 -5.3440e+005 -1.0715e+006 -6.2537e+004 188614 190670,190722,190696
 1.0000e+002 190748 -4.0670e+005 -5.9770e+005  1.0716e+005 188614 190644,190722,190670
 1.0000e+002 190972 -6.6198e+005 -3.8903e+005 -1.9059e+005 188324 190848,190900,190874
 1.0000e+002 190949 -6.2395e+005 -1.2558e+006 -6.7945e+005 188324 190796,190900,190848
 1.0000e+002 190926  9.5074e+004 -2.1163e+005 -1.7224e+005 188324 190796,190848,190822
 1.0000e+002 191124 -4.8316e+005 -1.8615e+006 -1.5981e+005 188034 191023,191075,191049
 1.0000e+002 191101 -3.3890e+005 -1.8414e+006 -1.8233e+005 188034 190997,191075,191023
 1.0000e+002 191276 -2.2506e+005 -6.5066e+005 -2.2385e+004 187836 191149,191201,191175
 1.0000e+002 191253 -2.2483e+005 -3.7709e+005  1.2968e+005 187836 191149,191227,191201
 1.0000e+002 191379 -4.5946e+005 -3.3405e+005 -9.9137e+004 187546 191301,191353,191327
 1.0000e+002 191531 -2.3478e+005 -3.0769e+006  2.6336e+005 187256 191430,191482,191456
 1.0000e+002 191508 -1.1794e+006 -4.4976e+006 -1.4237e+006 187256 191404,191482,191430
 1.0000e+002 191634 -7.6024e+005 -1.6661e+005  1.0141e+005 187058 191556,191608,191582
 1.0000e+002 191835 -6.0468e+005 -2.6702e+005  7.3293e+004 186860 191659,191711,191685
 1.0000e+002 191812 -3.4638e+005 -9.7331e+005 -1.8305e+004 186860 191659,191737,191711
 1.0000e+002 191789 -3.3353e+005 -8.6509e+005  1.3250e+004 186860 191659,191763,191737
 1.0000e+002 191987 -5.5612e+005 -6.2988e+004  6.5483e+004 186662 191886,191938,191912
 1.0000e+002 191964 -3.4594e+005 -5.9224e+004  5.2870e+004 186662 191860,191938,191886
 1.0000e+002 192090 -6.6422e+005 -3.4032e+005  8.7845e+004 186486 192012,192064,192038
 1.0000e+002 192242 -1.4112e+005 -6.4018e+006 -3.1944e+005 186288 192115,192167,192141
 1.0000e+002 192219 -7.8207e+005 -3.7893e+006  8.4662e+004 186288 192115,192193,192167
 1.0000e+002 192394 -3.0673e+004 -5.0685e+006 -3.1048e+005 185935 192293,192345,192319
 1.0000e+002 192371 -4.8668e+005 -3.5900e+006 -6.5612e+005 185935 192267,192345,192293
 1.0000e+002 192546 -4.0763e+005 -3.6477e+006 -4.9717e+005 185675 192419,192471,192445
 1.0000e+002 192523 -9.9592e+005 -1.6339e+006 -5.4088e+005 185675 192419,192497,192471
 1.0000e+002 192649 -7.6445e+005 -1.0295e+006  2.0376e+005 185499 192571,192623,192597
 1.0000e+002 192801 -3.4865e+005 -1.6401e+006  3.7870e+005 185301 192674,192726,192700
 1.0000e+002 192778 -3.9744e+005 -1.5028e+006 -4.6543e+003 185301 192674,192752,192726
 1.0000e+002 193002 -8.0874e+004 -5.3358e+005 -3.6809e+005 185046 192852,192930,192878
 1.0000e+002 192979 -3.3943e+005 -1.3979e+006 -1.8363e+005 185046 192826,192930,192852
 1.0000e+002 192956  4.0523e+005 -1.7835e+006 -2.3399e+004 185046 192878,192930,192904
 1.0000e+002 193203  2.2423e+005 -4.2899e+006 -6.7977e+005 184798 193079,193131,193105
 1.0000e+002 193180 -1.0237e+006 -2.8162e+006 -5.1150e+004 184798 193027,193131,193079
 1.0000e+002 193157 -1.8477e+006 -3.0302e+006  7.0809e+004 184798 193027,193079,193053
 1.0000e+002 193404 -1.2116e+005 -4.4965e+006 -9.0396e+005 184600 193254,193306,193280
 1.0000e+002 193381 -3.5090e+005 -2.2724e+006 -1.6358e+005 184600 193254,193332,193306
 1.0000e+002 193358 -9.5446e+005 -6.2057e+005 -4.8045e+005 184600 193228,193332,193254
 1.0000e+002 193556 -1.2755e+005 -1.7839e+006 -2.7044e+005 184402 193429,193481,193455
 1.0000e+002 193533 -9.5767e+005 -9.3174e+005 -9.0566e+005 184402 193429,193507,193481
 1.0000e+002 193708 -1.5407e+005 -1.5226e+006  7.7144e+004 184204 193607,193659,193633
 1.0000e+002 193685 -6.0577e+005 -5.1781e+006 -9.5741e+005 184204 193581,193659,193607
 1.0000e+002 193860 -6.4332e+005 -1.1668e+006  6.5559e+005 183908 193759,193811,193785
 1.0000e+002 193837  1.3162e+005 -2.4733e+006  6.9851e+005 183908 193733,193811,193759
 1.0000e+002 194061 -6.1482e+005 -1.0453e+004  7.4449e+004 183710 193911,193989,193937
 1.0000e+002 194038 -4.5423e+005 -1.1485e+003 -1.5254e+005 183710 193885,193989,193911
 1.0000e+002 194015 -4.5633e+005 -4.2962e+002  4.3777e+003 183710 193937,193989,193963
 1.0000e+002 194262 -7.1277e+005 -2.4274e+006 -4.9628e+005 183420 194086,194164,194112
 1.0000e+002 194239 -5.8674e+005 -1.7826e+006 -2.7932e+005 183420 194086,194190,194164
 1.0000e+002 194216  3.8913e+005 -6.3870e+006  1.3789e+006 183420 194112,194164,194138
 1.0000e+002 194414 -6.8822e+005 -5.4068e+006 -1.1457e+004 183222 194287,194339,194313
 1.0000e+002 194391 -4.3049e+005 -1.1993e+006 -2.0465e+005 183222 194287,194365,194339
 1.0000e+002 194517 -7.9113e+005 -9.6682e+005  1.1549e+005 183024 194439,194491,194465
 1.0000e+002 194718  1.4359e+006 -1.2719e+007  1.5049e+006 182734 194568,194620,194594
 1.0000e+002 194695 -1.1692e+006 -3.2521e+006 -2.5859e+006 182734 194542,194620,194568
 1.0000e+002 194672 -2.8313e+006 -1.9227e+006 -1.3322e+006 182734 194542,194646,194620
 1.0000e+002 194870 -3.6090e+005 -1.3723e+006  2.1393e+005 182444 194769,194821,194795
 1.0000e+002 194847 -3.8839e+005 -2.1862e+006  7.6389e+005 182444 194743,194821,194769
 1.0000e+002 195071 -5.3264e+005 -2.0086e+006  1.2039e+006 182154 194895,194947,194921
 1.0000e+002 195048 -7.3986e+005 -7.7203e+005  2.0975e+004 182154 194895,194999,194947
 1.0000e+002 195025 -4.1648e+005 -2.4282e+005  2.5526e+005 182154 194947,194999,194973
 1.0000e+002 195223 -2.6232e+005 -5.2958e+005 -4.9411e+004 181814 195096,195148,195122
 1.0000e+002 195200 -5.0125e+005 -1.9306e+006 -1.0039e+006 181814 195096,195174,195148
 1.0000e+002 195375 -7.9366e+004 -1.2393e+005 -7.3670e+004 181524 195248,195300,195274
 1.0000e+002 195352  3.3325e+004 -5.7655e+005 -1.6017e+004 181524 195248,195326,195300
 1.0000e+002 195527 -1.9379e+005 -1.5127e+006 -7.5239e+005 181326 195426,195478,195452
 1.0000e+002 195504 -8.1138e+005 -5.3180e+005 -4.4688e+005 181326 195400,195478,195426
 1.0000e+002 195679  4.9520e+004 -8.2963e+006 -2.9563e+005 180936 195578,195630,195604
 1.0000e+002 195656 -5.5096e+005 -3.2717e+006 -1.7724e+005 180936 195552,195630,195578
 1.0000e+002 195831 -6.3835e+005 -5.9284e+005 -3.2805e+005 180646 195704,195756,195730
 1.0000e+002 195808 -6.1203e+005 -1.9680e+005 -8.5148e+004 180646 195704,195782,195756
 1.0000e+002 196032 -3.3270e+005 -2.1301e+006  4.3451e+005 180306 195882,195960,195934
 1.0000e+002 196009 -4.6806e+005 -8.5708e+005 -3.4778e+005 180306 195856,195960,195882
 1.0000e+002 195986  3.0503e+004 -2.3323e+006  1.7798e+005 180306 195882,195934,195908
 1.0000e+002 196233 -1.9689e+005 -3.7527e+005 -7.0403e+005 179944 196057,196109,196083
 1.0000e+002 196210 -9.4132e+005 -3.8501e+006  5.0994e+005 179944 196057,196135,196109
 1.0000e+002 196187 -1.9417e+006  3.6506e+006 -1.2947e+006 179944 196057,196161,196135
 1.0000e+002 196385 -4.3976e+005 -2.4456e+005 -9.7707e+004 179604 196258,196310,196284
 1.0000e+002 196362 -9.5970e+005 -1.0298e+006 -1.2218e+006 179604 196258,196336,196310
 1.0000e+002 196586 -7.7533e+005 -5.3073e+005 -6.0666e+005 179114 196410,196488,196436
 1.0000e+002 196563 -3.7878e+005 -2.4553e+006 -6.3199e+005 179114 196410,196514,196488
 1.0000e+002 196540 -5.1536e+003 -4.8787e+005 -4.9587e+004 179114 196436,196488,196462
 1.0000e+002 196738 -7.1687e+005 -1.5951e+006 -6.7798e+005 178674 196611,196663,196637
 1.0000e+002 196715 -7.6300e+003 -3.6105e+006 -1.4213e+005 178674 196611,196689,196663
 1.0000e+002 196939  1.2811e+006 -8.4391e+006 -7.6659e+005 178334 196789,196867,196841
 1.0000e+002 196916 -3.1708e+005 -8.8510e+006 -9.1351e+005 178334 196763,196867,196789
 1.0000e+002 196893 -1.3080e+006 -6.0153e+006 -2.8052e+006 178334 196789,196841,196815
 1.0000e+002 197091 -1.2059e+006 -2.8929e+006 -7.9207e+005 177930 196990,197042,197016
 1.0000e+002 197068 -1.8180e+006 -5.3830e+006 -8.6020e+005 177930 196964,197042,196990
 1.0000e+002 197194 -3.5373e+002 -5.9540e+001  9.8290e+001 177732 197116,197168,197142
 1.0000e+002 197346 -3.9687e+005 -5.4516e+006  2.1862e+005 177534 197219,197271,197245
 1.0000e+002 197323 -1.6415e+005 -5.8660e+006  4.2975e+005 177534 197219,197297,197271
 1.0000e+002 197547 -1.0597e+006 -6.5734e+006 -2.5528e+006 177130 197397,197449,197423
 1.0000e+002 197524 -2.5103e+006 -7.4629e+006 -1.5271e+006 177130 197397,197475,197449
 1.0000e+002 197501 -1.2639e+006 -1.2248e+007 -2.2675e+006 177130 197371,197475,197397
 1.0000e+002 197748 -7.1260e+005 -5.3777e+006  4.5224e+005 176790 197598,197676,197624
 1.0000e+002 197725 -5.0685e+005 -3.9649e+006  6.7280e+005 176790 197572,197676,197598
 1.0000e+002 197702 -6.6417e+005 -4.5577e+006  5.3094e+005 176790 197624,197676,197650
 1.0000e+002 197900 -2.8540e+005 -2.9326e+006 -5.2054e+005 176300 197773,197825,197799
 1.0000e+002 197877 -7.7029e+004 -4.2507e+006 -4.0255e+005 176300 197773,197851,197825
 1.0000e+002 198052 -1.2926e+006 -3.3803e+006 -1.0912e+006 176010 197925,197977,197951
 1.0000e+002 198029 -4.4237e+005 -6.7977e+006 -2.0078e+006 176010 197925,198003,197977
 1.0000e+002 198204 -1.1929e+006 -6.1908e+006 -2.5881e+006 175670 198103,198155,198129
 1.0000e+002 198181 -1.8073e+006 -4.6622e+006 -3.8604e+005 175670 198077,198155,198103
 1.0000e+002 198405 -4.4837e+005 -3.0229e+006 -4.3363e+005 175266 198255,198307,198281
 1.0000e+002 198382 -1.4634e+005 -5.2421e+006 -2.3257e+006 175266 198229,198307,198255
 1.0000e+002 198359 -1.3597e+006 -5.0897e+006 -2.4275e+006 175266 198229,198333,198307
 1.0000e+002 198606 -5.9963e+003 -1.4270e+005  1.5647e+004 174876 198430,198508,198482
 1.0000e+002 198583 -9.1201e+004 -1.6275e+005  6.2817e+003 174876 198430,198534,198508
 1.0000e+002 198560 -4.4268e+004 -7.0779e+004 -1.9232e+003 174876 198430,198482,198456
 1.0000e+002 198758 -3.9276e+005 -2.6631e+006 -2.2959e+005 174536 198657,198709,198683
 1.0000e+002 198735  1.7914e+005 -4.1763e+005 -9.2575e+004 174536 198631,198709,198657
 1.0000e+002 199008 -1.0857e+006 -4.7932e+006 -1.3007e+004 174132 198835,198913,198887
 1.0000e+002 198985 -5.0370e+005 -1.9050e+006  4.8555e+005 174132 198809,198913,198835
 1.0000e+002 198962 -7.9172e+005 -2.2421e+006 -1.3106e+006 174132 198783,198913,198809
 1.0000e+002 198939 -5.6124e+005 -4.9123e+006  8.8584e+004 174132 198835,198887,198861
 1.0000e+002 199160 -1.1418e+006 -2.8455e+006 -4.9196e+005 173842 199059,199111,199085
 1.0000e+002 199137 -2.6371e+005 -1.1898e+006  2.4895e+005 173842 199033,199111,199059
 1.0000e+002 199361 -5.4193e+005 -4.2920e+006  1.0421e+006 173438 199237,199289,199263
 1.0000e+002 199338 -3.5125e+005 -4.3986e+006  1.0919e+006 173438 199211,199289,199237
 1.0000e+002 199315 -3.8779e+004 -6.3771e+006 -5.8843e+005 173438 199185,199289,199211
 1.0000e+002 199513 -1.0357e+006 -5.6602e+006 -1.3197e+004 173190 199386,199438,199412
 1.0000e+002 199490 -2.2779e+006 -5.7518e+006  8.2749e+004 173190 199386,199464,199438
 1.0000e+002 199665 -3.8965e+005 -1.4283e+006  2.0972e+005 172750 199564,199616,199590
 1.0000e+002 199642 -7.6059e+005 -7.7049e+005 -2.6657e+004 172750 199538,199616,199564
 1.0000e+002 199817 -2.7579e+005 -3.6233e+006 -1.2513e+006 172524 199690,199742,199716
 1.0000e+002 199794 -1.6263e+006 -1.1035e+006 -7.8274e+005 172524 199690,199768,199742
 1.0000e+002 199969 -6.3786e+003 -5.4331e+006 -1.8831e+005 172348 199842,199894,199868
 1.0000e+002 199946  2.2625e+005 -5.3988e+006  7.9782e+004 172348 199842,199920,199894
 1.0000e+002 200121  1.3759e+005 -2.8892e+006 -4.3646e+005 172008 199994,200046,200020
 1.0000e+002 200098 -8.9573e+004 -1.6104e+006 -3.0296e+004 172008 199994,200072,200046
 1.0000e+002 200273 -2.4294e+006 -3.1829e+006 -2.1810e+006 171668 200172,200224,200198
 1.0000e+002 200250 -1.2945e+006 -3.1948e+006 -3.4004e+005 171668 200146,200224,200172
 1.0000e+002 200474 -6.2974e+003 -4.1255e+006 -8.0408e+005 171264 200350,200402,200376
 1.0000e+002 200451 -3.0036e+005 -4.3733e+006 -9.6560e+005 171264 200324,200402,200350
 1.0000e+002 200428 -2.8882e+005 -2.8418e+006  9.0564e+005 171264 200298,200402,200324
 1.0000e+002 200626 -9.5384e+005 -4.6468e+006 -5.5696e+005 170832 200525,200577,200551
 1.0000e+002 200603 -3.1385e+005 -2.5163e+006 -1.0901e+004 170832 200499,200577,200525
 1.0000e+002 200827  1.6390e+004 -3.1099e+006  7.3646e+005 170492 200677,200729,200703
 1.0000e+002 200804 -1.7272e+006 -1.0944e+006 -8.8492e+005 170492 200651,200729,200677
 1.0000e+002 200781 -1.5227e+006 -1.6299e+006 -1.0321e+006 170492 200651,200755,200729
 1.0000e+002 201077 -5.8384e+005 -3.0712e+006 -1.7084e+005 170088 200878,200956,200904
 1.0000e+002 201054 -4.3596e+005 -1.5354e+006 -2.5820e+005 170088 200852,200956,200878
 1.0000e+002 201031 -6.7871e+005 -1.4829e+006  2.2156e+006 170088 200904,200956,200930
 1.0000e+002 201008  3.7092e+005 -2.2394e+006  2.2823e+005 170088 200852,200982,200956
 1.0000e+002 201278 -1.5223e+005 -3.5940e+006 -7.4737e+004 169798 201102,201154,201128
 1.0000e+002 201255  1.0081e+005 -2.5905e+006 -3.7568e+004 169798 201102,201206,201154
 1.0000e+002 201232 -2.6777e+005 -1.9412e+006 -1.8902e+004 169798 201154,201206,201180
 1.0000e+002 201430 -1.0069e+006 -5.0586e+006 -1.1599e+006 169337 201303,201355,201329
 1.0000e+002 201407 -7.4016e+005 -1.7882e+006  4.7879e+004 169337 201303,201381,201355
 1.0000e+002 201631 -3.4157e+005 -3.6469e+006  3.1855e+005 168883 201481,201559,201507
 1.0000e+002 201608 -5.3481e+005 -2.6298e+006  9.3572e+005 168883 201455,201559,201481
 1.0000e+002 201585 -9.7972e+004 -2.0644e+006  5.4302e+005 168883 201507,201559,201533
 1.0000e+002 201832  3.5350e+005 -5.8952e+006  3.8277e+005 168479 201682,201734,201708
 1.0000e+002 201809 -1.9013e+006 -4.3341e+006 -9.9556e+005 168479 201656,201734,201682
 1.0000e+002 201786 -1.6390e+006 -3.3099e+006  4.4020e+004 168479 201656,201760,201734
 1.0000e+002 202033 -3.1537e+005 -2.0483e+006  3.6591e+004 167825 201883,201935,201909
 1.0000e+002 202010 -1.7675e+006 -3.2846e+006 -2.1858e+006 167825 201857,201935,201883
 1.0000e+002 201987 -2.6409e+005 -9.3192e+006 -1.3733e+006 167825 201857,201961,201935
 1.0000e+002 202234  3.4252e+004 -2.3945e+006 -2.9930e+005 167435 202058,202136,202084
 1.0000e+002 202211 -5.5062e+005 -2.7204e+006 -2.3885e+004 167435 202058,202162,202136
 1.0000e+002 202188 -2.0937e+005 -1.8565e+006  1.1019e+005 167435 202084,202136,202110
 1.0000e+002 202386  1.1534e+005 -3.0701e+006  3.5313e+005 167002 202285,202337,202311
 1.0000e+002 202363 -4.5808e+005 -7.2591e+005  4.1164e+005 167002 202259,202337,202285
 1.0000e+002 202538 -1.1368e+006 -4.7947e+006 -2.3709e+006 166662 202411,202463,202437
 1.0000e+002 202515 -1.4668e+006 -2.7872e+006 -2.1959e+006 166662 202411,202489,202463
 1.0000e+002 202690 -1.4504e+005 -1.8872e+006  3.4765e+005 166322 202589,202641,202615
 1.0000e+002 202667  2.8583e+005 -2.6238e+006 -5.6714e+005 166322 202563,202641,202589
 1.0000e+002 202891 -1.4218e+005 -9.0632e+005 -7.3402e+004 165918 202715,202767,202741
 1.0000e+002 202868 -3.5225e+005 -2.0567e+006 -6.4811e+005 165918 202715,202793,202767
 1.0000e+002 202845 -1.0007e+006 -2.4871e+006 -3.4338e+005 165918 202715,202819,202793
 1.0000e+002 203092 -4.4684e+005 -6.8897e+005 -3.8082e+005 165628 202916,202968,202942
 1.0000e+002 203069  4.2886e+004 -1.4720e+006 -4.6057e+005 165628 202916,202994,202968
 1.0000e+002 203046 -9.1211e+004 -2.4244e+006  3.8788e+005 165628 202916,203020,202994
 1.0000e+002 203293 -2.9431e+006 -1.6644e+006 -2.1523e+006 165266 203143,203195,203169
 1.0000e+002 203270 -1.1561e+006 -4.4576e+006 -3.9556e+005 165266 203143,203221,203195
 1.0000e+002 203247 -7.4260e+005 -4.8748e+006 -8.6680e+005 165266 203117,203221,203143
 1.0000e+002 203445 -4.0004e+005 -2.1064e+006  6.2752e+005 164826 203318,203370,203344
 1.0000e+002 203422 -1.7239e+005 -1.4153e+006 -1.7998e+005 164826 203318,203396,203370
 1.0000e+002 203597 -1.1062e+006 -1.0661e+006  9.7091e+004 164386 203470,203522,203496
 1.0000e+002 203574 -1.5213e+006 -2.6127e+006 -6.5182e+004 164386 203470,203548,203522
 1.0000e+002 203798 -4.2659e+005  5.3955e+004  6.1036e+004 163996 203622,203674,203648
 1.0000e+002 203775 -7.6274e+005 -4.4576e+004  1.9440e+005 163996 203622,203726,203674
 1.0000e+002 203752 -7.1392e+005 -2.9944e+003 -4.5973e+004 163996 203674,203726,203700
 1.0000e+002 203901 -3.2036e+005 -8.8304e+005  1.9072e+005 163770 203823,203875,203849
 1.0000e+002 204053 -1.9394e+006 -3.6335e+006 -1.7867e+006 163474 203952,204004,203978
 1.0000e+002 204030 -1.1090e+006 -2.9416e+006 -8.8094e+005 163474 203926,204004,203952
 1.0000e+002 204205  1.4378e+005 -5.7687e+005 -2.2985e+005 163034 204104,204156,204130
 1.0000e+002 204182 -2.0577e+005 -9.9704e+005 -6.5606e+005 163034 204078,204156,204104
 1.0000e+002 204357 -3.9288e+004 -4.8921e+003  1.4197e+004 162624 204256,204308,204282
 1.0000e+002 204334 -3.9550e+004 -4.9335e+003  1.3813e+004 162624 204230,204308,204256
 1.0000e+002 204509 -4.7564e+005 -1.3654e+005  2.2182e+005 162200 204382,204434,204408
 1.0000e+002 204486 -4.0686e+005 -2.8961e+005  4.0550e+005 162200 204382,204460,204434
 1.0000e+002 204710 -1.9279e+006 -4.2458e+005  4.5290e+005 161810 204560,204638,204586
 1.0000e+002 204687 -1.1277e+006 -1.5708e+006 -1.1299e+006 161810 204534,204638,204560
 1.0000e+002 204664 -1.8000e+006 -3.0950e+005  5.9098e+005 161810 204586,204638,204612
 1.0000e+002 204862 -4.2031e+005 -4.0035e+005 -1.0640e+005 161406 204735,204787,204761
 1.0000e+002 204839  2.6131e+004 -9.4265e+005  4.8749e+004 161406 204735,204813,204787
 1.0000e+002 205014  5.3773e+002 -2.2206e+003  6.0570e+002 161180 204887,204939,204913
 1.0000e+002 204991  2.3956e+002 -2.3657e+003  7.1221e+002 161180 204887,204965,204939
 1.0000e+002 205215 -7.9453e+005 -2.2661e+006 -2.1041e+006 160726 205039,205091,205065
 1.0000e+002 205192 -8.9199e+005 -2.9395e+006 -1.2733e+006 160726 205039,205143,205091
 1.0000e+002 205169 -1.5970e+006 -4.0539e+006 -1.7953e+006 160726 205091,205143,205117
 1.0000e+002 205416 -1.2861e+003 -3.4332e+002 -1.1272e+003 160272 205292,205344,205318
 1.0000e+002 205393  4.9376e+002 -1.8006e+003  1.7322e+002 160272 205240,205344,205292
 1.0000e+002 205370  4.7567e+002 -1.7669e+003  3.0022e+002 160272 205240,205292,205266
 1.0000e+002 205568 -2.1177e+002  2.3337e+002 -8.0973e+002 159932 205441,205493,205467
 1.0000e+002 205545 -1.1812e+002  4.2268e+002 -9.1393e+002 159932 205441,205519,205493
 1.0000e+002 205720 -2.8100e+002  3.3397e+002  5.8546e+001 159542 205593,205645,205619
 1.0000e+002 205697 -3.7905e+002  1.8460e+002  3.3556e+001 159542 205593,205671,205645
 1.0000e+002 205872 -7.0453e+002 -9.6131e+001  1.2406e+003 159252 205745,205797,205771
 1.0000e+002 205849 -1.2085e+003 -8.8659e+002  4.2437e+002 159252 205745,205823,205797
 1.0000e+002 206024 -2.5318e+005 -1.4230e+006  3.7017e+005 159004 205923,205975,205949
 1.0000e+002 206001 -1.5818e+005 -2.3096e+006  5.8687e+005 159004 205897,205975,205923
 1.0000e+002 206127 -3.8139e+006 -3.2132e+006  4.5849e+003 158364 206049,206101,206075
 1.0000e+002 206328 -3.4801e+005 -9.2959e+004  2.1347e+005 157960 206178,206256,206204
 1.0000e+002 206305 -2.1597e+005 -1.3183e+005  1.6167e+005 157960 206152,206256,206178
 1.0000e+002 206282 -3.5134e+005 -1.2949e+005  2.0903e+005 157960 206204,206256,206230
 1.0000e+002 206529 -1.3544e+006 -2.9205e+006  9.1883e+005 157648 206405,206457,206431
 1.0000e+002 206506 -2.1297e+006 -8.2995e+005  7.7351e+005 157648 206379,206457,206405
 1.0000e+002 206483 -2.2071e+006 -5.9430e+005  1.0739e+006 157648 206353,206457,206379
 1.0000e+002 206730 -1.4443e+005 -5.5292e+005  2.6091e+005 157208 206554,206606,206580
 1.0000e+002 206707 -1.9097e+005 -4.1893e+005  2.5525e+005 157208 206554,206632,206606
 1.0000e+002 206684 -3.8317e+005 -5.2126e+005 -9.2517e+004 157208 206554,206658,206632
 1.0000e+002 206882 -1.1414e+003 -1.1829e+003 -7.5198e+002 157010 206755,206807,206781
 1.0000e+002 206859  2.1064e+002 -3.1365e+003  5.1095e+002 157010 206755,206833,206807
 1.0000e+002 207034 -3.8523e+004  1.5253e+005 -2.4792e+004 156620 206907,206959,206933
 1.0000e+002 207011  2.7708e+004 -6.5017e+005  1.6732e+004 156620 206907,206985,206959
 1.0000e+002 207186 -2.6906e+005 -1.6777e+006 -2.5239e+005 156330 207085,207137,207111
 1.0000e+002 207163 -7.2961e+005 -1.8992e+006 -1.5290e+006 156330 207059,207137,207085
 1.0000e+002 207387 -9.3212e+004 -7.3383e+005 -1.8886e+005 155890 207211,207289,207237
 1.0000e+002 207364 -1.1280e+006 -1.0179e+006 -6.9521e+005 155890 207211,207315,207289
 1.0000e+002 207341 -2.5941e+005 -4.7509e+005 -3.8399e+004 155890 207237,207289,207263
 1.0000e+002 207588 -6.9363e+005 -1.7342e+007  6.7683e+006 155436 207438,207490,207464
 1.0000e+002 207565 -1.2764e+006 -1.1934e+007 -8.0714e+005 155436 207412,207490,207438
 1.0000e+002 207542 -2.4141e+006 -5.3758e+006 -9.9416e+005 155436 207412,207516,207490
 1.0000e+002 207789  1.6476e+006 -2.5394e+007 -1.9148e+006 155260 207639,207691,207665
 1.0000e+002 207766 -3.3979e+006 -7.3484e+006  3.7751e+006 155260 207613,207691,207639
 1.0000e+002 207743 -1.2311e+006 -5.3024e+006 -4.2739e+004 155260 207613,207717,207691
 1.0000e+002 207990  2.7495e+001 -1.2614e+003 -3.1761e+002 154920 207840,207918,207892
 1.0000e+002 207967  5.1929e+001 -1.3689e+003 -1.8829e+003 154920 207814,207918,207840
 1.0000e+002 207944  7.4998e+001 -1.0675e+003 -4.3839e+002 154920 207840,207892,207866
 1.0000e+002 208191 -3.7784e+004 -7.9361e+005  8.4563e+004 154630 208015,208093,208041
 1.0000e+002 208168 -1.2846e+004 -8.0057e+005  4.8960e+004 154630 208015,208119,208093
 1.0000e+002 208145 -1.2340e+005 -2.1219e+005 -1.6140e+005 154630 208041,208093,208067
 1.0000e+002 208343  3.5849e+000  2.5632e-001 -9.5859e-001 154240 208216,208268,208242
 1.0000e+002 208320 -6.8543e+000 -4.9008e-001  1.8328e+000 154240 208216,208294,208268
 1.0000e+002 208495  2.8082e+005 -1.8613e+006 -1.4972e+005 153950 208394,208446,208420
 1.0000e+002 208472 -1.2745e+005 -2.9230e+005  1.2862e+005 153950 208368,208446,208394
 1.0000e+002 208647 -2.9406e+005 -2.1073e+005  5.7445e+005 153603 208520,208572,208546
 1.0000e+002 208624 -3.6454e+005 -4.0432e+005 -2.8921e+005 153603 208520,208598,208572
 1.0000e+002 208848 -1.2527e+006 -5.2042e+005  3.1710e+005 153149 208698,208776,208724
 1.0000e+002 208825 -2.3730e+006 -4.4095e+005  2.2402e+005 153149 208672,208776,208698
 1.0000e+002 208802 -7.8686e+005 -5.0973e+005  5.7694e+005 153149 208724,208776,208750
 1.0000e+002 209000 -6.6352e+004 -6.1219e+005 -1.0141e+004 152859 208873,208925,208899
 1.0000e+002 208977 -2.2629e+005 -6.9879e+005  6.9525e+004 152859 208873,208951,208925
 1.0000e+002 209152  4.1563e+004 -8.6189e+005  2.8723e+003 152569 209051,209103,209077
 1.0000e+002 209129 -9.9791e+004 -5.3672e+005  1.6913e+005 152569 209025,209103,209051
 1.0000e+002 209304  6.1818e+000  2.3345e+000  3.7989e+000 152065 209177,209229,209203
 1.0000e+002 209281 -1.4130e+001 -5.3363e+000 -8.6836e+000 152065 209177,209255,209229
 1.0000e+002 209456 -1.7241e+006 -1.0202e+006 -7.7473e+005 151775 209355,209407,209381
 1.0000e+002 209433 -1.3610e+006 -1.4084e+006 -5.8864e+005 151775 209329,209407,209355
 1.0000e+002 209608 -1.7042e+006 -1.8186e+006 -8.8894e+005 151371 209481,209533,209507
 1.0000e+002 209585  5.9571e+005 -4.2436e+006 -5.0539e+005 151371 209481,209559,209533
 1.0000e+002 209760 -6.6372e+004 -6.3805e+004 -5.2194e+004 150981 209659,209711,209685
 1.0000e+002 209737 -4.8190e+005 -3.1470e+005 -4.1111e+005 150981 209633,209711,209659
 1.0000e+002 209912  1.9726e+006 -2.6559e+007 -2.3916e+006 150619 209811,209863,209837
 1.0000e+002 209889 -2.5009e+006 -1.0773e+007  3.0322e+006 150619 209785,209863,209811
 1.0000e+002 210064 -4.3557e+005 -4.4315e+005 -6.6488e+004 150279 209937,209989,209963
 1.0000e+002 210041 -1.8680e+005 -5.2686e+005 -2.7039e+005 150279 209937,210015,209989
 1.0000e+002 210265 -2.3762e+006 -3.0514e+006 -4.2475e+005 149989 210115,210167,210141
 1.0000e+002 210242 -2.0490e+006 -4.7198e+006 -2.2655e+006 149989 210115,210193,210167
 1.0000e+002 210219 -6.0078e+005 -3.2031e+006 -1.2275e+006 149989 210089,210193,210115
 1.0000e+002 210417 -1.8977e+005 -4.2664e+005 -2.1283e+005 149599 210316,210368,210342
 1.0000e+002 210394 -7.6443e+004 -3.5857e+005 -1.6253e+005 149599 210290,210368,210316
 1.0000e+002 210618 -3.2960e+006 -1.1721e+007  3.7237e+006 149095 210468,210520,210494
 1.0000e+002 210595 -3.1154e+006 -1.1579e+007  2.7623e+006 149095 210442,210520,210468
 1.0000e+002 210572 -1.3345e+006 -1.2916e+007  2.2182e+006 149095 210442,210546,210520
 1.0000e+002 210819  9.5152e+002  5.9295e+002  3.9146e+002 148748 210695,210747,210721
 1.0000e+002 210796 -6.5818e+001 -1.7969e+003 -1.0094e+003 148748 210669,210747,210695
 1.0000e+002 210773  1.1000e+002  7.1375e+002  3.8142e+002 148748 210643,210747,210669
 1.0000e+002 210971  7.3231e+003 -1.4161e+005  3.4170e+004 148408 210870,210922,210896
 1.0000e+002 210948 -2.7879e+004 -3.1174e+004  1.4631e+004 148408 210844,210922,210870
 1.0000e+002 211123 -6.6677e+004 -5.5897e+005  1.3643e+005 148118 210996,211048,211022
 1.0000e+002 211100 -2.9141e+005 -5.8058e+005  3.0283e+005 148118 210996,211074,211048
 1.0000e+002 211275 -9.0046e+004 -3.1242e+005  1.0003e+005 147778 211148,211200,211174
 1.0000e+002 211252 -3.0221e+005 -8.0033e+005  5.2206e+005 147778 211148,211226,211200
 1.0000e+002 211427 -3.3102e+004 -1.4076e+005 -5.0769e+003 147324 211326,211378,211352
 1.0000e+002 211404 -1.0344e+005 -6.1411e+005 -3.4518e+005 147324 211300,211378,211326
 1.0000e+002 211628 -2.2227e+006 -1.4111e+006  9.5037e+005 147012 211452,211504,211478
 1.0000e+002 211605 -2.2221e+006  5.0190e+005  1.3336e+006 147012 211452,211556,211504
 1.0000e+002 211582 -2.0997e+006 -7.1495e+005  1.8978e+006 147012 211504,211556,211530
 1.0000e+002 211829 -4.2502e+005 -2.0309e+005  3.5844e+004 146636 211679,211757,211731
 1.0000e+002 211806 -3.3538e+005 -8.6261e+005 -1.2049e+005 146636 211653,211757,211679
 1.0000e+002 211783 -5.4115e+005 -1.7443e+005 -6.2193e+004 146636 211679,211731,211705
 1.0000e+002 211981 -3.1901e+002  1.2370e+002 -1.5543e+002 146246 211880,211932,211906
 1.0000e+002 211958 -1.8855e+002  1.9063e+002 -5.9761e+001 146246 211854,211932,211880
 1.0000e+002 212133 -6.3342e+003 -9.2391e+004  3.3239e+004 145956 212006,212058,212032
 1.0000e+002 212110  5.2130e+003 -3.7495e+004  1.0221e+004 145956 212006,212084,212058
 1.0000e+002 212285  1.2321e+002 -7.6164e+001  2.4357e+001 145544 212184,212236,212210
 1.0000e+002 212262  7.2615e+001  4.0130e+001 -3.5841e+001 145544 212158,212236,212184
 1.0000e+002 212486 -1.2354e+005 -1.5497e+007  3.7636e+006 144990 212362,212414,212388
 1.0000e+002 212463  3.2665e+005 -1.1979e+007  5.7201e+006 144990 212310,212414,212362
 1.0000e+002 212440 -5.9413e+006 -2.3172e+006  1.3497e+006 144990 212310,212362,212336
 1.0000e+002 212638 -4.3930e+004 -1.3497e+005  7.3766e+004 144600 212537,212589,212563
 1.0000e+002 212615 -7.0559e+004 -2.0372e+005  9.5697e+004 144600 212511,212589,212537
 1.0000e+002 212839 -1.7588e+005 -4.9023e+005  3.0775e+005 144210 212689,212741,212715
 1.0000e+002 212816 -1.9133e+005 -4.0786e+005  1.3935e+005 144210 212663,212741,212689
 1.0000e+002 212793 -2.1610e+005 -4.6077e+005  2.6829e+005 144210 212663,212767,212741
 1.0000e+002 212991 -7.4102e+000  4.1131e+002  2.0014e+002 143920 212890,212942,212916
 1.0000e+002 212968 -3.0465e+002 -7.9426e+002 -6.5849e+001 143920 212864,212942,212890
 1.0000e+002 213143 -2.9622e+002  5.7239e+002 -3.1207e+002 143480 213016,213068,213042
 1.0000e+002 213120 -2.9345e+002  9.8583e+001  1.4539e+002 143480 213016,213094,213068
 1.0000e+002 213295 -5.3516e+003 -7.3924e+004  1.9759e+004 142990 213194,213246,213220
 1.0000e+002 213272 -5.7412e+003 -7.3080e+004  2.1180e+004 142990 213168,213246,213194
 1.0000e+002 213447 -2.1515e+002 -4.6048e+002 -8.2092e+002 142600 213320,213372,213346
 1.0000e+002 213424  1.5166e+003 -6.6953e+002 -4.4876e+002 142600 213320,213398,213372
 1.0000e+002 213599 -2.6460e+004 -1.3324e+005  3.0936e+004 142260 213472,213524,213498
 1.0000e+002 213576 -6.3616e+004 -1.3339e+005  8.5816e+004 142260 213472,213550,213524
 1.0000e+002 213751 -1.0018e+005 -2.2719e+004  4.6778e+004 141870 213624,213676,213650
 1.0000e+002 213728 -1.0246e+005 -2.4267e+004  4.9620e+004 141870 213624,213702,213676
 1.0000e+002 213903 -1.4895e+006 -1.7395e+006 -1.6146e+006 141530 213776,213828,213802
 1.0000e+002 213880 -4.0204e+005 -2.0274e+006 -7.9299e+005 141530 213776,213854,213828
 1.0000e+002 214055 -5.1366e+006 -1.9518e+005  6.6213e+005 141218 213928,213980,213954
 1.0000e+002 214032 -3.0852e+006 -6.5043e+005  1.8789e+005 141218 213928,214006,213980
 1.0000e+002 214207 -1.6368e+004 -1.1801e+005  7.7777e+004 140928 214080,214132,214106
 1.0000e+002 214184 -5.3373e+003 -7.9337e+004  5.2104e+003 140928 214080,214158,214132
 1.0000e+002 214359 -9.7678e+003 -6.3326e+004  1.4616e+003 140538 214232,214284,214258
 1.0000e+002 214336 -5.2093e+004 -1.8062e+005  1.5533e+005 140538 214232,214310,214284
 1.0000e+002 214560 -1.4594e+005 -2.5467e+006  5.5088e+005 140248 214384,214462,214410
 1.0000e+002 214537  1.5269e+004 -1.8270e+006  3.7356e+005 140248 214384,214488,214462
 1.0000e+002 214514 -1.7625e+005 -1.8230e+006 -4.1132e+003 140248 214410,214462,214436
 1.0000e+002 214712 -1.2507e+004 -5.8653e+003  3.2740e+003 140000 214611,214663,214637
 1.0000e+002 214689 -1.0425e+004 -1.5373e+004  1.7559e+004 140000 214585,214663,214611
 1.0000e+002 214913 -1.9287e+005 -1.8655e+006 -4.0599e+005 139596 214737,214815,214763
 1.0000e+002 214890 -9.9349e+004 -1.0325e+006 -9.3978e+004 139596 214737,214841,214815
 1.0000e+002 214867  7.0959e+005 -6.1975e+006  7.4509e+005 139596 214763,214815,214789
 1.0000e+002 215016 -1.9276e+002 -1.8031e+002  5.2121e+002 139420 214938,214990,214964
 1.0000e+002 215168 -4.6594e+006 -9.0128e+006  6.4098e+006 139130 215067,215119,215093
 1.0000e+002 215145 -3.0739e+006 -9.9873e+006  4.8885e+006 139130 215041,215119,215067
 1.0000e+002 215320 -3.0614e+006 -4.4814e+006  3.4243e+006 138790 215219,215271,215245
 1.0000e+002 215297 -3.0145e+006 -1.0336e+007  6.5486e+006 138790 215193,215271,215219
 1.0000e+002 215472 -3.2250e+004 -2.2460e+005  8.2262e+004 138514 215345,215397,215371
 1.0000e+002 215449 -4.7795e+004 -2.4647e+005  1.0079e+005 138514 215345,215423,215397
 1.0000e+002 215624 -5.4846e+005 -8.4002e+006  2.4494e+006 138174 215497,215549,215523
 1.0000e+002 215601 -5.4908e+005 -4.5642e+006  1.5700e+006 138174 215497,215575,215549
 1.0000e+002 215776 -4.4223e+005 -1.2718e+004 -4.2331e+004 137734 215649,215701,215675
 1.0000e+002 215753 -4.9699e+005 -2.9886e+004 -2.4085e+004 137734 215649,215727,215701
 1.0000e+002 215977  1.2365e+006 -5.1154e+006 -6.1042e+005 137344 215801,215879,215827
 1.0000e+002 215954 -9.6940e+005 -8.2227e+005 -6.8521e+005 137344 215801,215905,215879
 1.0000e+002 215931 -5.3278e+005 -5.9246e+006 -4.1439e+006 137344 215827,215879,215853
 1.0000e+002 216129  4.2997e+002  7.0710e+002  3.2490e+002 136940 216028,216080,216054
 1.0000e+002 216106  9.7447e+001  2.0993e+002 -3.0030e+002 136940 216002,216080,216028
 1.0000e+002 216330 -2.0299e+006 -8.2816e+006  1.4957e+006 136600 216180,216232,216206
 1.0000e+002 216307 -3.7358e+005 -7.8069e+006  3.0301e+006 136600 216154,216232,216180
 1.0000e+002 216284 -1.0010e+006 -3.3821e+006  6.7538e+004 136600 216154,216258,216232
 1.0000e+002 216482  4.5347e+005 -5.4556e+006  1.4875e+006 136260 216381,216433,216407
 1.0000e+002 216459  3.7923e+005 -4.5795e+006  1.5256e+006 136260 216355,216433,216381
 1.0000e+002 216634 -1.5395e+004 -7.9789e+003  7.4635e+003 135970 216533,216585,216559
 1.0000e+002 216611 -1.2825e+004 -2.4158e+004  2.0135e+004 135970 216507,216585,216533
 1.0000e+002 216835 -8.3178e+004 -2.9205e+006  3.2066e+005 135608 216685,216763,216711
 1.0000e+002 216812 -1.7323e+004 -3.3211e+006 -2.7255e+005 135608 216659,216763,216685
 1.0000e+002 216789 -1.8556e+004 -6.7790e+005  6.0482e+003 135608 216711,216763,216737
 1.0000e+002 217036 -8.0390e+001  9.4574e+001  5.7334e+001 135312 216912,216964,216938
 1.0000e+002 217013 -3.1471e+001  2.4276e+002  8.7950e+001 135312 216886,216964,216912
 1.0000e+002 216990  9.5755e+001  5.6124e+001  5.1941e+001 135312 216860,216964,216886
 1.0000e+002 217237 -1.8320e+005 -9.5968e+005  3.4737e+005 134908 217061,217139,217113
 1.0000e+002 217214 -3.6991e+005 -1.0500e+006  6.8139e+005 134908 217061,217165,217139
 1.0000e+002 217191 -4.6557e+005 -1.1968e+006  5.0342e+005 134908 217061,217113,217087
 1.0000e+002 217438 -8.4856e+005 -5.9128e+006 -2.1721e+006 134568 217288,217366,217314
 1.0000e+002 217415 -1.8505e+006 -6.3263e+006 -2.4822e+006 134568 217262,217366,217288
 1.0000e+002 217392 -1.6803e+006 -8.4010e+006 -3.1815e+006 134568 217314,217366,217340
 1.0000e+002 217590 -2.3590e+004 -2.3243e+005  2.8222e+004 134106 217463,217515,217489
 1.0000e+002 217567 -4.8738e+004 -2.9428e+005  1.3475e+005 134106 217463,217541,217515
 1.0000e+002 217791  7.2358e+001  4.0411e+002  1.7100e+002 133816 217641,217693,217667
 1.0000e+002 217768 -1.7658e+006 -8.3018e+006 -3.8288e+006 133816 217641,217719,217693
 1.0000e+002 217745 -5.4236e+006 -9.4813e+005  2.2677e+006 133816 217615,217719,217641
 1.0000e+002 217992 -6.7102e+006 -3.0336e+006  4.1619e+006 133355 217842,217920,217894
 1.0000e+002 217969  4.9945e+005 -1.1457e+007  2.2864e+006 133355 217816,217920,217842
 1.0000e+002 217946 -2.6697e+006 -1.8005e+006  3.1353e+006 133355 217842,217894,217868
 1.0000e+002 218193 -3.4745e+005 -7.1795e+006  8.9983e+005 132851 218017,218095,218069
 1.0000e+002 218170 -6.5942e+006 -6.7410e+006  7.3388e+006 132851 218017,218121,218095
 1.0000e+002 218147 -1.6412e+006 -3.3076e+006 -6.9078e+005 132851 218017,218069,218043
 1.0000e+002 218345  5.1342e-002  3.7467e-003 -1.3869e-002 132511 218244,218296,218270
 1.0000e+002 218322 -6.4216e-002 -4.6862e-003  1.7347e-002 132511 218218,218296,218244
 1.0000e+002 218497  2.1459e+006 -1.4320e+007  2.3675e+006 132235 218396,218448,218422
 1.0000e+002 218474  1.7835e+006 -9.2112e+006  2.6405e+006 132235 218370,218448,218396
 1.0000e+002 218698 -2.9154e+005 -4.1489e+006 -5.0734e+005 131945 218574,218626,218600
 1.0000e+002 218675 -1.2765e+006 -7.1234e+006 -2.1692e+006 131945 218522,218626,218574
 1.0000e+002 218652 -2.0493e+006 -4.6743e+006 -2.8601e+006 131945 218522,218574,218548
 1.0000e+002 218850 -1.0674e+006 -7.3371e+006  1.9349e+006 131655 218723,218775,218749
 1.0000e+002 218827 -9.1981e+005 -1.0598e+007  1.8027e+006 131655 218723,218801,218775
 1.0000e+002 218953 -3.5450e+005  9.8042e+003  3.8857e+003 131215 218875,218927,218901
 1.0000e+002 219105 -8.7706e+004 -2.0011e+006 -2.6073e+005 130875 218978,219030,219004
 1.0000e+002 219082 -1.8447e+005 -8.1823e+005 -5.3235e+003 130875 218978,219056,219030
 1.0000e+002 219306 -2.5866e+005 -1.2060e+006  2.7987e+005 130429 219156,219234,219208
 1.0000e+002 219283 -4.5318e+005 -8.0929e+005  2.8653e+005 130429 219130,219234,219156
 1.0000e+002 219260 -1.7966e+006 -1.5791e+006  7.0658e+005 130429 219156,219208,219182
 1.0000e+002 219507 -5.3769e+005 -1.3004e+006  7.9651e+005 130025 219383,219435,219409
 1.0000e+002 219484 -5.4636e+005 -1.9678e+006  1.0404e+006 130025 219331,219435,219383
 1.0000e+002 219461 -5.2066e+005 -1.1890e+006  6.4444e+005 130025 219331,219383,219357
 1.0000e+002 219659 -6.2730e+003 -6.7269e+004  7.5459e+003 129685 219558,219610,219584
 1.0000e+002 219636  9.8665e+002 -6.5835e+004  6.2640e+003 129685 219532,219610,219558
 1.0000e+002 219860 -4.2766e+005 -9.0531e+005  6.5296e+005 129395 219710,219788,219762
 1.0000e+002 219837 -4.5418e+005 -1.3889e+006  6.1697e+005 129395 219684,219788,219710
 1.0000e+002 219814 -3.2322e+005 -1.0289e+006  5.7644e+005 129395 219710,219762,219736
 1.0000e+002 220061 -1.6976e+000 -8.0263e-001  1.1673e+000 128991 219937,219989,219963
 1.0000e+002 220038  3.7741e+000  7.1446e-001 -1.0676e+000 128991 219885,219989,219937
 1.0000e+002 220015 -3.6803e+000 -6.0776e-004  4.7294e-002 128991 219885,219937,219911
 1.0000e+002 220262  6.4024e-001  1.5292e+001 -8.0242e+000 128701 220086,220164,220112
 1.0000e+002 220239  1.3757e+000  3.2803e+000  2.1244e+000 128701 220086,220190,220164
 1.0000e+002 220216 -7.8520e+000 -7.4076e+001  2.4117e+001 128701 220112,220164,220138
 1.0000e+002 220463 -2.8494e+006 -6.3783e+006  3.4281e+006 128297 220339,220391,220365
 1.0000e+002 220440 -1.8067e+006 -1.0514e+007  2.4668e+006 128297 220313,220391,220339
 1.0000e+002 220417 -4.0668e+005 -1.2890e+007 -1.1828e+006 128297 220287,220391,220313
 1.0000e+002 220615  8.6442e+003 -5.8335e+004  1.8708e+003 128007 220488,220540,220514
 1.0000e+002 220592 -2.3883e+003 -1.2002e+005  1.2229e+004 128007 220488,220566,220540
 1.0000e+002 220767  3.3968e+004 -1.8773e+006 -3.2069e+004 127567 220640,220692,220666
 1.0000e+002 220744 -3.0114e+005 -3.6570e+005 -1.5637e+005 127567 220640,220718,220692
 1.0000e+002 220919 -5.3991e+005 -9.1698e+006 -6.0623e+005 127163 220792,220844,220818
 1.0000e+002 220896 -2.3654e+006 -1.2293e+007  3.3065e+006 127163 220792,220870,220844
 1.0000e+002 221071 -2.5297e+006 -2.4454e+006  1.5394e+006 126915 220970,221022,220996
 1.0000e+002 221048 -1.8162e+006 -2.1875e+006  1.8445e+006 126915 220944,221022,220970
 1.0000e+002 221272 -1.7707e+006 -4.4082e+006  2.6509e+006 126461 221122,221174,221148
 1.0000e+002 221249 -1.6005e+006 -4.0278e+006  3.3187e+006 126461 221122,221200,221174
 1.0000e+002 221226 -2.5208e+006 -3.9744e+006  3.1640e+006 126461 221096,221200,221122
 1.0000e+002 221375 -4.2024e+002 -9.5901e+004  1.6027e+003 126213 221297,221349,221323
 1.0000e+002 221478 -2.8237e-015  5.0289e-016 -3.4907e-015 125766 221400,221452,221426
 1.0000e+002 221679 -5.1457e-002 -2.5918e-003 -1.1548e-002 125212 221503,221555,221529
 1.0000e+002 221656  9.2510e-002  1.2584e-001  8.9472e-002 125212 221503,221581,221555
 1.0000e+002 221633 -1.8576e-001 -4.4012e-001 -2.8593e-001 125212 221503,221607,221581
 1.0000e+002 221929 -1.5873e+000 -2.2609e-001 -5.9906e-001 124872 221782,221834,221808
 1.0000e+002 221906  3.8314e+000  3.9053e-001  3.7170e-002 124872 221756,221834,221782
 1.0000e+002 221883  1.2353e+000  9.3113e-002  1.8677e+000 124872 221704,221834,221756
 1.0000e+002 221860 -3.0465e+000 -2.2122e-001 -8.2095e-001 124872 221704,221756,221730
 1.0000e+002 222130 -2.4926e+005 -2.2782e+006  5.8345e+005 124582 221980,222058,222006
 1.0000e+002 222107  9.8972e+004 -3.1119e+006  5.9378e+003 124582 221954,222058,221980
 1.0000e+002 222084 -9.6820e+005 -1.2987e+006  3.7365e+005 124582 222006,222058,222032
 1.0000e+002 222282 -2.0212e+006 -2.0161e+006 -6.7030e+005 124192 222181,222233,222207
 1.0000e+002 222259 -7.4716e+005 -2.2149e+006 -8.8108e+005 124192 222155,222233,222181
 1.0000e+002 222483  4.3025e+002 -3.9950e+002 -2.1085e+002 123702 222333,222385,222359
 1.0000e+002 222460  4.4960e+002 -1.7785e+002  1.0924e+001 123702 222333,222411,222385
 1.0000e+002 222437  1.1535e+002  3.1489e+002 -7.5287e+002 123702 222307,222411,222333
 1.0000e+002 222635 -1.6611e+003 -9.6423e+002 -1.1547e+003 123312 222508,222560,222534
 1.0000e+002 222612  3.7431e+002 -1.2055e+004  2.0492e+002 123312 222508,222586,222560
 1.0000e+002 222787 -6.5970e+000 -8.1385e-002  7.3273e-001 122858 222686,222738,222712
 1.0000e+002 222764  2.2838e+000  2.8175e-002 -2.5367e-001 122858 222660,222738,222686
 1.0000e+002 222939 -8.4099e+000 -1.3375e+002  8.9240e+000 122568 222812,222864,222838
 1.0000e+002 222916  1.3449e+001 -2.8976e+001  1.2685e+001 122568 222812,222890,222864
 1.0000e+002 223091  8.8361e+002 -4.8963e+002 -7.8898e+002 122392 222964,223016,222990
 1.0000e+002 223068  6.8481e+001 -2.0170e+003  9.3979e+002 122392 222964,223042,223016
 1.0000e+002 223292 -1.9792e+006 -1.5410e+006  1.3557e+006 121852 223142,223220,223194
 1.0000e+002 223269 -2.5487e+006 -1.2274e+006  1.4090e+006 121852 223116,223220,223142
 1.0000e+002 223246 -2.3364e+006 -1.4478e+006 -2.3794e+005 121852 223142,223194,223168
 1.0000e+002 223493 -1.6423e+006 -2.2310e+005  6.3575e+005 121406 223343,223395,223369
 1.0000e+002 223470 -1.4054e+006 -1.0426e+005  4.7854e+005 121406 223343,223421,223395
 1.0000e+002 223447 -5.6747e+005 -3.2805e+005  3.2277e+005 121406 223317,223421,223343
 1.0000e+002 223645  2.4019e+005 -1.5018e+007  3.3994e+006 121002 223544,223596,223570
 1.0000e+002 223622 -1.3129e+006 -1.2303e+007  3.1969e+006 121002 223518,223596,223544
 1.0000e+002 223846  2.3192e+000  2.9035e+000  1.9282e+000 120662 223670,223748,223696
 1.0000e+002 223823 -2.3211e+000 -7.9002e-001 -1.3541e+000 120662 223670,223774,223748
 1.0000e+002 223800 -5.9759e-001 -5.7146e+000 -1.8480e+000 120662 223696,223748,223722
 1.0000e+002 224047 -1.8978e+000 -2.0579e+000  1.9763e+000 120222 223897,223949,223923
 1.0000e+002 224024  1.1502e+000  3.3713e+000 -2.2696e-001 120222 223871,223949,223897
 1.0000e+002 224001 -6.1198e-001 -6.3828e+000 -1.9764e+000 120222 223871,223975,223949
 1.0000e+002 224248 -1.4186e+000 -1.1240e+000  1.2627e+000 119875 224124,224176,224150
 1.0000e+002 224225  1.4420e+000  3.7210e+000 -1.8299e+000 119875 224098,224176,224124
 1.0000e+002 224202 -3.3876e-001 -4.9680e+000  1.2973e+000 119875 224072,224176,224098
 1.0000e+002 224449  1.6106e+000  3.4190e-005 -7.4206e-003 119677 224325,224377,224351
 1.0000e+002 224426  1.3658e+000  1.2191e+000 -2.5361e+000 119677 224299,224377,224325
 1.0000e+002 224403 -1.4139e+001 -3.2208e+000  6.7483e+000 119677 224273,224377,224299
 1.0000e+002 224552 -1.7203e-014 -3.7804e-014 -1.4155e-014 119273 224474,224526,224500
 1.0000e+002 224704 -3.1214e+002 -2.7820e+002  9.7972e+001 118983 224603,224655,224629
 1.0000e+002 224681 -3.8259e+002  3.3603e+002  5.0025e+002 118983 224577,224655,224603
 1.0000e+002 224856  5.5932e+002  4.6738e+002  4.0381e+002 118529 224755,224807,224781
 1.0000e+002 224833  1.4420e+003 -2.6276e+002  8.7696e+002 118529 224729,224807,224755
 1.0000e+002 225008 -1.7595e+000 -3.8671e-001 -8.2486e-001 118353 224881,224933,224907
 1.0000e+002 224985  1.3334e+000  2.9306e-001  6.2511e-001 118353 224881,224959,224933
 1.0000e+002 225209 -1.1678e+006 -5.8149e+006 -2.2956e+006 117949 225059,225137,225111
 1.0000e+002 225186 -2.9495e+005 -3.1207e+006  9.5584e+005 117949 225033,225137,225059
 1.0000e+002 225163  9.5680e+005 -1.4957e+007  3.4505e+006 117949 225059,225111,225085
 1.0000e+002 225410  7.4917e+004 -8.9428e+006  1.9664e+005 117559 225260,225338,225312
 1.0000e+002 225387 -3.7597e+006 -1.0110e+007 -5.7605e+005 117559 225234,225338,225260
 1.0000e+002 225364 -7.4427e+005 -6.9977e+006 -2.2770e+006 117559 225260,225312,225286
 1.0000e+002 225611 -2.1715e+006 -1.0721e+007 -3.1266e+006 117361 225461,225513,225487
 1.0000e+002 225588 -4.0065e+006 -1.2170e+007  2.7278e+006 117361 225461,225539,225513
 1.0000e+002 225565 -2.0434e+005 -1.5994e+007  3.6591e+005 117361 225435,225539,225461
 1.0000e+002 225812  9.9664e+005 -1.2849e+007  1.2099e+006 116900 225636,225714,225662
 1.0000e+002 225789 -1.3740e+006 -3.1369e+006 -1.3063e+006 116900 225636,225740,225714
 1.0000e+002 225766 -3.6442e+004 -1.3174e+007  6.4902e+005 116900 225662,225714,225688
 1.0000e+002 225964  2.1046e+005 -9.7802e+006  5.0194e+005 116560 225837,225889,225863
 1.0000e+002 225941  5.8214e+005 -8.9349e+006  1.0920e+005 116560 225837,225915,225889
 1.0000e+002 226165 -8.6791e+001  3.4242e+002  6.5672e+002 116106 226015,226093,226041
 1.0000e+002 226142  2.3828e+002  3.7992e+002  5.0532e+002 116106 225989,226093,226015
 1.0000e+002 226119  1.5238e+002  5.5090e+002  3.0797e+002 116106 226041,226093,226067
 1.0000e+002 226268 -2.6802e+006 -5.2896e+006  2.8454e+006 115716 226190,226242,226216
 1.0000e+002 226420 -3.5781e+005 -1.3582e+007  1.9845e+006 115376 226293,226345,226319
 1.0000e+002 226397 -7.7742e+005 -1.5290e+007  5.0417e+006 115376 226293,226371,226345
 1.0000e+002 226621 -1.2304e+006 -3.2037e+006  8.1896e+005 114972 226497,226549,226523
 1.0000e+002 226598 -9.9076e+005 -1.7199e+007 -3.8892e+005 114972 226445,226549,226497
 1.0000e+002 226575  3.6433e+005 -7.5778e+006  1.1900e+006 114972 226445,226497,226471
 1.0000e+002 226773 -1.3243e+006 -6.0076e+006 -1.8942e+006 114670 226646,226698,226672
 1.0000e+002 226750  6.6771e+005 -1.1688e+007  1.6128e+006 114670 226646,226724,226698
 1.0000e+002 226974  4.2877e+004 -4.0129e+006  3.9870e+005 114082 226798,226850,226824
 1.0000e+002 226951  1.0301e+005 -3.6039e+006  2.3031e+005 114082 226798,226902,226850
 1.0000e+002 226928 -4.6825e+005 -5.9591e+006  3.7117e+005 114082 226850,226902,226876
 1.0000e+002 227175 -4.9078e+005 -7.5896e+006 -2.6335e+006 113678 226999,227051,227025
 1.0000e+002 227152 -1.1428e+006 -9.9521e+006 -3.0934e+006 113678 226999,227077,227051
 1.0000e+002 227129 -2.6345e+006 -4.3358e+006 -2.5629e+006 113678 226999,227103,227077
 1.0000e+002 227425 -3.6043e+006 -6.8924e+006 -6.5587e+006 113274 227226,227278,227252
 1.0000e+002 227402 -4.5974e+004 -6.7598e+006 -9.1218e+005 113274 227226,227330,227278
 1.0000e+002 227379 -3.4427e+006 -1.7687e+006 -3.4001e+005 113274 227200,227330,227226
 1.0000e+002 227356 -1.0472e+006 -3.4040e+005 -5.9685e+005 113274 227278,227330,227304
 1.0000e+002 227626 -2.1341e+006 -2.3691e+006 -2.7445e+006 112934 227502,227554,227528
 1.0000e+002 227603  3.6252e+005 -2.3857e+006 -6.5272e+005 112934 227450,227554,227502
 1.0000e+002 227580 -2.0167e+006 -6.5150e+005  9.1131e+005 112934 227450,227502,227476
 1.0000e+002 227876 -5.9683e+005 -1.8042e+006 -4.1208e+004 112437 227677,227755,227703
 1.0000e+002 227853 -1.2524e+006 -2.0235e+006  1.5695e+006 112437 227677,227781,227755
 1.0000e+002 227830 -5.2619e+005 -7.7477e+005  5.2169e+005 112437 227703,227755,227729
 1.0000e+002 227807  8.5232e+005 -8.7675e+006 -2.3783e+005 112437 227651,227781,227677
 1.0000e+002 228126 -2.4299e+005 -3.8718e+006 -6.2719e+005 112041 227927,228005,227953
 1.0000e+002 228103 -4.9403e+005 -3.6922e+006 -5.4389e+005 112041 227927,228031,228005
 1.0000e+002 228080  3.3276e+004 -4.8383e+006 -4.5414e+005 112041 227953,228005,227979
 1.0000e+002 228057 -1.0844e+006 -2.9744e+006 -9.4544e+005 112041 227901,228031,227927
 1.0000e+002 228327 -2.7698e+006 -2.6610e+006  2.3938e+005 111693 228151,228203,228177
 1.0000e+002 228304 -1.0030e+006 -2.5681e+006 -8.3500e+005 111693 228151,228229,228203
 1.0000e+002 228281  1.8651e+005 -4.9076e+006  8.8647e+005 111693 228151,228255,228229
 1.0000e+002 228479 -1.3047e-001 -2.2156e-004  5.3766e-003 111253 228352,228404,228378
 1.0000e+002 228456  1.0511e-001  1.7849e-004 -4.3315e-003 111253 228352,228430,228404
 1.0000e+002 228582  5.8025e-313  1.5460e-312  5.2235e-313 110906 228504,228556,228530
 1.0000e+002 228783 -8.7658e+003 -2.4337e+005 -4.0860e+004 110416 228633,228711,228659
 1.0000e+002 228760 -2.6163e+004 -3.2331e+005 -3.5818e+004 110416 228607,228711,228633
 1.0000e+002 228737  2.1669e+004 -4.3972e+005 -5.8883e+004 110416 228659,228711,228685
 1.0000e+002 228935 -7.1888e+005 -3.2117e+006 -1.9024e+006 110012 228808,228860,228834
 1.0000e+002 228912 -2.4026e+006 -6.4786e+006 -3.2024e+006 110012 228808,228886,228860
 1.0000e+002 229087 -3.0967e+006 -2.3220e+006 -2.0750e+006 109672 228960,229012,228986
 1.0000e+002 229064  4.3439e+005 -6.0516e+006 -1.4026e+006 109672 228960,229038,229012
 1.0000e+002 229190 -1.3295e-015 -9.2493e-015  3.7794e-015 109332 229112,229164,229138
 1.0000e+002 229391 -2.1227e+002 -5.3689e+002 -3.9820e+002 109156 229267,229319,229293
 1.0000e+002 229368 -2.6749e+002 -1.3597e+003 -3.1772e+002 109156 229215,229319,229267
 1.0000e+002 229345 -6.4290e+001 -7.3173e+002 -4.9171e+002 109156 229215,229267,229241
 1.0000e+002 229543  7.9361e+005 -7.0844e+006  9.1473e+005 108752 229416,229468,229442
 1.0000e+002 229520 -1.7043e+005 -3.0960e+006 -4.3652e+005 108752 229416,229494,229468
 1.0000e+002 229744 -1.3637e+005 -4.1593e+006 -4.8300e+004 108198 229594,229646,229620
 1.0000e+002 229721 -1.3931e+004 -4.1259e+006 -8.7465e+004 108198 229594,229672,229646
 1.0000e+002 229698 -5.9038e+005 -4.0029e+006 -6.8857e+004 108198 229568,229672,229594
 1.0000e+002 229847 -1.7522e+005 -7.9231e+004 -7.6840e+004 107758 229769,229821,229795
 1.0000e+002 230048 -2.9481e+005 -1.0550e+006 -3.5449e+004 107468 229898,229950,229924
 1.0000e+002 230025 -4.5153e+005 -8.2198e+005  5.0619e+005 107468 229872,229950,229898
 1.0000e+002 230002 -3.6479e+005 -7.9292e+005  4.8570e+005 107468 229872,229976,229950
 1.0000e+002 230298  9.9253e+004 -6.8942e+005  3.1024e+005 107121 230099,230203,230177
 1.0000e+002 230275 -1.9290e+005 -2.0277e+005  7.1608e+004 107121 230073,230203,230099
 1.0000e+002 230252  3.8502e+005 -9.5910e+005 -2.5660e+005 107121 230099,230177,230151
 1.0000e+002 230229 -1.5795e+005 -9.6546e+005 -3.3502e+005 107121 230099,230151,230125
 1.0000e+002 230450 -2.4378e+005 -1.6967e+004  4.9671e+004 106823 230349,230401,230375
 1.0000e+002 230427 -1.0100e+005 -1.1185e+005  6.8811e+004 106823 230323,230401,230349
 1.0000e+002 230602 -5.3496e+006 -4.0249e+006 -6.9472e+006 106533 230501,230553,230527
 1.0000e+002 230579  2.6965e+006 -1.2318e+007  2.2714e+006 106533 230475,230553,230501
 1.0000e+002 230803 -1.2041e+004 -3.1828e+005 -4.7674e+004 106029 230679,230731,230705
 1.0000e+002 230780  1.7014e+003 -2.5752e+005 -3.6285e+004 106029 230653,230731,230679
 1.0000e+002 230757 -7.8331e+003 -4.0300e+005 -5.7539e+004 106029 230627,230731,230653
 1.0000e+002 231004 -2.6224e+005 -1.4590e+006  2.8552e+005 105689 230854,230906,230880
 1.0000e+002 230981 -4.4345e+005 -1.5047e+006  2.6028e+005 105689 230828,230906,230854
 1.0000e+002 230958 -3.8052e+005 -7.3773e+005 -3.4244e+005 105689 230828,230932,230906
 1.0000e+002 231156  1.4191e+005 -5.5399e+006 -1.5329e+005 105377 231055,231107,231081
 1.0000e+002 231133 -5.7499e+005 -3.5220e+006  3.4251e+005 105377 231029,231107,231055
 1.0000e+002 231406 -9.8843e+005 -6.3845e+006 -8.9208e+005 104858 231207,231259,231233
 1.0000e+002 231383 -1.6717e+006 -5.9110e+006 -1.7360e+006 104858 231207,231311,231259
 1.0000e+002 231360 -1.1634e+006 -7.0546e+006 -2.2243e+006 104858 231259,231311,231285
 1.0000e+002 231337 -1.2144e+006 -7.0033e+006 -1.9774e+006 104858 231181,231311,231207
 1.0000e+002 231558 -2.4549e+004 -1.3045e+007 -5.7258e+005 104418 231457,231509,231483
 1.0000e+002 231535 -5.2869e+006 -1.3414e+007 -9.1095e+006 104418 231431,231509,231457
 1.0000e+002 231710 -3.6421e+006  3.5944e+004  5.6279e+005 103978 231583,231635,231609
 1.0000e+002 231687 -2.3085e+006 -7.6594e+004 -1.8624e+005 103978 231583,231661,231635
 1.0000e+002 231862 -1.0642e+006 -5.6055e+006 -9.9055e+005 103588 231761,231813,231787
 1.0000e+002 231839  2.7471e+005 -6.5227e+005 -1.4525e+005 103588 231735,231813,231761
 1.0000e+002 232014 -1.5971e+006 -5.4860e+006 -2.6903e+006 103248 231887,231939,231913
 1.0000e+002 231991 -3.1154e+006 -8.8317e+006 -4.8959e+006 103248 231887,231965,231939
 1.0000e+002 232215  5.6490e+002 -6.5111e+002 -8.5229e+001 102844 232039,232117,232065
 1.0000e+002 232192  7.8269e+002 -1.8968e+002 -3.2166e+002 102844 232039,232143,232117
 1.0000e+002 232169  1.2652e+002 -2.6704e+002 -3.4293e+002 102844 232065,232117,232091
 1.0000e+002 232416 -3.0876e+006 -6.0324e+006 -2.5598e+006 102554 232240,232318,232292
 1.0000e+002 232393  4.9832e+005 -9.9614e+006 -2.1769e+005 102554 232240,232344,232318
 1.0000e+002 232370 -4.5901e+006 -2.5876e+006  3.9794e+005 102554 232240,232292,232266
 1.0000e+002 232568 -2.7969e+003 -1.4904e+006  1.3129e+005 102100 232441,232493,232467
 1.0000e+002 232545 -7.5574e+004 -1.4849e+006  3.2242e+004 102100 232441,232519,232493
 1.0000e+002 232769 -8.8999e+004 -1.4111e+006  1.5585e+005 101596 232645,232697,232671
 1.0000e+002 232746  3.4106e+004 -9.5658e+005  9.4317e+004 101596 232593,232697,232645
 1.0000e+002 232723 -1.1827e+005 -9.7813e+005  1.7109e+005 101596 232593,232645,232619
 1.0000e+002 232921 -4.1287e+005 -3.3684e+005  7.5898e+004 101420 232794,232846,232820
 1.0000e+002 232898 -4.4938e+005 -4.4905e+005  9.9703e+004 101420 232794,232872,232846
 1.0000e+002 233073 -2.0273e+005 -1.0208e+006 -1.5666e+005 101023 232946,232998,232972
 1.0000e+002 233050  8.2140e+004 -2.2151e+006  8.5809e+005 101023 232946,233024,232998
 1.0000e+002 233225  1.5863e+000  8.5884e-001  1.1672e+000 100661 233098,233150,233124
 1.0000e+002 233202 -4.9835e+000 -2.6982e+000 -3.6669e+000 100661 233098,233176,233150
 1.0000e+002 233426 -9.5235e+005 -5.8266e+006 -2.4305e+006 100265 233276,233328,233302
 1.0000e+002 233403 -1.1712e+006 -5.4471e+006 -1.2244e+006 100265 233276,233354,233328
 1.0000e+002 233380 -1.0678e+006 -5.3036e+006 -1.1528e+006 100265 233250,233354,233276
 1.0000e+002 233578 -2.9976e+004 -1.4330e+006  1.9974e+005 100032 233451,233503,233477
 1.0000e+002 233555 -8.2596e+004 -1.4888e+006  7.7494e+004 100032 233451,233529,233503
 1.0000e+002 233681 -3.1059e+006 -2.4786e+005 -1.4803e+004 99742 233603,233655,233629
 1.0000e+002 233784 -5.8258e+005 -8.9487e+005  3.4474e+005 99402 233706,233758,233732
 1.0000e+002 233936 -6.7410e+005 -7.0483e+005  7.0041e+005 99062 233835,233887,233861
 1.0000e+002 233913 -6.7285e+005 -6.3378e+005  4.3039e+005 99062 233809,233887,233835
 1.0000e+002 234088 -8.6415e-003 -2.9702e-001  5.0663e-002 98772 233987,234039,234013
 1.0000e+002 234065  1.3069e-002  4.4920e-001 -7.6620e-002 98772 233961,234039,233987
 1.0000e+002 234240  3.3902e-001  9.0327e-003  5.5338e-002 98160 234139,234191,234165
 1.0000e+002 234217 -4.2996e-001 -1.1456e-002 -7.0181e-002 98160 234113,234191,234139
 1.0000e+002 234441 -4.9521e+003  6.5128e+002 -3.6962e+003 97820 234317,234369,234343
 1.0000e+002 234418 -5.2085e+003  3.3601e+003  6.6457e+002 97820 234291,234369,234317
 1.0000e+002 234395 -1.2608e+003 -1.5489e+003  2.4176e+003 97820 234265,234369,234291
 1.0000e+002 234593 -1.7227e+005 -8.4090e+004  1.2243e+005 97366 234466,234518,234492
 1.0000e+002 234570 -1.1834e+005 -1.2315e+005  9.5465e+004 97366 234466,234544,234518
 1.0000e+002 234794 -5.1077e+004 -5.8279e+004 -3.9896e+004 96976 234618,234670,234644
 1.0000e+002 234771 -4.0687e+004 -5.5412e+004 -4.3982e+004 96976 234618,234722,234670
 1.0000e+002 234748 -1.3509e+004 -2.2707e+004 -8.8990e+003 96976 234670,234722,234696
 1.0000e+002 234946 -1.0825e+006 -3.3799e+005  4.8368e+005 96568 234845,234897,234871
 1.0000e+002 234923 -9.7409e+005 -7.7248e+005  1.1629e+006 96568 234819,234897,234845
 1.0000e+002 235196 -4.7507e+001 -4.0407e+004 -7.2105e+003 96216 234997,235075,235049
 1.0000e+002 235173  1.6663e+003 -2.6861e+004 -1.3213e+004 96216 234997,235101,235075
 1.0000e+002 235150 -9.0043e+002 -5.9044e+004 -1.2991e+004 96216 234997,235049,235023
 1.0000e+002 235127 -7.6358e+002 -1.9412e+004  3.9824e+003 96216 234971,235101,234997
 1.0000e+002 235348 -5.3813e+005 -1.6040e+006 -7.8524e+004 95863 235247,235299,235273
 1.0000e+002 235325 -8.7594e+005 -1.3087e+006 -6.8471e+005 95863 235221,235299,235247
 1.0000e+002 235500 -7.6493e-002 -6.7444e+000 -7.1826e-001 95339 235373,235425,235399
 1.0000e+002 235477  8.5440e-002  7.5333e+000  8.0228e-001 95339 235373,235451,235425
 1.0000e+002 235701 -7.5372e+003 -4.8462e+004 -6.1473e+003 95023 235525,235577,235551
 1.0000e+002 235678 -2.3964e+004 -4.1998e+004 -1.4399e+004 95023 235525,235629,235577
 1.0000e+002 235655 -1.3667e+004 -3.4973e+004 -1.9675e+004 95023 235577,235629,235603
 1.0000e+002 235853 -3.2687e+005 -9.9237e+006 -1.0082e+006 94671 235726,235778,235752
 1.0000e+002 235830  4.0177e+005 -1.2337e+007  8.0301e+005 94671 235726,235804,235778
 1.0000e+002 236005 -2.8479e+006 -4.6271e+006  1.6408e+006 94261 235904,235956,235930
 1.0000e+002 235982 -1.4759e+006 -9.7909e+006 -3.5249e+006 94261 235878,235956,235904
 1.0000e+002 236206 -2.4299e+006 -6.9500e+005  3.1359e+005 93853 236056,236134,236082
 1.0000e+002 236183 -2.5007e+006 -7.1378e+005  2.9055e+005 93853 236030,236134,236056
 1.0000e+002 236160 -2.6326e+006 -3.5945e+005  3.2531e+005 93853 236082,236134,236108
 1.0000e+002 236407 -7.9838e+005 -1.9572e+006  1.1830e+005 93557 236257,236309,236283
 1.0000e+002 236384 -2.1749e+006 -2.7441e+006 -2.0612e+006 93557 236231,236309,236257
 1.0000e+002 236361  1.6103e+006 -1.5833e+007  2.1312e+006 93557 236231,236335,236309
 1.0000e+002 236559 -2.4425e+001 -1.0835e+000  5.1443e+000 93149 236432,236484,236458
 1.0000e+002 236536  1.3543e+001  6.0077e-001 -2.8524e+000 93149 236432,236510,236484
 1.0000e+002 236711 -7.5908e+004 -7.4206e+004  7.4789e+004 92853 236584,236636,236610
 1.0000e+002 236688 -7.8451e+004 -6.8520e+004  7.4559e+004 92853 236584,236662,236636
 1.0000e+002 236912 -2.8120e+005 -2.7869e+005  2.0285e+005 92501 236736,236788,236762
 1.0000e+002 236889 -5.9348e+005 -1.9242e+005  1.8603e+005 92501 236736,236840,236788
 1.0000e+002 236866 -1.0474e+006 -9.5253e+005  9.8906e+005 92501 236788,236840,236814
 1.0000e+002 237113 -4.4516e+004 -1.6852e+006 -1.3996e+005 92291 236963,237041,237015
 1.0000e+002 237090  6.5257e+004 -1.3549e+006 -6.7355e+004 92291 236937,237041,236963
 1.0000e+002 237067 -1.0338e+005 -1.4459e+006  3.0725e+005 92291 236963,237015,236989
 1.0000e+002 237265 -1.0059e+005 -7.8339e+004 -5.3916e+004 91871 237138,237190,237164
 1.0000e+002 237242 -4.0812e+004 -9.4254e+004  1.4222e+004 91871 237138,237216,237190
 1.0000e+002 237368 -5.5202e+005 -5.4304e+005 -2.9409e+004 91581 237290,237342,237316
 1.0000e+002 237520 -5.7721e+004 -8.8299e+004  5.9654e+004 91184 237419,237471,237445
 1.0000e+002 237497 -1.4325e+005 -6.6235e+004  8.4524e+004 91184 237393,237471,237419
 1.0000e+002 237672 -3.8237e+003 -5.6679e+003 -3.7203e+003 90894 237545,237597,237571
 1.0000e+002 237649 -6.2102e+003 -4.3639e+004  1.8236e+004 90894 237545,237623,237597
 1.0000e+002 237873 -3.0063e+005 -5.0038e+005  3.3770e+005 90490 237749,237801,237775
 1.0000e+002 237850 -2.1202e+005 -1.5239e+006  4.7671e+005 90490 237723,237801,237749
 1.0000e+002 237827 -7.4200e+005 -1.6637e+006  8.7081e+005 90490 237697,237801,237723
 1.0000e+002 238074 -1.9244e+005 -1.8612e+006 -2.3248e+005 90100 237898,237976,237950
 1.0000e+002 238051 -9.1648e+005 -2.1708e+006  3.0881e+004 90100 237898,238002,237976
 1.0000e+002 238028 -4.9399e+005 -4.4203e+005  3.7503e+004 90100 237898,237950,237924
 1.0000e+002 238275  2.4842e+003 -3.4546e+004  1.6247e+004 89696 238125,238177,238151
 1.0000e+002 238252 -1.2439e+004 -1.8394e+004 -1.6814e+004 89696 238099,238177,238125
 1.0000e+002 238229  8.5465e+002 -1.3591e+005 -1.8564e+004 89696 238099,238203,238177
 1.0000e+002 238427 -4.2450e+003 -1.0238e+002  1.3984e+003 89206 238326,238378,238352
 1.0000e+002 238404  5.8920e+003 -1.8102e+004  7.6243e+003 89206 238300,238378,238326
 1.0000e+002 238579 -3.8679e+004 -1.4810e+005  3.1010e+004 88908 238452,238504,238478
 1.0000e+002 238556 -3.2847e+004 -1.3764e+005  1.2207e+004 88908 238452,238530,238504
 1.0000e+002 238682  6.2589e-047  9.8310e-047 -3.2632e-046 88568 238604,238656,238630
 1.0000e+002 238883 -1.3358e+006 -1.9515e+006  1.5294e+006 88278 238733,238811,238785
 1.0000e+002 238860 -1.0440e+006 -2.1978e+006  1.6527e+006 88278 238707,238811,238733
 1.0000e+002 238837 -6.6632e+004 -2.1786e+006  3.8427e+005 88278 238733,238785,238759
 1.0000e+002 239035 -2.4271e+006 -9.9280e+005  4.0311e+005 87988 238908,238960,238934
 1.0000e+002 239012 -2.1786e+006 -5.0566e+005  1.7997e+005 87988 238908,238986,238960
 1.0000e+002 239138 -1.5864e+004 -4.9470e+004 -1.3540e+004 87648 239060,239112,239086
 1.0000e+002 239339 -3.0045e+006 -5.4197e+005 -8.4512e+005 87358 239163,239215,239189
 1.0000e+002 239316 -3.1933e+006 -3.4045e+005  3.7052e+005 87358 239163,239241,239215
 1.0000e+002 239293 -2.0356e+006 -5.6096e+003 -1.5211e+004 87358 239163,239267,239241
 1.0000e+002 239589 -6.8947e+002 -1.0841e+005  2.4488e+004 86961 239390,239468,239416
 1.0000e+002 239566 -1.0558e+005 -6.0812e+004  1.3793e+005 86961 239390,239494,239468
 1.0000e+002 239543 -1.6499e+004 -5.2823e+003  8.8725e+003 86961 239416,239468,239442
 1.0000e+002 239520 -2.2440e+005 -1.7209e+003  1.1935e+005 86961 239364,239494,239390
 1.0000e+002 239741 -8.1251e+005 -5.3671e+005  2.8509e+005 86621 239640,239692,239666
 1.0000e+002 239718 -4.5132e+005 -1.5535e+006 -4.2138e+005 86621 239614,239692,239640
 1.0000e+002 239893 -3.5643e+005 -1.0180e+006  5.7788e+005 86217 239792,239844,239818
 1.0000e+002 239870 -2.9018e+005 -2.5703e+006  1.1360e+006 86217 239766,239844,239792
 1.0000e+002 240045 -9.7373e+005 -2.1930e+006  1.1021e+006 85827 239918,239970,239944
 1.0000e+002 240022 -4.7067e+005 -2.0310e+006  1.5591e+005 85827 239918,239996,239970
 1.0000e+002 240197 -7.8365e+005 -2.6329e+006  7.5067e+005 85437 240096,240148,240122
 1.0000e+002 240174 -8.9778e+005 -4.7960e+005  4.5752e+005 85437 240070,240148,240096
 1.0000e+002 240349  2.8412e+003 -2.4645e+004  2.2199e+003 85147 240222,240274,240248
 1.0000e+002 240326 -9.5582e+002 -2.0188e+004 -3.6363e+003 85147 240222,240300,240274
 1.0000e+002 240501 -4.5383e+004 -2.3394e+004 -3.8794e+004 84807 240374,240426,240400
 1.0000e+002 240478 -2.6659e+004 -2.8649e+004 -3.1310e+004 84807 240374,240452,240426
 1.0000e+002 240653  1.1259e+003  1.0614e+003 -6.6903e+002 84303 240552,240604,240578
 1.0000e+002 240630  1.4243e+003 -2.3531e+002  8.0472e+002 84303 240526,240604,240552
 1.0000e+002 240854 -2.5076e+006 -6.8437e+006 -4.8553e+006 83929 240704,240756,240730
 1.0000e+002 240831 -3.4119e+005 -4.8696e+006  1.5477e+006 83929 240704,240782,240756
 1.0000e+002 240808 -3.8799e+006  1.5051e+006  1.4816e+006 83929 240678,240782,240704
 1.0000e+002 241055 -3.9086e+003 -7.0473e+003 -1.2192e+003 83539 240879,240957,240931
 1.0000e+002 241032  8.6256e+003 -2.8205e+003 -4.1115e+003 83539 240879,240983,240957
 1.0000e+002 241009  7.0012e+002  5.9059e+003 -5.5728e+003 83539 240879,240931,240905
 1.0000e+002 241207 -3.7875e+003 -1.5428e+004  1.7032e+003 83079 241106,241158,241132
 1.0000e+002 241184  1.3180e+003 -3.6830e+004  2.4388e+003 83079 241080,241158,241106
 1.0000e+002 241408 -6.3847e+005 -3.7084e+005 -5.1236e+005 82665 241232,241284,241258
 1.0000e+002 241385 -1.4845e+005  2.9172e+006 -2.6224e+006 82665 241232,241336,241284
 1.0000e+002 241362 -2.6611e+006 -1.0999e+007  4.4999e+006 82665 241284,241336,241310
 1.0000e+002 241658 -3.2671e+005 -3.0452e+006  3.0088e+005 82375 241485,241563,241511
 1.0000e+002 241635 -9.5370e+004 -2.0398e+006  3.2658e+005 82375 241433,241563,241485
 1.0000e+002 241612 -1.5547e+005 -2.3287e+006  2.9466e+005 82375 241433,241485,241459
 1.0000e+002 241589 -4.7142e+005 -3.5922e+006  4.9028e+005 82375 241511,241563,241537
 1.0000e+002 241810 -4.1182e+004 -2.9964e+003 -2.4885e+003 82035 241683,241735,241709
 1.0000e+002 241787 -2.8502e+004 -1.1914e+004  1.1550e+004 82035 241683,241761,241735
 1.0000e+002 241962 -8.0870e+005 -8.6632e+005  4.7622e+005 81695 241861,241913,241887
 1.0000e+002 241939 -7.0404e+005 -1.4107e+006 -4.7167e+005 81695 241835,241913,241861
 1.0000e+002 242114 -6.4323e+005 -2.5286e+006  1.0862e+006 81355 242013,242065,242039
 1.0000e+002 242091 -1.4840e+005 -1.1501e+006  3.9581e+005 81355 241987,242065,242013
 1.0000e+002 242266 -1.9413e+004 -5.6330e+003 -5.4208e+003 80951 242139,242191,242165
 1.0000e+002 242243 -3.4340e+004 -4.7291e+004 -5.1492e+004 80951 242139,242217,242191
 1.0000e+002 242467 -3.4557e+005 -4.0389e+006  5.9075e+005 80311 242291,242369,242343
 1.0000e+002 242444  1.4953e+005 -2.1141e+006  4.1122e+005 80311 242291,242395,242369
 1.0000e+002 242421 -2.0204e+005 -1.0004e+006  2.2486e+005 80311 242291,242343,242317
 1.0000e+002 242619 -2.0148e+006 -2.1242e+006  6.9953e+005 80021 242492,242544,242518
 1.0000e+002 242596 -2.1073e+006 -2.4088e+006  2.1210e+006 80021 242492,242570,242544
 1.0000e+002 242869 -4.9372e+004  1.7613e+004 -1.0094e+004 79631 242644,242722,242696
 1.0000e+002 242846 -5.3166e+003 -5.0947e+004  7.8938e+002 79631 242644,242774,242722
 1.0000e+002 242823  5.5659e+003 -4.0816e+003  3.2215e+002 79631 242722,242774,242748
 1.0000e+002 242800 -5.4865e+004 -7.2712e+003 -4.1154e+003 79631 242644,242696,242670
 1.0000e+002 243070  8.7158e+005 -1.5178e+007  4.4742e+006 79341 242920,242972,242946
 1.0000e+002 243047 -1.1445e+006 -4.2253e+006 -1.4337e+006 79341 242920,242998,242972
 1.0000e+002 243024 -3.3394e+005 -1.5600e+006  7.2116e+005 79341 242894,242998,242920
 1.0000e+002 243222 -3.4857e+005 -1.6343e+006  8.2159e+005 78801 243121,243173,243147
 1.0000e+002 243199 -2.2607e+005 -1.4146e+006  5.4445e+005 78801 243095,243173,243121
 1.0000e+002 243423 -6.8481e+004 -2.8258e+005 -1.6442e+004 78511 243273,243325,243299
 1.0000e+002 243400 -5.4392e+004 -1.6558e+005 -8.1557e+004 78511 243273,243351,243325
 1.0000e+002 243377  2.9539e+002 -1.4827e+005  6.9408e+003 78511 243247,243351,243273
 1.0000e+002 243624 -2.6651e+004 -1.9094e+005 -5.4086e+004 78107 243474,243552,243526
 1.0000e+002 243601 -4.4124e+004 -2.0245e+005 -8.0889e+004 78107 243448,243552,243474
 1.0000e+002 243578 -9.8663e+004 -1.5156e+005 -1.9639e+004 78107 243474,243526,243500
 1.0000e+002 243776 -5.2746e+005 -6.4633e+005 -4.2171e+005 77653 243649,243701,243675
 1.0000e+002 243753 -5.6696e+005 -1.4733e+005 -2.2702e+005 77653 243649,243727,243701
 1.0000e+002 243977 -4.6702e+005 -5.2727e+006  8.3976e+004 77093 243801,243853,243827
 1.0000e+002 243954 -1.0160e+005 -4.0405e+006  7.0906e+005 77093 243801,243879,243853
 1.0000e+002 243931 -3.2141e+005 -1.4190e+006 -1.3063e+005 77093 243801,243905,243879
 1.0000e+002 244080 -4.0918e+005 -4.1056e+006  2.7490e+005 76791 244002,244054,244028
 1.0000e+002 244232 -9.5365e+003 -2.1985e+005 -3.0474e+004 76311 244131,244183,244157
 1.0000e+002 244209  2.8417e+004 -4.4650e+004 -8.4331e+003 76311 244105,244183,244131
 1.0000e+002 244433  1.1868e+006 -1.5794e+007  4.9653e+006 75903 244283,244335,244309
 1.0000e+002 244410 -1.7006e+004 -8.8028e+006 -1.0832e+006 75903 244283,244361,244335
 1.0000e+002 244387 -1.1760e+006 -3.8557e+006  1.9887e+006 75903 244257,244361,244283
 1.0000e+002 244585  3.3695e+005 -1.5839e+007  2.4889e+006 75419 244458,244510,244484
 1.0000e+002 244562 -1.1753e+006 -3.5775e+006 -9.8087e+005 75419 244458,244536,244510
 1.0000e+002 244737 -3.6978e+005 -4.1299e+005 -1.7153e+005 75215 244636,244688,244662
 1.0000e+002 244714 -3.0748e+005 -1.5830e+006 -1.6373e+005 75215 244610,244688,244636
 1.0000e+002 244889 -9.7713e+005 -3.4046e+006 -7.4866e+005 74857 244788,244840,244814
 1.0000e+002 244866 -4.2125e+005 -1.5026e+006 -2.3759e+005 74857 244762,244840,244788
 1.0000e+002 245041 -7.5778e+005 -3.2735e+006 -1.6450e+006 74653 244940,244992,244966
 1.0000e+002 245018 -8.2620e+005 -1.1415e+006  1.1099e+006 74653 244914,244992,244940
 1.0000e+002 245144 -7.7408e+005 -4.0630e+006 -1.0249e+006 74359 245066,245118,245092
 1.0000e+002 245296  1.6376e+004  4.1419e+003 -7.2948e+003 74007 245169,245221,245195
 1.0000e+002 245273  2.9614e+004 -3.6682e+003  2.0349e+003 74007 245169,245247,245221
 1.0000e+002 245448 -3.3224e+006 -4.8625e+006 -1.4548e+006 73711 245321,245373,245347
 1.0000e+002 245425 -2.3329e+006 -4.6272e+006 -1.0946e+006 73711 245321,245399,245373
 1.0000e+002 245600  2.5672e+006 -1.4698e+007 -2.6709e+006 73301 245499,245551,245525
 1.0000e+002 245577 -1.9377e+006 -6.4765e+006  3.2260e+006 73301 245473,245551,245499
 1.0000e+002 245752 -3.2950e+006 -5.4863e+006 -3.1627e+006 72995 245625,245677,245651
 1.0000e+002 245729  1.2076e+006 -1.9150e+007 -2.3264e+006 72995 245625,245703,245677
 1.0000e+002 245953 -8.0015e+005 -1.5515e+007  1.1121e+006 72585 245777,245829,245803
 1.0000e+002 245930 -1.7168e+005 -1.2719e+007  1.2661e+006 72585 245777,245855,245829
 1.0000e+002 245907 -7.3069e+005 -1.0661e+007  6.3396e+005 72585 245777,245881,245855
 1.0000e+002 246154 -9.2498e+005 -7.2438e+006  1.9176e+006 72127 246030,246082,246056
 1.0000e+002 246131 -1.2620e+006 -6.8370e+006  9.3794e+005 72127 245978,246082,246030
 1.0000e+002 246108 -4.5310e+005 -1.1499e+007  1.1132e+006 72127 245978,246030,246004
 1.0000e+002 246257 -1.2413e+006 -1.4312e+005 -1.7844e+005 71737 246179,246231,246205
 1.0000e+002 246360  2.5267e+004 -2.3799e+006  4.7303e+005 71447 246282,246334,246308
 1.0000e+002 246512 -2.5047e+005 -1.3203e+006  7.9545e+005 71157 246385,246437,246411
 1.0000e+002 246489 -5.5054e+004 -8.5258e+005 -2.2052e+004 71157 246385,246463,246437
 1.0000e+002 246664 -1.5411e+005 -2.1180e+006 -7.0688e+005 70753 246537,246589,246563
 1.0000e+002 246641 -7.8665e+005 -5.3757e+005 -4.4003e+005 70753 246537,246615,246589
 1.0000e+002 246865 -1.1298e+006 -7.0191e+006  2.5620e+006 70249 246715,246767,246741
 1.0000e+002 246842 -4.3932e+006 -7.6513e+006 -1.3086e+004 70249 246715,246793,246767
 1.0000e+002 246819  1.9123e+005 -1.7456e+007 -5.2047e+006 70249 246689,246793,246715
 1.0000e+002 247066  6.5266e+004 -1.6358e+006 -1.1527e+003 70023 246916,246994,246942
 1.0000e+002 247043 -2.1700e+005 -8.2372e+005  3.3691e+005 70023 246890,246994,246916
 1.0000e+002 247020  9.5968e+004 -1.7669e+006  2.4318e+005 70023 246942,246994,246968
 1.0000e+002 247267 -4.8773e+005 -3.0409e+006 -8.4547e+005 69633 247091,247143,247117
 1.0000e+002 247244 -2.0575e+005 -2.7101e+006 -6.1053e+005 69633 247091,247169,247143
 1.0000e+002 247221 -2.0174e+005 -1.9212e+006 -4.7473e+005 69633 247091,247195,247169
 1.0000e+002 247419 -1.1355e+006 -3.4033e+006  2.2165e+005 69457 247318,247370,247344
 1.0000e+002 247396 -1.0177e+006 -9.8459e+005  5.8889e+005 69457 247292,247370,247318
 1.0000e+002 247522 -2.4100e+002 -3.7598e+002 -3.1392e+002 69209 247444,247496,247470
 1.0000e+002 247625 -1.1501e+006 -8.2789e+005 -3.3101e+005 68919 247547,247599,247573
 1.0000e+002 247777  1.1347e+005 -3.2898e+006 -1.7684e+005 68579 247650,247702,247676
 1.0000e+002 247754 -1.5305e+004 -7.1246e+005 -1.6980e+005 68579 247650,247728,247702
 1.0000e+002 247929 -2.9560e+005 -4.8758e+006  2.9780e+005 68289 247802,247854,247828
 1.0000e+002 247906 -8.9844e+005 -2.9446e+006 -1.4521e+006 68289 247802,247880,247854
 1.0000e+002 248081 -2.7187e+005 -2.5555e+006  9.3296e+005 67949 247980,248032,248006
 1.0000e+002 248058 -3.0273e+005 -3.3828e+005  9.1646e+004 67949 247954,248032,247980
 1.0000e+002 248233 -1.1424e+006 -4.5481e+006 -7.9998e+005 67616 248132,248184,248158
 1.0000e+002 248210 -8.1318e+005 -2.6401e+006 -2.1468e+005 67616 248106,248184,248132
 1.0000e+002 248434 -7.4801e+004 -2.1902e+006 -1.3371e+005 67212 248284,248336,248310
 1.0000e+002 248411 -9.4567e+004 -2.1719e+006 -5.9974e+004 67212 248258,248336,248284
 1.0000e+002 248388 -5.8307e+005 -7.2620e+005 -4.3265e+005 67212 248258,248362,248336
 1.0000e+002 248586 -2.1085e+005 -3.2370e+006  1.4366e+005 66872 248485,248537,248511
 1.0000e+002 248563 -3.1669e+005 -1.0317e+006 -2.0174e+005 66872 248459,248537,248485
 1.0000e+002 248738 -5.7039e+005 -4.8039e+006  2.4817e+005 66510 248637,248689,248663
 1.0000e+002 248715 -7.3198e+005 -2.6828e+006 -1.1810e+004 66510 248611,248689,248637
 1.0000e+002 248890 -4.7573e+005 -9.6147e+005  4.3699e+005 66220 248789,248841,248815
 1.0000e+002 248867 -8.3248e+005 -1.2746e+006 -1.7005e+004 66220 248763,248841,248789
 1.0000e+002 249091 -7.4085e+005 -4.2992e+006  1.1572e+006 65759 248915,248967,248941
 1.0000e+002 249068 -6.4767e+005 -2.8907e+006  1.3206e+006 65759 248915,248993,248967
 1.0000e+002 249045 -2.7452e+005 -2.1054e+006  2.2892e+005 65759 248915,249019,248993
 1.0000e+002 249243 -2.0530e+005 -5.4430e+006  1.0382e+006 65419 249142,249194,249168
 1.0000e+002 249220  1.0025e+005 -5.4008e+005  6.6745e+004 65419 249116,249194,249142
 1.0000e+002 249395 -1.4698e+005 -2.6726e+006 -6.6501e+005 65079 249268,249320,249294
 1.0000e+002 249372 -3.0491e+005 -2.9522e+006 -5.0191e+005 65079 249268,249346,249320
 1.0000e+002 249547 -1.7004e+006 -9.3629e+006  2.1513e+006 64739 249420,249472,249446
 1.0000e+002 249524 -1.1363e+006 -6.7802e+006 -3.3556e+006 64739 249420,249498,249472
 1.0000e+002 249650 -9.5680e+005 -5.8156e+006 -2.1461e+006 64342 249572,249624,249598
 1.0000e+002 249851 -1.0370e+004 -4.1240e+006 -2.0334e+005 63938 249701,249779,249753
 1.0000e+002 249828 -5.0950e+004 -4.2289e+006  3.6320e+005 63938 249675,249779,249701
 1.0000e+002 249805 -3.1838e+005 -1.4605e+006 -1.8589e+005 63938 249701,249753,249727
 1.0000e+002 250052 -2.3041e+005 -4.7342e+005 -1.4396e+006 63341 249876,249954,249902
 1.0000e+002 250029 -1.2178e+006 -1.1282e+006 -4.7195e+005 63341 249876,249980,249954
 1.0000e+002 250006  1.1762e+006 -3.5598e+006  1.1809e+006 63341 249902,249954,249928
 1.0000e+002 250253 -6.6865e+005 -5.7018e+005 -1.9207e+004 63058 250077,250129,250103
 1.0000e+002 250230 -2.5312e+006 -3.5493e+006  1.4573e+006 63058 250077,250155,250129
 1.0000e+002 250207 -4.6537e+005 -2.5576e+006  4.6018e+005 63058 250077,250181,250155
 1.0000e+002 250454 -3.1815e+005 -3.5484e+006 -1.2697e+004 62832 250304,250382,250330
 1.0000e+002 250431 -1.2237e+005 -4.1928e+006 -1.2033e+006 62832 250278,250382,250304
 1.0000e+002 250408 -5.1214e+005 -3.1565e+006 -1.6309e+005 62832 250330,250382,250356
 1.0000e+002 250606 -1.2814e+006 -2.3559e+006 -1.1603e+006 62428 250479,250531,250505
 1.0000e+002 250583 -8.9396e+005 -6.6829e+006 -1.4549e+006 62428 250479,250557,250531
 1.0000e+002 250758 -1.9955e+005 -5.1306e+006  8.3139e+005 62202 250631,250683,250657
 1.0000e+002 250735 -6.0693e+005 -3.9621e+006 -1.0233e+006 62202 250631,250709,250683
 1.0000e+002 250861  1.3838e+005 -4.2589e+005 -1.2591e+005 61954 250783,250835,250809
 1.0000e+002 251062 -2.2909e+006 -2.8043e+006 -6.8651e+003 61557 250912,250990,250938
 1.0000e+002 251039 -6.9091e+005 -6.5137e+006 -2.3173e+006 61557 250886,250990,250912
 1.0000e+002 251016 -2.7305e+006 -4.5383e+006 -3.4358e+006 61557 250938,250990,250964
 1.0000e+002 251263 -2.0538e+005 -3.6686e+006  1.1103e+005 61167 251113,251165,251139
 1.0000e+002 251240 -5.8218e+005 -2.3866e+006  8.6205e+004 61167 251113,251191,251165
 1.0000e+002 251217 -1.0180e+006 -2.6015e+006 -4.9370e+005 61167 251087,251191,251113
 1.0000e+002 251415 -1.0981e+006 -1.5036e+006  1.1131e+006 60827 251288,251340,251314
 1.0000e+002 251392 -1.3263e+005 -3.1474e+005  3.5565e+004 60827 251288,251366,251340
 1.0000e+002 251567 -3.2138e+005 -1.6888e+006 -4.6847e+005 60487 251466,251518,251492
 1.0000e+002 251544 -2.4910e+005 -1.3349e+006 -4.7091e+005 60487 251440,251518,251466
 1.0000e+002 251719 -3.0337e+004 -3.8924e+006  1.9414e+005 59983 251592,251644,251618
 1.0000e+002 251696 -2.3275e+005 -1.0063e+006 -1.0715e+005 59983 251592,251670,251644
 1.0000e+002 251920 -1.4554e+005 -1.0279e+006 -4.7281e+004 59807 251770,251848,251796
 1.0000e+002 251897 -7.1444e+004 -4.1966e+005 -1.0109e+005 59807 251744,251848,251770
 1.0000e+002 251874 -3.9508e+004 -4.6742e+005  1.0976e+004 59807 251796,251848,251822
 1.0000e+002 252023  3.6519e+005 -3.1156e+006 -4.0250e+005 59517 251945,251997,251971
 1.0000e+002 252175  7.8469e+005 -6.5650e+006 -8.5850e+004 59269 252074,252126,252100
 1.0000e+002 252152  1.8930e+004 -4.8664e+006 -1.3481e+004 59269 252048,252126,252074
 1.0000e+002 252278 -1.2283e+006 -2.2835e+006  2.5252e+005 58979 252200,252252,252226
 1.0000e+002 252381 -2.8709e+006 -1.2302e+006  6.3398e+005 58689 252303,252355,252329
 1.0000e+002 252533 -9.4794e+005 -2.3205e+006 -9.1267e+005 58249 252432,252484,252458
 1.0000e+002 252510 -9.5272e+005 -2.9840e+006 -1.3440e+006 58249 252406,252484,252432
 1.0000e+002 252734 -5.8094e+004 -2.1017e+006 -6.3322e+005 57902 252584,252662,252610
 1.0000e+002 252711 -2.4278e+005 -7.3750e+005  1.3595e+004 57902 252558,252662,252584
 1.0000e+002 252688 -1.5431e+005 -2.5405e+006 -6.1130e+005 57902 252610,252662,252636
 1.0000e+002 252886  2.4959e+005 -5.7912e+006 -5.3022e+005 57540 252785,252837,252811
 1.0000e+002 252863 -2.6531e+004 -2.8179e+006  2.7240e+005 57540 252759,252837,252785
 1.0000e+002 253038 -8.4719e+005 -5.6262e+006  1.8324e+006 57086 252937,252989,252963
 1.0000e+002 253015 -3.0586e+005 -5.5270e+005  2.3906e+005 57086 252911,252989,252937
 1.0000e+002 253239 -4.2634e+005 -4.2593e+006 -3.6328e+005 56796 253063,253141,253115
 1.0000e+002 253216 -1.4735e+005 -4.1646e+006 -4.7598e+005 56796 253063,253167,253141
 1.0000e+002 253193 -4.5598e+006 -2.1153e+005  1.9774e+004 56796 253063,253115,253089
 1.0000e+002 253342 -5.7324e+005 -8.5800e+006 -1.3722e+005 56349 253264,253316,253290
 1.0000e+002 253543 -3.1068e+005 -3.5277e+006 -1.5898e+006 56009 253367,253419,253393
 1.0000e+002 253520 -6.8864e+005 -9.9965e+005 -8.2088e+005 56009 253367,253445,253419
 1.0000e+002 253497 -4.3406e+005 -1.2710e+006 -6.9952e+005 56009 253367,253471,253445
 1.0000e+002 253695 -6.3122e+005 -8.5995e+005  5.8525e+005 55733 253594,253646,253620
 1.0000e+002 253672 -8.2377e+005 -4.2805e+005  5.7740e+005 55733 253568,253646,253594
 1.0000e+002 253798 -1.0038e+006 -7.9893e+005 -4.1769e+005 55557 253720,253772,253746
 1.0000e+002 253950 -5.0385e+005 -1.6897e+006 -9.1475e+004 55153 253849,253901,253875
 1.0000e+002 253927 -4.1820e+005 -2.0627e+006 -4.9530e+005 55153 253823,253901,253849
 1.0000e+002 254151 -9.4290e+005 -2.7007e+006 -6.1149e+003 54863 253975,254053,254001
 1.0000e+002 254128 -1.1164e+006 -2.1516e+006  2.9667e+005 54863 253975,254079,254053
 1.0000e+002 254105 -1.2489e+006 -6.0227e+006  1.5741e+006 54863 254001,254053,254027
 1.0000e+002 254303 -2.2317e+005 -3.9537e+005  2.6393e+005 54373 254176,254228,254202
 1.0000e+002 254280 -2.4114e+005 -4.3938e+005  2.7903e+005 54373 254176,254254,254228
 1.0000e+002 254455 -3.2844e+005 -3.9636e+006 -4.4953e+005 53975 254354,254406,254380
 1.0000e+002 254432 -4.7184e+005 -8.2195e+005  1.0247e+005 53975 254328,254406,254354
 1.0000e+002 254607  3.4324e+003 -5.0503e+006  2.4983e+005 53585 254480,254532,254506
 1.0000e+002 254584 -6.0240e+005 -3.4882e+006  1.9251e+005 53585 254480,254558,254532
 1.0000e+002 254808 -5.0751e+005 -3.3092e+006  7.4884e+003 53245 254658,254736,254684
 1.0000e+002 254785 -7.8319e+005 -8.6378e+005 -6.4026e+005 53245 254632,254736,254658
 1.0000e+002 254762 -1.3686e+005 -8.5517e+005  1.7367e+005 53245 254684,254736,254710
 1.0000e+002 254911 -8.2405e+004 -9.2213e+005 -1.7462e+005 52955 254833,254885,254859
 1.0000e+002 255063 -3.6714e+005 -6.5841e+006  1.7691e+005 52551 254962,255014,254988
 1.0000e+002 255040 -5.7113e+005 -6.5235e+006  1.6440e+005 52551 254936,255014,254962
 1.0000e+002 255264 -7.5887e+005 -5.9008e+005 -3.7149e+005 52261 255114,255166,255140
 1.0000e+002 255241 -8.9758e+005 -1.1368e+006 -1.4747e+005 52261 255114,255192,255166
 1.0000e+002 255218 -3.6197e+006 -8.9963e+005  3.7878e+004 52261 255088,255192,255114
 1.0000e+002 255416 -1.0763e+006 -5.2080e+006  2.1427e+006 51971 255289,255341,255315
 1.0000e+002 255393 -2.0712e+005 -4.4804e+006 -3.2323e+005 51971 255289,255367,255341
 1.0000e+002 255568 -1.1577e+005 -8.3472e+005 -4.0804e+005 51681 255441,255493,255467
 1.0000e+002 255545 -2.4668e+005 -6.8131e+005 -4.1096e+005 51681 255441,255519,255493
 1.0000e+002 255769 -3.2933e+005 -1.9941e+006  1.2742e+005 51291 255619,255697,255671
 1.0000e+002 255746 -3.1707e+005 -1.7076e+006 -1.9953e+005 51291 255593,255697,255619
 1.0000e+002 255723 -3.0568e+005 -6.0124e+006 -7.9038e+005 51291 255619,255671,255645
 1.0000e+002 255921 -9.2670e+005 -2.3381e+006  6.0073e+005 50951 255820,255872,255846
 1.0000e+002 255898 -4.0353e+005 -5.5587e+005 -7.0806e+004 50951 255794,255872,255820
 1.0000e+002 256171 -3.7391e+005 -6.1085e+006  1.1196e+006 50547 256024,256076,256050
 1.0000e+002 256148 -7.2622e+005 -4.0054e+006  7.7906e+003 50547 255972,256076,256024
 1.0000e+002 256125 -3.6626e+005 -3.1452e+006  6.3516e+005 50547 255946,256076,255972
 1.0000e+002 256102 -7.6689e+005 -6.1678e+006  7.3004e+005 50547 255972,256024,255998
 1.0000e+002 256323  3.6462e+004 -3.8422e+006  5.0159e+005 50093 256196,256248,256222
 1.0000e+002 256300 -9.2870e+005 -2.3748e+006 -6.6914e+005 50093 256196,256274,256248
 1.0000e+002 256426 -5.7332e+002  2.5198e+002  3.0782e+002 49845 256348,256400,256374
 1.0000e+002 256627  1.5929e+005 -5.9961e+006  7.1086e+004 49555 256477,256555,256503
 1.0000e+002 256604  3.9863e+004 -2.0276e+006  2.5854e+005 49555 256451,256555,256477
 1.0000e+002 256581 -3.5734e+005 -5.2068e+006  3.6506e+005 49555 256503,256555,256529
 1.0000e+002 256828 -6.4012e+005 -2.3265e+006 -3.6111e+005 49056 256652,256730,256678
 1.0000e+002 256805 -5.7431e+005 -2.0364e+006 -4.1788e+005 49056 256652,256756,256730
 1.0000e+002 256782 -5.0444e+005 -2.9588e+006  1.1070e+005 49056 256678,256730,256704
 1.0000e+002 256931 -6.3316e+004 -1.4659e+005  3.7606e+004 48766 256853,256905,256879
 1.0000e+002 257083 -1.5473e+006 -5.2064e+006 -7.3680e+005 48568 256982,257034,257008
 1.0000e+002 257060 -6.0191e+005 -1.4207e+006 -5.9329e+005 48568 256956,257034,256982
 1.0000e+002 257186  5.0179e+003 -3.3962e+006 -3.1427e+003 48228 257108,257160,257134
 1.0000e+002 257338 -9.5039e+005 -2.4252e+005  1.6270e+005 47888 257237,257289,257263
 1.0000e+002 257315 -4.5984e+005 -1.5810e+006  8.9611e+005 47888 257211,257289,257237
 1.0000e+002 257539 -5.2015e+005 -3.2541e+006  1.7785e+005 47548 257363,257441,257415
 1.0000e+002 257516 -6.3831e+005 -2.9968e+006 -2.5574e+005 47548 257363,257467,257441
 1.0000e+002 257493 -8.1434e+005 -2.5089e+006  2.2422e+004 47548 257363,257415,257389
 1.0000e+002 257740  1.7951e+005 -6.5578e+006  6.2774e+005 46994 257564,257642,257616
 1.0000e+002 257717 -4.5419e+005 -3.7673e+006 -4.5929e+005 46994 257564,257668,257642
 1.0000e+002 257694 -1.0399e+006 -6.3724e+006 -3.9728e+005 46994 257564,257616,257590
 1.0000e+002 257843 -1.1622e+005 -4.6535e+005 -1.0439e+005 46654 257765,257817,257791
 1.0000e+002 257995 -4.9439e+005 -3.0275e+006  3.3700e+005 46364 257894,257946,257920
 1.0000e+002 257972 -7.3823e+005 -2.8650e+006  4.0437e+005 46364 257868,257946,257894
 1.0000e+002 258147  3.1891e+004 -3.7774e+006  8.7084e+004 46024 258046,258098,258072
 1.0000e+002 258124 -4.7891e+005 -2.3500e+006  5.4589e+005 46024 258020,258098,258046
 1.0000e+002 258250 -8.0532e+005 -8.1168e+005  6.7151e+005 45741 258172,258224,258198
 1.0000e+002 258402 -5.7069e+005 -1.6573e+006  2.8956e+005 45401 258301,258353,258327
 1.0000e+002 258379 -3.6320e+005 -1.2427e+006  4.6514e+005 45401 258275,258353,258301
 1.0000e+002 258603 -5.7933e+005 -1.8418e+006  1.0038e+005 45071 258427,258505,258479
 1.0000e+002 258580 -3.8032e+005 -3.9295e+006  3.8428e+005 45071 258427,258531,258505
 1.0000e+002 258557 -3.5294e+005 -2.4862e+006  1.9076e+005 45071 258427,258479,258453
 1.0000e+002 258755 -1.6280e+005 -4.8421e+006 -3.1199e+005 44681 258654,258706,258680
 1.0000e+002 258732 -5.0355e+005 -2.8293e+006 -3.3873e+005 44681 258628,258706,258654
 1.0000e+002 258907 -5.4901e+005 -1.9745e+006 -6.3096e+004 44157 258806,258858,258832
 1.0000e+002 258884 -4.4259e+005 -1.7563e+006  3.1647e+004 44157 258780,258858,258806
 1.0000e+002 259010 -6.2838e+005 -1.4910e+006 -4.5824e+003 43705 258932,258984,258958
 1.0000e+002 259113 -7.0832e+005 -1.1502e+006 -7.1753e+004 43284 259035,259087,259061
 1.0000e+002 259216 -4.3872e+005 -3.9644e+006 -1.0070e+005 42954 259138,259190,259164
 1.0000e+002 259319 -4.7804e+005 -1.6178e+006 -8.6691e+004 42116 259241,259293,259267
 1.0000e+002 259422 -3.2757e+005 -3.4139e+006  6.7717e+004 41804 259344,259396,259370
 1.0000e+002 259525 -6.4085e+005 -7.1046e+006  1.1660e+006 41219 259447,259499,259473
 1.0000e+002 259628 -4.4098e+005 -3.7103e+006 -5.8397e+005 385 259550,259602,259576
 1.2000e+001 190120 -1.2550e+006 -3.0059e+006  1.8247e+005 189630 189993,190045,190019
 1.2000e+001 190097 -5.3477e+005 -3.0644e+006  2.9814e+005 189630 189993,190071,190045
 1.2000e+001 190319 -7.3749e+005 -5.3559e+006  1.6543e+005 189312 190169,190221,190195
 1.2000e+001 190296 -7.0160e+005 -4.7007e+006 -4.5561e+005 189312 190169,190247,190221
 1.2000e+001 190273 -7.3390e+005 -4.4902e+006 -5.7042e+004 189312 190143,190247,190169
 1.2000e+001 190518 -2.9564e+005 -4.2924e+006 -5.2699e+005 189124 190368,190446,190420
 1.2000e+001 190495 -1.0850e+006 -3.4563e+006  1.1137e+005 189124 190342,190446,190368
 1.2000e+001 190472 -1.3607e+006 -4.2573e+006 -1.4973e+006 189124 190368,190420,190394
 1.2000e+001 190619 -4.8486e+005 -5.2238e+005 -3.2667e+004 188926 190541,190593,190567
 1.2000e+001 190771 -8.6587e+005 -5.0026e+006 -3.7295e+005 188614 190670,190722,190696
 1.2000e+001 190748 -4.0234e+005 -4.4610e+006 -7.3301e+004 188614 190644,190722,190670
 1.2000e+001 190972 -2.3842e+005 -4.2198e+006 -1.2848e+004 188324 190848,190900,190874
 1.2000e+001 190949 -3.0771e+005 -4.2256e+006 -2.2713e+004 188324 190796,190900,190848
 1.2000e+001 190926 -7.0042e+005 -5.2707e+006 -3.4818e+005 188324 190796,190848,190822
 1.2000e+001 191124 -2.7027e+005 -2.9698e+006 -1.2644e+005 188034 191023,191075,191049
 1.2000e+001 191101 -5.4804e+005 -2.7145e+006 -2.6250e+005 188034 190997,191075,191023
 1.2000e+001 191276 -2.0469e+005 -2.9908e+006 -1.0038e+005 187836 191149,191201,191175
 1.2000e+001 191253 -4.3165e+005 -2.4817e+006  1.6171e+005 187836 191149,191227,191201
 1.2000e+001 191379 -3.7645e+005 -1.7490e+006 -1.3622e+005 187546 191301,191353,191327
 1.2000e+001 191531 -9.8510e+003 -6.8319e+006 -1.7854e+006 187256 191430,191482,191456
 1.2000e+001 191508 -5.2544e+005 -5.4850e+006  1.6077e+005 187256 191404,191482,191430
 1.2000e+001 191634 -2.9865e+005 -4.0898e+006 -4.6222e+005 187058 191556,191608,191582
 1.2000e+001 191835 -4.3256e+005 -3.4508e+006  2.5619e+005 186860 191659,191711,191685
 1.2000e+001 191812 -3.4784e+005 -4.1062e+006  1.1429e+005 186860 191659,191737,191711
 1.2000e+001 191789  3.6652e+004 -2.3368e+006  1.7617e+005 186860 191659,191763,191737
 1.2000e+001 191987 -4.8198e+005 -2.6474e+006 -5.5514e+005 186662 191886,191938,191912
 1.2000e+001 191964 -3.2745e+005 -3.0639e+006 -2.6330e+005 186662 191860,191938,191886
 1.2000e+001 192090 -7.1712e+005 -2.1750e+006 -1.6950e+005 186486 192012,192064,192038
 1.2000e+001 192242 -5.0404e+005 -6.3533e+006  3.0704e+003 186288 192115,192167,192141
 1.2000e+001 192219 -4.6919e+005 -5.5614e+006  2.0827e+005 186288 192115,192193,192167
 1.2000e+001 192394 -1.1587e+005 -5.5598e+006 -2.9711e+005 185935 192293,192345,192319
 1.2000e+001 192371 -4.2139e+005 -4.6861e+006 -4.8948e+005 185935 192267,192345,192293
 1.2000e+001 192546 -4.6443e+005 -2.9470e+006 -1.3150e+005 185675 192419,192471,192445
 1.2000e+001 192523 -1.3460e+005 -3.0558e+006  2.7433e+004 185675 192419,192497,192471
 1.2000e+001 192649 -3.8932e+005 -2.2314e+006 -9.5486e+004 185499 192571,192623,192597
 1.2000e+001 192801 -1.3289e+006 -2.2840e+006 -5.0353e+005 185301 192674,192726,192700
 1.2000e+001 192778 -5.9553e+005 -2.3108e+006  1.1831e+005 185301 192674,192752,192726
 1.2000e+001 193002 -1.5049e+005 -2.8689e+006 -5.2008e+005 185046 192852,192930,192878
 1.2000e+001 192979 -4.3536e+005 -3.9624e+006 -4.3314e+005 185046 192826,192930,192852
 1.2000e+001 192956  3.7236e+005 -4.8757e+006  9.1386e+004 185046 192878,192930,192904
 1.2000e+001 193203 -1.6769e+006 -3.9942e+006 -4.3880e+005 184798 193079,193131,193105
 1.2000e+001 193180 -1.4090e+005 -5.8876e+006 -1.2134e+006 184798 193027,193131,193079
 1.2000e+001 193157 -3.0807e+005 -6.0898e+006  9.3040e+005 184798 193027,193079,193053
 1.2000e+001 193404 -1.4136e+005 -4.5795e+006 -5.8180e+005 184600 193254,193306,193280
 1.2000e+001 193381 -6.2822e+005 -4.4368e+006  7.3668e+004 184600 193254,193332,193306
 1.2000e+001 193358 -9.6742e+005 -3.3437e+006 -1.4906e+005 184600 193228,193332,193254
 1.2000e+001 193556  2.5524e+005 -4.8409e+006  9.2938e+004 184402 193429,193481,193455
 1.2000e+001 193533 -2.8831e+005 -3.8426e+006 -6.5252e+005 184402 193429,193507,193481
 1.2000e+001 193708 -8.7151e+005 -4.5645e+006 -2.2259e+005 184204 193607,193659,193633
 1.2000e+001 193685 -9.7752e+005 -6.1271e+006 -6.4138e+005 184204 193581,193659,193607
 1.2000e+001 193860 -4.5868e+005 -3.1245e+006  2.9807e+005 183908 193759,193811,193785
 1.2000e+001 193837 -2.1835e+005 -3.2587e+006  3.7018e+005 183908 193733,193811,193759
 1.2000e+001 194061 -1.2562e+005 -1.6344e+006 -3.6912e+005 183710 193911,193989,193937
 1.2000e+001 194038 -6.5584e+005 -2.2910e+006  2.0771e+005 183710 193885,193989,193911
 1.2000e+001 194015 -5.0431e+004 -3.4356e+006 -5.1155e+004 183710 193937,193989,193963
 1.2000e+001 194262 -1.2481e+006 -4.1478e+006 -1.1380e+006 183420 194086,194164,194112
 1.2000e+001 194239 -1.2266e+006 -3.4426e+006  6.1224e+003 183420 194086,194190,194164
 1.2000e+001 194216 -1.0592e+006 -8.1779e+006  8.5021e+005 183420 194112,194164,194138
 1.2000e+001 194414 -1.6216e+005 -5.7892e+006  5.8110e+005 183222 194287,194339,194313
 1.2000e+001 194391 -5.8475e+005 -3.3623e+006 -7.8338e+004 183222 194287,194365,194339
 1.2000e+001 194517 -1.0509e+006 -3.9976e+006  6.7704e+004 183024 194439,194491,194465
 1.2000e+001 194718 -1.0660e+005 -1.0839e+007  7.2935e+005 182734 194568,194620,194594
 1.2000e+001 194695 -8.0615e+005 -4.5737e+006 -2.1206e+006 182734 194542,194620,194568
 1.2000e+001 194672 -2.2296e+006 -2.0379e+006 -1.0343e+006 182734 194542,194646,194620
 1.2000e+001 194870 -3.5509e+005 -3.1775e+006  7.7379e+004 182444 194769,194821,194795
 1.2000e+001 194847 -2.2428e+005 -2.4489e+006 -1.1920e+005 182444 194743,194821,194769
 1.2000e+001 195071 -1.7885e+006 -4.9397e+006 -1.0213e+005 182154 194895,194947,194921
 1.2000e+001 195048 -1.0446e+006 -2.8989e+006  6.3357e+005 182154 194895,194999,194947
 1.2000e+001 195025 -1.5824e+005 -6.8149e+006  8.3362e+005 182154 194947,194999,194973
 1.2000e+001 195223 -9.9711e+005 -4.4730e+006  4.6415e+005 181814 195096,195148,195122
 1.2000e+001 195200 -6.2222e+005 -2.7679e+006  8.6000e+005 181814 195096,195174,195148
 1.2000e+001 195375 -7.4499e+004 -4.6330e+006  5.3106e+005 181524 195248,195300,195274
 1.2000e+001 195352  7.2417e+004 -4.2022e+006  3.7810e+005 181524 195248,195326,195300
 1.2000e+001 195527 -2.5920e+005 -1.7125e+006 -6.0115e+005 181326 195426,195478,195452
 1.2000e+001 195504 -6.6062e+005 -1.9618e+006 -3.3819e+005 181326 195400,195478,195426
 1.2000e+001 195679  5.6145e+005 -7.8104e+006  2.1319e+005 180936 195578,195630,195604
 1.2000e+001 195656 -4.2913e+005 -4.3845e+006 -3.4108e+002 180936 195552,195630,195578
 1.2000e+001 195831 -6.3782e+005 -4.7439e+005 -2.6786e+005 180646 195704,195756,195730
 1.2000e+001 195808 -5.4479e+005 -1.6096e+005 -6.8503e+004 180646 195704,195782,195756
 1.2000e+001 196032 -4.5575e+005 -2.8516e+006  1.4155e+006 180306 195882,195960,195934
 1.2000e+001 196009 -1.1400e+006 -3.0536e+006  1.6483e+005 180306 195856,195960,195882
 1.2000e+001 195986  5.2360e+005 -4.4802e+006 -4.0406e+005 180306 195882,195934,195908
 1.2000e+001 196233 -1.7176e+005 -1.4675e+006 -1.0237e+006 179944 196057,196109,196083
 1.2000e+001 196210 -1.7510e+006 -8.7983e+006  1.4557e+006 179944 196057,196135,196109
 1.2000e+001 196187 -3.5686e+006  6.2531e+006 -2.2267e+006 179944 196057,196161,196135
 1.2000e+001 196385 -2.5166e+004 -2.1827e+005 -3.6670e+004 179604 196258,196310,196284
 1.2000e+001 196362 -6.8604e+004 -3.1355e+005 -1.0678e+005 179604 196258,196336,196310
 1.2000e+001 196586  2.7150e+005 -2.7458e+006 -2.7563e+005 179114 196410,196488,196436
 1.2000e+001 196563 -6.3962e+004 -1.8392e+006 -1.7722e+005 179114 196410,196514,196488
 1.2000e+001 196540 -3.0939e+004 -2.8134e+006 -2.9441e+005 179114 196436,196488,196462
 1.2000e+001 196738 -7.7287e+005 -2.8491e+006 -4.1081e+005 178674 196611,196663,196637
 1.2000e+001 196715 -1.1362e+005 -4.1387e+006 -1.3210e+005 178674 196611,196689,196663
 1.2000e+001 196939  9.1198e+005 -7.1168e+006 -7.7393e+005 178334 196789,196867,196841
 1.2000e+001 196916 -2.1187e+005 -6.9915e+006 -8.0795e+003 178334 196763,196867,196789
 1.2000e+001 196893 -8.3247e+005 -5.9977e+006 -2.6309e+006 178334 196789,196841,196815
 1.2000e+001 197091 -2.6461e+005 -3.5957e+006 -6.5406e+005 177930 196990,197042,197016
 1.2000e+001 197068 -5.7618e+005 -4.6686e+006 -3.6900e+005 177930 196964,197042,196990
 1.2000e+001 197194 -2.4794e+002 -1.2382e+006 -3.9038e+002 177732 197116,197168,197142
 1.2000e+001 197346 -5.9755e+005 -7.0789e+006 -2.9427e+004 177534 197219,197271,197245
 1.2000e+001 197323 -1.5421e+005 -8.7549e+006  8.7326e+005 177534 197219,197297,197271
 1.2000e+001 197547 -9.8438e+005 -2.7058e+006 -1.9252e+006 177130 197397,197449,197423
 1.2000e+001 197524 -7.8307e+005 -2.9703e+006 -3.3154e+005 177130 197397,197475,197449
 1.2000e+001 197501 -9.6672e+005 -8.3065e+006 -1.0277e+006 177130 197371,197475,197397
 1.2000e+001 197748 -4.5065e+005 -7.0345e+006  5.7121e+005 176790 197598,197676,197624
 1.2000e+001 197725 -2.6067e+005 -5.9517e+006  7.5899e+005 176790 197572,197676,197598
 1.2000e+001 197702 -6.7524e+005 -5.5417e+006  1.0717e+006 176790 197624,197676,197650
 1.2000e+001 197900 -1.6075e+005 -3.9128e+006 -7.7667e+005 176300 197773,197825,197799
 1.2000e+001 197877  1.9497e+004 -4.1321e+006 -8.2475e+005 176300 197773,197851,197825
 1.2000e+001 198052 -1.1075e+005 -7.9278e+006 -1.5396e+006 176010 197925,197977,197951
 1.2000e+001 198029 -8.5349e+005 -5.5348e+006 -8.3209e+005 176010 197925,198003,197977
 1.2000e+001 198204 -2.5213e+006 -6.8435e+006  1.8622e+006 175670 198103,198155,198129
 1.2000e+001 198181 -1.6552e+006 -6.8664e+006  3.8806e+004 175670 198077,198155,198103
 1.2000e+001 198405 -8.5228e+005 -6.5932e+006 -3.1988e+005 175266 198255,198307,198281
 1.2000e+001 198382 -3.8464e+005 -6.2664e+006 -6.6981e+004 175266 198229,198307,198255
 1.2000e+001 198359 -9.1340e+004 -6.0966e+006 -1.9456e+005 175266 198229,198333,198307
 1.2000e+001 198606 -4.1465e+005 -3.9198e+006 -4.3479e+005 174876 198430,198508,198482
 1.2000e+001 198583 -7.2833e+005 -4.0899e+006  4.0067e+005 174876 198430,198534,198508
 1.2000e+001 198560 -2.0482e+005 -4.2523e+006 -3.6023e+005 174876 198430,198482,198456
 1.2000e+001 198758 -2.5900e+004 -9.9704e+004 -5.1729e+004 174536 198657,198709,198683
 1.2000e+001 198735 -2.6293e+004 -1.0025e+005 -5.1042e+004 174536 198631,198709,198657
 1.2000e+001 199008 -1.0721e+005 -1.0726e+007  1.7321e+005 174132 198835,198913,198887
 1.2000e+001 198985 -7.0793e+004 -6.9015e+006  3.5120e+005 174132 198809,198913,198835
 1.2000e+001 198962 -5.8553e+004 -7.1070e+006 -1.1568e+006 174132 198783,198913,198809
 1.2000e+001 198939 -2.7456e+005 -8.7663e+006  7.8742e+005 174132 198835,198887,198861
 1.2000e+001 199160 -4.9355e+005 -6.8952e+006  6.6727e+005 173842 199059,199111,199085
 1.2000e+001 199137 -8.4118e+005 -4.7867e+006 -5.7101e+004 173842 199033,199111,199059
 1.2000e+001 199361 -6.2441e+005 -6.9482e+006  1.0528e+006 173438 199237,199289,199263
 1.2000e+001 199338 -8.1231e+005 -5.4349e+006  1.3191e+006 173438 199211,199289,199237
 1.2000e+001 199315 -7.5126e+005 -6.9412e+006  4.1855e+004 173438 199185,199289,199211
 1.2000e+001 199513  1.6551e+005 -8.3983e+006  1.2250e+006 173190 199386,199438,199412
 1.2000e+001 199490 -3.8008e+005 -6.8647e+006  1.9484e+005 173190 199386,199464,199438
 1.2000e+001 199665 -1.8955e+005 -3.3478e+006  1.0201e+005 172750 199564,199616,199590
 1.2000e+001 199642 -5.9611e+005 -2.1299e+006 -1.4244e+005 172750 199538,199616,199564
 1.2000e+001 199817 -7.1001e+005 -8.1214e+006 -2.4076e+006 172524 199690,199742,199716
 1.2000e+001 199794 -2.7144e+006 -5.0738e+006 -1.6423e+006 172524 199690,199768,199742
 1.2000e+001 199969 -2.0743e+005 -5.7451e+006 -5.5405e+005 172348 199842,199894,199868
 1.2000e+001 199946  3.8987e+005 -5.6678e+006  1.0119e+005 172348 199842,199920,199894
 1.2000e+001 200121  2.7750e+005 -8.1100e+006 -7.6949e+005 172008 199994,200046,200020
 1.2000e+001 200098 -5.2909e+005 -4.3913e+006 -4.7531e+005 172008 199994,200072,200046
 1.2000e+001 200273 -7.6762e+005 -8.7657e+006  1.5401e+006 171668 200172,200224,200198
 1.2000e+001 200250 -3.7170e+005 -8.5406e+006  2.1600e+006 171668 200146,200224,200172
 1.2000e+001 200474 -5.9323e+005 -9.6203e+006 -6.3360e+005 171264 200350,200402,200376
 1.2000e+001 200451 -7.7744e+005 -7.7372e+006 -5.7074e+004 171264 200324,200402,200350
 1.2000e+001 200428 -7.3457e+005 -7.5453e+006  1.7313e+005 171264 200298,200402,200324
 1.2000e+001 200626  2.8551e+005 -9.4967e+006  4.2028e+005 170832 200525,200577,200551
 1.2000e+001 200603 -1.3421e+005 -8.0559e+006  2.8347e+005 170832 200499,200577,200525
 1.2000e+001 200827  2.4877e+005 -8.9318e+006  1.2933e+006 170492 200677,200729,200703
 1.2000e+001 200804 -1.2850e+006 -4.4081e+006 -2.2808e+006 170492 200651,200729,200677
 1.2000e+001 200781 -1.9174e+006 -5.5684e+006 -1.8073e+006 170492 200651,200755,200729
 1.2000e+001 201077  7.1299e+005 -2.8179e+006  7.8520e+004 170088 200878,200956,200904
 1.2000e+001 201054 -6.5406e+005 -3.8841e+006 -1.3486e+006 170088 200852,200956,200878
 1.2000e+001 201031  2.6617e+005 -2.9605e+006  2.1174e+006 170088 200904,200956,200930
 1.2000e+001 201008  3.1369e+006 -8.9564e+006  2.1936e+006 170088 200852,200982,200956
 1.2000e+001 201278  5.1967e+005 -4.5020e+006  8.0847e+005 169798 201102,201154,201128
 1.2000e+001 201255 -1.2415e+006 -1.1450e+007  1.5853e+005 169798 201102,201206,201154
 1.2000e+001 201232 -2.0502e+006 -3.8512e+006  1.4961e+006 169798 201154,201206,201180
 1.2000e+001 201430 -1.0304e+006 -1.2716e+007 -1.1323e+006 169337 201303,201355,201329
 1.2000e+001 201407 -6.0522e+005 -6.7439e+006 -6.9297e+005 169337 201303,201381,201355
 1.2000e+001 201631 -3.0660e+005 -6.7363e+006 -3.7974e+005 168883 201481,201559,201507
 1.2000e+001 201608  3.0600e+005 -6.6545e+006 -2.8808e+005 168883 201455,201559,201481
 1.2000e+001 201585 -1.1955e+006 -8.6078e+006 -1.0487e+006 168883 201507,201559,201533
 1.2000e+001 201832 -3.1464e+005 -1.0942e+007  6.5983e+003 168479 201682,201734,201708
 1.2000e+001 201809 -1.4089e+006 -9.9433e+006 -8.5678e+005 168479 201656,201734,201682
 1.2000e+001 201786 -1.0394e+006 -8.4832e+006 -3.9702e+005 168479 201656,201760,201734
 1.2000e+001 202033 -1.8163e+005 -6.1279e+006  1.0553e+006 167825 201883,201935,201909
 1.2000e+001 202010  1.0468e+005 -6.6166e+006 -2.1827e+005 167825 201857,201935,201883
 1.2000e+001 201987  5.6105e+004 -8.9157e+006  3.4549e+005 167825 201857,201961,201935
 1.2000e+001 202234 -1.1867e+006 -8.3228e+006 -2.4880e+006 167435 202058,202136,202084
 1.2000e+001 202211 -2.5352e+006 -1.2925e+007  2.9003e+006 167435 202058,202162,202136
 1.2000e+001 202188 -1.0821e+006 -4.1511e+006  4.2980e+005 167435 202084,202136,202110
 1.2000e+001 202386  1.9698e+005 -6.7933e+006  2.9815e+005 167002 202285,202337,202311
 1.2000e+001 202363 -6.1296e+005 -3.3718e+006  4.0384e+005 167002 202259,202337,202285
 1.2000e+001 202538  7.9222e+004 -7.0309e+006 -2.6486e+005 166662 202411,202463,202437
 1.2000e+001 202515 -4.5473e+005 -4.3957e+006  1.1299e+005 166662 202411,202489,202463
 1.2000e+001 202690 -4.8791e+005 -7.3364e+006 -6.4422e+005 166322 202589,202641,202615
 1.2000e+001 202667  2.7677e+005 -7.6081e+006 -8.0020e+005 166322 202563,202641,202589
 1.2000e+001 202891 -1.4997e+006 -4.8954e+006  5.7994e+005 165918 202715,202767,202741
 1.2000e+001 202868 -1.4479e+006 -4.9160e+006 -1.2040e+005 165918 202715,202793,202767
 1.2000e+001 202845 -2.3376e+005 -4.7799e+006 -3.7569e+005 165918 202715,202819,202793
 1.2000e+001 203092 -1.4530e+006 -8.2431e+006 -7.5563e+005 165628 202916,202968,202942
 1.2000e+001 203069 -2.7272e+005 -1.1651e+007 -4.1986e+005 165628 202916,202994,202968
 1.2000e+001 203046 -1.0291e+006 -1.2384e+007  2.7031e+005 165628 202916,203020,202994
 1.2000e+001 203293 -2.1906e+006 -1.2816e+007  2.7279e+006 165266 203143,203195,203169
 1.2000e+001 203270 -3.4824e+006 -7.4071e+006 -7.7330e+005 165266 203143,203221,203195
 1.2000e+001 203247  7.2524e+004 -1.0120e+007 -3.9349e+006 165266 203117,203221,203143
 1.2000e+001 203445 -2.5194e+005 -5.0194e+006  3.4740e+005 164826 203318,203370,203344
 1.2000e+001 203422  1.4711e+005 -4.8698e+006  2.3500e+005 164826 203318,203396,203370
 1.2000e+001 203597 -8.8655e+005 -7.5581e+006 -2.6074e+005 164386 203470,203522,203496
 1.2000e+001 203574 -2.1028e+005 -5.3831e+006  2.0508e+005 164386 203470,203548,203522
 1.2000e+001 203798  6.2874e+004 -7.5052e+006  9.8262e+005 163996 203622,203674,203648
 1.2000e+001 203775 -5.1041e+005 -3.2739e+006  1.5601e+004 163996 203622,203726,203674
 1.2000e+001 203752 -1.9196e+006 -7.9757e+006  2.0126e+006 163996 203674,203726,203700
 1.2000e+001 203901 -4.7290e+005 -3.8056e+006 -6.0132e+005 163770 203823,203875,203849
 1.2000e+001 204053 -1.0174e+006 -6.8769e+006  9.5913e+005 163474 203952,204004,203978
 1.2000e+001 204030 -7.6958e+005 -7.4884e+006 -2.9780e+005 163474 203926,204004,203952
 1.2000e+001 204205  5.6824e+004 -6.1622e+006 -4.5845e+005 163034 204104,204156,204130
 1.2000e+001 204182 -1.1061e+006 -8.3548e+006 -2.4082e+006 163034 204078,204156,204104
 1.2000e+001 204357 -3.1573e+005 -7.2069e+006  8.4887e+005 162624 204256,204308,204282
 1.2000e+001 204334 -2.3457e+005 -3.5530e+006 -2.7812e+003 162624 204230,204308,204256
 1.2000e+001 204509  4.3398e+001 -5.8415e+002  2.3024e+002 162200 204382,204434,204408
 1.2000e+001 204486 -5.7115e+001  1.4212e+002 -9.2237e+001 162200 204382,204460,204434
 1.2000e+001 204710 -1.1272e+005 -1.2326e+006  2.9326e+005 161810 204560,204638,204586
 1.2000e+001 204687  1.2793e+004 -2.0436e+006 -5.1124e+005 161810 204534,204638,204560
 1.2000e+001 204664 -1.4364e+005 -5.4895e+005  1.2471e+004 161810 204586,204638,204612
 1.2000e+001 204862 -1.4710e+006 -5.7746e+006 -1.2663e+006 161406 204735,204787,204761
 1.2000e+001 204839 -1.9521e+006 -7.0185e+006 -5.5761e+005 161406 204735,204813,204787
 1.2000e+001 205014 -3.4584e+005 -3.2178e+006  8.2376e+005 161180 204887,204939,204913
 1.2000e+001 204991 -3.9418e+005 -1.7502e+006  6.4614e+004 161180 204887,204965,204939
 1.2000e+001 205215  5.2131e+005 -3.1508e+006 -2.3228e+005 160726 205039,205091,205065
 1.2000e+001 205192 -7.5083e+005 -8.0936e+006 -6.0602e+005 160726 205039,205143,205091
 1.2000e+001 205169 -2.9364e+005 -2.0626e+006 -7.1335e+004 160726 205091,205143,205117
 1.2000e+001 205416 -4.2942e+005 -4.2136e+006  9.5997e+005 160272 205292,205344,205318
 1.2000e+001 205393 -3.9828e+005 -4.2259e+006  9.8135e+005 160272 205240,205344,205292
 1.2000e+001 205370 -4.9799e+005 -4.7740e+006  7.5511e+005 160272 205240,205292,205266
 1.2000e+001 205568 -1.1786e+005 -4.1081e+006  8.4229e+005 159932 205441,205493,205467
 1.2000e+001 205545 -3.4281e+005 -4.3066e+006  1.0261e+006 159932 205441,205519,205493
 1.2000e+001 205720 -3.4674e+004 -3.0948e+006 -5.6282e+005 159542 205593,205645,205619
 1.2000e+001 205697 -2.5435e+005 -4.7755e+005 -1.1823e+005 159542 205593,205671,205645
 1.2000e+001 205872  3.0607e+005 -9.0059e+005  7.9614e+004 159252 205745,205797,205771
 1.2000e+001 205849 -3.7477e+005 -3.9764e+006 -1.5206e+005 159252 205745,205823,205797
 1.2000e+001 206024 -3.0189e+006 -2.2721e+006 -9.9777e+005 159004 205923,205975,205949
 1.2000e+001 206001 -1.0818e+006 -3.3967e+006  2.3458e+005 159004 205897,205975,205923
 1.2000e+001 206127 -1.9534e+002 -2.8859e+002  3.3658e+002 158364 206049,206101,206075
 1.2000e+001 206328 -4.0960e+005 -3.7334e+006  1.8347e+005 157960 206178,206256,206204
 1.2000e+001 206305 -2.2680e+005 -3.3178e+006  6.5188e+005 157960 206152,206256,206178
 1.2000e+001 206282  4.7895e+004 -3.6176e+006  4.3976e+005 157960 206204,206256,206230
 1.2000e+001 206529 -3.0681e+005 -6.8902e+006  2.0832e+005 157648 206405,206457,206431
 1.2000e+001 206506 -1.7353e+006 -6.1710e+006 -4.4785e+005 157648 206379,206457,206405
 1.2000e+001 206483 -4.2661e+005 -6.0915e+006 -5.9126e+005 157648 206353,206457,206379
 1.2000e+001 206730  6.2876e+005 -1.2139e+007  5.0887e+005 157208 206554,206606,206580
 1.2000e+001 206707  2.6904e+005 -1.4938e+007  5.7898e+005 157208 206554,206632,206606
 1.2000e+001 206684 -3.3353e+006 -5.6965e+006  5.8965e+005 157208 206554,206658,206632
 1.2000e+001 206882 -5.3686e+004 -2.9011e+006  4.2051e+005 157010 206755,206807,206781
 1.2000e+001 206859 -5.7360e+003 -3.1562e+006  5.3123e+005 157010 206755,206833,206807
 1.2000e+001 207034 -3.9130e+004 -8.9337e+006 -2.4975e+004 156620 206907,206959,206933
 1.2000e+001 207011 -3.2088e+004 -9.4248e+006  1.9293e+004 156620 206907,206985,206959
 1.2000e+001 207186 -4.6961e+004 -3.8306e+006  1.4964e+005 156330 207085,207137,207111
 1.2000e+001 207163 -9.4191e+004 -3.8763e+006 -4.8213e+005 156330 207059,207137,207085
 1.2000e+001 207387 -3.5326e+004 -7.6972e+006  1.6542e+005 155890 207211,207289,207237
 1.2000e+001 207364 -2.9918e+005 -7.7609e+006  2.8356e+005 155890 207211,207315,207289
 1.2000e+001 207341 -1.1950e+006 -4.8362e+006  1.9497e+006 155890 207237,207289,207263
 1.2000e+001 207588  7.5224e+005 -1.3917e+007  2.2297e+006 155436 207438,207490,207464
 1.2000e+001 207565 -4.5120e+005 -1.2635e+007  3.2867e+005 155436 207412,207490,207438
 1.2000e+001 207542 -4.0034e+005 -1.0229e+007  4.8803e+004 155436 207412,207516,207490
 1.2000e+001 207789 -4.4286e+005 -2.0261e+007 -9.8729e+005 155260 207639,207691,207665
 1.2000e+001 207766 -1.6872e+006 -1.0813e+007  2.4640e+006 155260 207613,207691,207639
 1.2000e+001 207743 -3.3872e+005 -9.2874e+006 -3.1111e+005 155260 207613,207717,207691
 1.2000e+001 207990 -8.5470e+004 -1.6752e+006  3.4446e+005 154920 207840,207918,207892
 1.2000e+001 207967 -8.4996e+005 -1.9848e+006 -3.7651e+004 154920 207814,207918,207840
 1.2000e+001 207944 -1.7683e+005 -9.7498e+005 -8.0092e+004 154920 207840,207892,207866
 1.2000e+001 208191  2.8266e+005 -1.0451e+007 -1.2034e+006 154630 208015,208093,208041
 1.2000e+001 208168 -1.1251e+006 -6.4745e+006 -5.3705e+005 154630 208015,208119,208093
 1.2000e+001 208145 -1.0762e+006 -9.4503e+006 -2.1659e+006 154630 208041,208093,208067
 1.2000e+001 208343 -1.0098e+005 -1.6343e+006  1.1203e+005 154240 208216,208268,208242
 1.2000e+001 208320 -2.7306e+004 -1.2936e+006  1.5625e+005 154240 208216,208294,208268
 1.2000e+001 208495 -6.7107e+004 -1.5265e+007 -2.6035e+006 153950 208394,208446,208420
 1.2000e+001 208472 -1.3779e+006 -1.0825e+007  6.4818e+005 153950 208368,208446,208394
 1.2000e+001 208647 -4.9962e+005 -9.9756e+006  3.6473e+006 153603 208520,208572,208546
 1.2000e+001 208624 -3.4357e+006 -5.8718e+006 -1.1618e+005 153603 208520,208598,208572
 1.2000e+001 208848 -6.2954e+005 -7.3959e+006  1.0343e+006 153149 208698,208776,208724
 1.2000e+001 208825  2.2983e+005 -1.0715e+007 -6.2443e+005 153149 208672,208776,208698
 1.2000e+001 208802 -1.7109e+006 -8.6718e+006  3.0311e+005 153149 208724,208776,208750
 1.2000e+001 209000 -5.6788e+005 -1.0253e+007  5.7656e+004 152859 208873,208925,208899
 1.2000e+001 208977 -8.3740e+004 -1.2622e+007  3.7895e+005 152859 208873,208951,208925
 1.2000e+001 209152 -1.2972e+005 -1.1207e+007 -8.0866e+004 152569 209051,209103,209077
 1.2000e+001 209129 -7.0097e+005 -1.1446e+007 -2.6929e+005 152569 209025,209103,209051
 1.2000e+001 209304 -1.4800e+005 -1.3047e+006  5.0971e+004 152065 209177,209229,209203
 1.2000e+001 209281 -2.1537e+005 -2.5377e+006  5.8091e+005 152065 209177,209255,209229
 1.2000e+001 209456  4.0414e+005 -1.1318e+007  2.5073e+005 151775 209355,209407,209381
 1.2000e+001 209433  4.2919e+005 -1.3354e+007  6.8851e+004 151775 209329,209407,209355
 1.2000e+001 209608 -6.3387e+005 -1.3933e+007 -7.3151e+004 151371 209481,209533,209507
 1.2000e+001 209585  2.4662e+005 -1.5345e+007  2.1057e+005 151371 209481,209559,209533
 1.2000e+001 209760 -2.2566e+006 -8.3624e+006 -1.5452e+006 150981 209659,209711,209685
 1.2000e+001 209737 -3.6034e+005 -7.8827e+006 -1.2629e+006 150981 209633,209711,209659
 1.2000e+001 209912  9.9179e+005 -1.9856e+007 -1.2024e+006 150619 209811,209863,209837
 1.2000e+001 209889  1.1744e+006 -1.5089e+007  7.5605e+005 150619 209785,209863,209811
 1.2000e+001 210064  1.3966e+004 -1.1588e+007 -7.4677e+005 150279 209937,209989,209963
 1.2000e+001 210041 -3.2298e+005 -8.1318e+006 -1.0722e+006 150279 209937,210015,209989
 1.2000e+001 210265  3.1302e+005 -1.3710e+007 -3.2241e+006 149989 210115,210167,210141
 1.2000e+001 210242 -1.5147e+006 -1.0046e+007  1.3366e+006 149989 210115,210193,210167
 1.2000e+001 210219 -1.7702e+006 -1.5295e+007  8.8780e+005 149989 210089,210193,210115
 1.2000e+001 210417 -1.2110e+006 -1.0379e+007 -7.9152e+005 149599 210316,210368,210342
 1.2000e+001 210394 -9.9542e+005 -7.1905e+006  8.2357e+004 149599 210290,210368,210316
 1.2000e+001 210618 -2.5671e+006 -8.2807e+006 -1.0695e+006 149095 210468,210520,210494
 1.2000e+001 210595 -2.7527e+006 -8.8035e+006  1.9169e+006 149095 210442,210520,210468
 1.2000e+001 210572 -6.6818e+005 -1.6698e+007  2.1902e+006 149095 210442,210546,210520
 1.2000e+001 210819 -2.2712e+005 -2.5118e+006  6.6447e+005 148748 210695,210747,210721
 1.2000e+001 210796 -4.6006e+004 -4.9254e+006  1.2385e+006 148748 210669,210747,210695
 1.2000e+001 210773 -7.0850e+005 -4.4322e+006  1.7721e+006 148748 210643,210747,210669
 1.2000e+001 210971 -1.0892e+005 -1.6605e+006  6.7465e+004 148408 210870,210922,210896
 1.2000e+001 210948 -3.0977e+005 -1.3933e+006 -1.8254e+005 148408 210844,210922,210870
 1.2000e+001 211123 -3.6417e+005 -7.3496e+006  1.7353e+006 148118 210996,211048,211022
 1.2000e+001 211100 -1.3045e+006 -8.5316e+006  2.7154e+006 148118 210996,211074,211048
 1.2000e+001 211275 -2.1539e+006 -9.8308e+006  6.9939e+005 147778 211148,211200,211174
 1.2000e+001 211252 -2.2347e+006 -1.3553e+007  3.0189e+006 147778 211148,211226,211200
 1.2000e+001 211427 -1.0227e+006 -1.0005e+007 -2.8074e+005 147324 211326,211378,211352
 1.2000e+001 211404 -2.2248e+004 -9.7176e+006  4.1106e+004 147324 211300,211378,211326
 1.2000e+001 211628  8.1845e+004 -4.5241e+005  2.5402e+004 147012 211452,211504,211478
 1.2000e+001 211605 -2.0884e+004 -1.3179e+006 -1.8285e+004 147012 211452,211556,211504
 1.2000e+001 211582 -5.6369e+004 -1.5650e+006  4.7150e+002 147012 211504,211556,211530
 1.2000e+001 211829 -6.0445e+005 -7.7297e+006  1.3415e+006 146636 211679,211757,211731
 1.2000e+001 211806  1.2761e+006 -1.2431e+007 -2.4924e+005 146636 211653,211757,211679
 1.2000e+001 211783  4.7302e+005 -6.6572e+006  3.1251e+005 146636 211679,211731,211705
 1.2000e+001 211981  2.6570e+004 -1.3021e+006 -3.7461e+004 146246 211880,211932,211906
 1.2000e+001 211958 -1.1400e+004 -2.5227e+005 -7.0247e+004 146246 211854,211932,211880
 1.2000e+001 212133  6.0215e+004 -1.8703e+006  6.8929e+004 145956 212006,212058,212032
 1.2000e+001 212110 -2.6989e+005 -1.3128e+006 -2.1765e+005 145956 212006,212084,212058
 1.2000e+001 212285 -8.4593e+004 -1.3736e+006  3.5131e+004 145544 212184,212236,212210
 1.2000e+001 212262 -9.3496e+004 -3.9308e+005 -4.7147e+004 145544 212158,212236,212184
 1.2000e+001 212486 -4.1028e+004 -6.1305e+006  7.8278e+005 144990 212362,212414,212388
 1.2000e+001 212463  7.0803e+004 -5.1884e+006  1.3292e+006 144990 212310,212414,212362
 1.2000e+001 212440 -7.4805e+005 -2.5782e+006  8.5181e+005 144990 212310,212362,212336
 1.2000e+001 212638 -1.0283e+006 -4.9444e+006  1.4593e+006 144600 212537,212589,212563
 1.2000e+001 212615 -3.3215e+005 -2.2080e+006 -7.2032e+004 144600 212511,212589,212537
 1.2000e+001 212839 -6.6864e+004 -7.9337e+005 -1.0394e+005 144210 212689,212741,212715
 1.2000e+001 212816  5.2035e+002 -1.2022e+006  2.0146e+005 144210 212663,212741,212689
 1.2000e+001 212793 -1.8248e+005 -1.1947e+006 -1.0901e+005 144210 212663,212767,212741
 1.2000e+001 212991 -1.3902e+006 -2.7804e+006  1.1615e+006 143920 212890,212942,212916
 1.2000e+001 212968 -7.0187e+005 -7.5458e+006  5.2836e+005 143920 212864,212942,212890
 1.2000e+001 213143  6.6994e+004 -1.0317e+006  2.4161e+004 143480 213016,213068,213042
 1.2000e+001 213120  1.6368e+004 -8.8850e+005 -1.1659e+005 143480 213016,213094,213068
 1.2000e+001 213295 -7.3847e+005 -3.2161e+006  1.2358e+006 142990 213194,213246,213220
 1.2000e+001 213272 -1.4162e+006 -1.9104e+006 -1.5148e+005 142990 213168,213246,213194
 1.2000e+001 213447 -1.0148e+006 -4.6943e+006  9.8753e+005 142600 213320,213372,213346
 1.2000e+001 213424 -1.7601e+006 -2.6616e+006 -4.3850e+005 142600 213320,213398,213372
 1.2000e+001 213599 -5.0142e+005 -4.6137e+006 -2.1025e+004 142260 213472,213524,213498
 1.2000e+001 213576  1.0754e+005 -4.7847e+006  7.3744e+005 142260 213472,213550,213524
 1.2000e+001 213751 -1.3682e+006 -5.3853e+006  8.9202e+005 141870 213624,213676,213650
 1.2000e+001 213728 -1.7067e+006 -5.7394e+006  1.2886e+006 141870 213624,213702,213676
 1.2000e+001 213903 -1.4722e+006 -4.1852e+006 -2.1855e+006 141530 213776,213828,213802
 1.2000e+001 213880 -4.3599e+005 -4.8905e+006 -9.1770e+005 141530 213776,213854,213828
 1.2000e+001 214055 -7.3272e+004 -6.3118e+005 -7.3679e+004 141218 213928,213980,213954
 1.2000e+001 214032  3.0064e+005 -2.2427e+006  3.0127e+005 141218 213928,214006,213980
 1.2000e+001 214207 -1.1484e+005 -1.0916e+006 -1.5943e+004 140928 214080,214132,214106
 1.2000e+001 214184 -1.2827e+005 -1.1019e+006  5.2553e+004 140928 214080,214158,214132
 1.2000e+001 214359 -5.0950e+005 -2.8072e+006 -8.3538e+005 140538 214232,214284,214258
 1.2000e+001 214336  1.9888e+005 -6.5106e+006  1.6593e+006 140538 214232,214310,214284
 1.2000e+001 214560 -6.7814e+004 -1.6099e+006  1.4694e+005 140248 214384,214462,214410
 1.2000e+001 214537  1.4334e+004 -2.9099e+005  4.4894e+003 140248 214384,214488,214462
 1.2000e+001 214514 -1.6075e+005 -7.3081e+005 -1.4818e+005 140248 214410,214462,214436
 1.2000e+001 214712 -1.8757e+005 -6.5287e+006  3.4908e+005 140000 214611,214663,214637
 1.2000e+001 214689 -7.5432e+005 -3.7115e+006 -1.7270e+005 140000 214585,214663,214611
 1.2000e+001 214913 -5.2893e+005 -3.2939e+006 -1.0267e+006 139596 214737,214815,214763
 1.2000e+001 214890 -4.3159e+005 -1.6109e+006 -1.1279e+005 139596 214737,214841,214815
 1.2000e+001 214867  3.7683e+005 -5.1207e+006 -6.8759e+005 139596 214763,214815,214789
 1.2000e+001 215016  1.3436e+002 -2.6398e+004  2.8845e+002 139420 214938,214990,214964
 1.2000e+001 215168 -1.3858e+005 -4.2540e+006  1.2145e+006 139130 215067,215119,215093
 1.2000e+001 215145 -5.6561e+005 -4.3641e+006  1.1600e+006 139130 215041,215119,215067
 1.2000e+001 215320 -8.6616e+005 -1.6789e+006  5.4387e+005 138790 215219,215271,215245
 1.2000e+001 215297  5.4147e+004 -5.0715e+006  1.3451e+006 138790 215193,215271,215219
 1.2000e+001 215472 -2.5229e+005 -1.8062e+006  6.7779e+005 138514 215345,215397,215371
 1.2000e+001 215449 -2.1219e+005 -1.0282e+006  7.2494e+004 138514 215345,215423,215397
 1.2000e+001 215624 -1.0351e+006 -6.0746e+006 -3.2601e+005 138174 215497,215549,215523
 1.2000e+001 215601 -4.1587e+005 -5.5866e+006 -7.1365e+005 138174 215497,215575,215549
 1.2000e+001 215776 -1.1172e+006 -4.8849e+006  1.5022e+006 137734 215649,215701,215675
 1.2000e+001 215753 -1.4114e+006 -4.9063e+006  1.4276e+006 137734 215649,215727,215701
 1.2000e+001 215977 -2.8762e+006 -9.2319e+006  2.0961e+006 137344 215801,215879,215827
 1.2000e+001 215954  4.6713e+005 -9.0145e+006  2.0550e+006 137344 215801,215905,215879
 1.2000e+001 215931  3.4303e+006 -1.7116e+007 -3.2309e+006 137344 215827,215879,215853
 1.2000e+001 216129 -5.9203e+005 -7.3207e+006 -5.1869e+005 136940 216028,216080,216054
 1.2000e+001 216106 -7.3229e+005 -6.8170e+006 -8.7451e+005 136940 216002,216080,216028
 1.2000e+001 216330 -4.8870e+005 -5.6155e+006  1.2796e+004 136600 216180,216232,216206
 1.2000e+001 216307 -6.3533e+005 -5.9178e+006  9.5999e+005 136600 216154,216232,216180
 1.2000e+001 216284 -5.0330e+005 -5.0774e+006  5.3930e+005 136600 216154,216258,216232
 1.2000e+001 216482 -1.9057e+005 -5.4349e+006 -6.8056e+005 136260 216381,216433,216407
 1.2000e+001 216459 -3.6167e+005 -4.7746e+006 -6.1463e+005 136260 216355,216433,216381
 1.2000e+001 216634 -3.4267e+005 -5.1435e+006  7.7377e+005 135970 216533,216585,216559
 1.2000e+001 216611 -1.9255e+005 -6.1323e+006  8.3260e+005 135970 216507,216585,216533
 1.2000e+001 216835 -7.0565e+005 -4.8795e+006 -2.7174e+005 135608 216685,216763,216711
 1.2000e+001 216812 -5.3047e+004 -4.8981e+006 -4.6643e+005 135608 216659,216763,216685
 1.2000e+001 216789 -6.6191e+005 -7.3811e+006  2.1700e+005 135608 216711,216763,216737
 1.2000e+001 217036 -8.4567e+004 -4.0085e+006  5.9052e+005 135312 216912,216964,216938
 1.2000e+001 217013 -1.2643e+005 -4.6066e+006  7.0348e+005 135312 216886,216964,216912
 1.2000e+001 216990 -2.4597e+005 -5.3322e+006  4.0272e+005 135312 216860,216964,216886
 1.2000e+001 217237  1.2200e+004 -9.5817e+005 -6.7541e+003 134908 217061,217139,217113
 1.2000e+001 217214 -1.9020e+005 -1.1656e+006  6.2802e+005 134908 217061,217165,217139
 1.2000e+001 217191 -2.7858e+005 -4.1635e+005 -1.6973e+005 134908 217061,217113,217087
 1.2000e+001 217438 -8.5807e+005 -1.2947e+007  1.4273e+006 134568 217288,217366,217314
 1.2000e+001 217415 -4.3330e+005 -1.2097e+007  1.7691e+006 134568 217262,217366,217288
 1.2000e+001 217392  2.7628e+005 -9.2803e+006  6.9411e+005 134568 217314,217366,217340
 1.2000e+001 217590  9.3149e+004 -2.3248e+006  6.2080e+005 134106 217463,217515,217489
 1.2000e+001 217567  1.3768e+004 -2.1213e+006  2.8841e+005 134106 217463,217541,217515
 1.2000e+001 217791 -3.3386e+006 -2.0923e+007 -1.0694e+007 133816 217641,217693,217667
 1.2000e+001 217768  1.4563e+006 -2.5494e+007  5.1175e+006 133816 217641,217719,217693
 1.2000e+001 217745 -5.3345e+006 -6.6585e+006  3.5005e+006 133816 217615,217719,217641
 1.2000e+001 217992 -1.3167e+006 -5.0033e+006  1.2450e+006 133355 217842,217920,217894
 1.2000e+001 217969 -4.5281e+005 -8.9818e+006 -9.3331e+005 133355 217816,217920,217842
 1.2000e+001 217946 -1.0182e+006 -3.9234e+006 -4.9512e+005 133355 217842,217894,217868
 1.2000e+001 218193 -6.5695e+005 -3.9556e+006 -2.3976e+006 132851 218017,218095,218069
 1.2000e+001 218170 -7.9277e+005 -6.1355e+006  3.0551e+006 132851 218017,218121,218095
 1.2000e+001 218147 -1.7559e+006 -5.6594e+006 -1.6073e+006 132851 218017,218069,218043
 1.2000e+001 218345 -5.9891e+005 -3.0771e+006  8.0245e+005 132511 218244,218296,218270
 1.2000e+001 218322 -1.1300e+006 -2.9196e+006  2.2957e+005 132511 218218,218296,218244
 1.2000e+001 218497 -2.8533e+006 -1.9352e+007 -9.3573e+005 132235 218396,218448,218422
 1.2000e+001 218474 -3.1163e+006 -8.9799e+006  1.0404e+006 132235 218370,218448,218396
 1.2000e+001 218698 -1.1217e+005 -7.5968e+006  4.4234e+005 131945 218574,218626,218600
 1.2000e+001 218675 -5.5103e+005 -9.8798e+006  7.0982e+005 131945 218522,218626,218574
 1.2000e+001 218652 -4.8617e+005 -8.0277e+006  1.6699e+005 131945 218522,218574,218548
 1.2000e+001 218850 -2.1599e+005 -1.2843e+007 -1.9310e+006 131655 218723,218775,218749
 1.2000e+001 218827 -1.3949e+006 -1.0232e+007 -2.1900e+005 131655 218723,218801,218775
 1.2000e+001 218953 -1.2332e+006 -5.8358e+006 -4.5275e+004 131215 218875,218927,218901
 1.2000e+001 219105 -6.2541e+005 -8.4467e+006  6.6208e+003 130875 218978,219030,219004
 1.2000e+001 219082 -3.4059e+005 -4.9696e+006  3.3273e+005 130875 218978,219056,219030
 1.2000e+001 219306  7.2395e+004 -4.9580e+006  2.7553e+005 130429 219156,219234,219208
 1.2000e+001 219283 -3.3034e+005 -4.2823e+006  3.0934e+005 130429 219130,219234,219156
 1.2000e+001 219260 -8.2445e+004 -4.9694e+006 -1.9997e+004 130429 219156,219208,219182
 1.2000e+001 219507 -1.1874e+005 -2.4894e+006 -1.2278e+005 130025 219383,219435,219409
 1.2000e+001 219484 -1.8186e+005 -3.1778e+006 -2.5492e+004 130025 219331,219435,219383
 1.2000e+001 219461  4.8506e+004 -3.3197e+006 -3.6182e+003 130025 219331,219383,219357
 1.2000e+001 219659 -1.3467e+006 -9.8475e+006 -1.6324e+006 129685 219558,219610,219584
 1.2000e+001 219636 -4.4765e+005 -1.0809e+007 -2.9338e+006 129685 219532,219610,219558
 1.2000e+001 219860 -1.5127e+005 -3.6029e+006  3.6248e+005 129395 219710,219788,219762
 1.2000e+001 219837 -2.4695e+005 -4.4520e+006  2.3653e+005 129395 219684,219788,219710
 1.2000e+001 219814  3.6536e+005 -4.5029e+006 -3.1324e+005 129395 219710,219762,219736
 1.2000e+001 220061  6.2293e+004 -3.1864e+006  2.1861e+005 128991 219937,219989,219963
 1.2000e+001 220038 -1.1385e+005 -5.0429e+006 -2.5201e+005 128991 219885,219989,219937
 1.2000e+001 220015  1.8401e+005 -4.1543e+006  6.1847e+004 128991 219885,219937,219911
 1.2000e+001 220262 -2.9007e+005 -2.9007e+006 -2.3362e+005 128701 220086,220164,220112
 1.2000e+001 220239  3.1539e+005 -4.0236e+006  1.3057e+005 128701 220086,220190,220164
 1.2000e+001 220216 -1.2168e+005 -2.4263e+006  5.4308e+005 128701 220112,220164,220138
 1.2000e+001 220463 -1.5558e+006 -1.0026e+007  1.5442e+006 128297 220339,220391,220365
 1.2000e+001 220440  6.0602e+005 -1.1877e+007  1.3149e+006 128297 220313,220391,220339
 1.2000e+001 220417 -1.5085e+005 -1.3425e+007 -1.3859e+006 128297 220287,220391,220313
 1.2000e+001 220615 -1.7596e+005 -9.9933e+006 -1.0264e+006 128007 220488,220540,220514
 1.2000e+001 220592 -2.2898e+005 -9.9176e+006 -1.0269e+006 128007 220488,220566,220540
 1.2000e+001 220767  8.6092e+004 -3.5835e+006 -4.5174e+005 127567 220640,220692,220666
 1.2000e+001 220744 -2.3359e+005 -2.3170e+006 -3.3409e+005 127567 220640,220718,220692
 1.2000e+001 220919  2.9100e+005 -1.2209e+007  2.7360e+005 127163 220792,220844,220818
 1.2000e+001 220896  1.5112e+006 -1.3248e+007  1.3332e+006 127163 220792,220870,220844
 1.2000e+001 221071 -6.7268e+005 -3.8865e+006  5.1191e+005 126915 220970,221022,220996
 1.2000e+001 221048 -6.6075e+005 -3.9421e+006  4.9192e+005 126915 220944,221022,220970
 1.2000e+001 221272 -1.1395e+006 -9.6238e+006  6.3993e+005 126461 221122,221174,221148
 1.2000e+001 221249 -1.7308e+006 -9.8395e+006  3.9247e+005 126461 221122,221200,221174
 1.2000e+001 221226 -3.6130e+005 -1.2162e+007 -6.6414e+005 126461 221096,221200,221122
 1.2000e+001 221375 -8.7590e+000 -2.3062e+005  1.5278e+002 126213 221297,221349,221323
 1.2000e+001 221478 -2.8754e+002 -4.2928e+005 -5.1663e+002 125766 221400,221452,221426
 1.2000e+001 221679 -1.1780e+005 -2.1175e+006  1.5394e+005 125212 221503,221555,221529
 1.2000e+001 221656 -1.4697e+005 -2.6425e+006 -3.2277e+004 125212 221503,221581,221555
 1.2000e+001 221633 -6.2122e+003 -3.7223e+006  4.8052e+005 125212 221503,221607,221581
 1.2000e+001 221929 -6.1230e+005 -2.0361e+006  1.0942e+005 124872 221782,221834,221808
 1.2000e+001 221906 -8.9061e+005 -2.7157e+006  3.2726e+005 124872 221756,221834,221782
 1.2000e+001 221883 -6.1301e+005 -3.9961e+006  8.3783e+005 124872 221704,221834,221756
 1.2000e+001 221860 -7.4886e+005 -4.2767e+006  9.9126e+005 124872 221704,221756,221730
 1.2000e+001 222130 -5.1929e+005 -8.2924e+006 -1.1712e+006 124582 221980,222058,222006
 1.2000e+001 222107 -1.3013e+006 -8.9486e+006 -1.7520e+006 124582 221954,222058,221980
 1.2000e+001 222084 -1.3924e+006 -9.2908e+006 -1.7294e+006 124582 222006,222058,222032
 1.2000e+001 222282 -2.4067e+006 -1.1102e+007 -2.5832e+006 124192 222181,222233,222207
 1.2000e+001 222259 -9.0414e+005 -1.1413e+007 -3.2688e+006 124192 222155,222233,222181
 1.2000e+001 222483 -4.3078e+005 -5.4443e+006  1.7663e+005 123702 222333,222385,222359
 1.2000e+001 222460 -3.0264e+005 -5.6533e+006 -1.9655e+005 123702 222333,222411,222385
 1.2000e+001 222437 -1.5629e+004 -2.8198e+006 -2.8489e+005 123702 222307,222411,222333
 1.2000e+001 222635 -3.6686e+005 -3.5241e+006 -2.6394e+005 123312 222508,222560,222534
 1.2000e+001 222612  4.9442e+005 -7.3703e+006 -2.1009e+005 123312 222508,222586,222560
 1.2000e+001 222787 -1.9330e+005 -4.8603e+006 -1.2909e+005 122858 222686,222738,222712
 1.2000e+001 222764 -1.4551e+005 -4.5067e+006 -2.5969e+005 122858 222660,222738,222686
 1.2000e+001 222939 -3.7210e+005 -6.0800e+006 -4.1508e+004 122568 222812,222864,222838
 1.2000e+001 222916 -9.8128e+004 -4.4116e+006  3.9678e+005 122568 222812,222890,222864
 1.2000e+001 223091 -4.2707e+005 -4.6929e+006 -4.5997e+005 122392 222964,223016,222990
 1.2000e+001 223068  3.8832e+005 -5.5076e+006  2.5788e+005 122392 222964,223042,223016
 1.2000e+001 223292 -4.7059e+005 -1.1033e+007 -9.9210e+005 121852 223142,223220,223194
 1.2000e+001 223269 -9.3124e+005 -1.0887e+007 -9.1768e+005 121852 223116,223220,223142
 1.2000e+001 223246 -3.8268e+005 -1.0821e+007 -1.4298e+006 121852 223142,223194,223168
 1.2000e+001 223493 -9.8172e+005 -1.1955e+007  4.9542e+005 121406 223343,223395,223369
 1.2000e+001 223470 -2.5360e+005 -8.4899e+006 -2.3200e+006 121406 223343,223421,223395
 1.2000e+001 223447 -9.0330e+005 -6.7300e+006  1.2937e+006 121406 223317,223421,223343
 1.2000e+001 223645  3.7559e+004 -1.0526e+007  5.8817e+005 121002 223544,223596,223570
 1.2000e+001 223622 -9.1308e+005 -6.7238e+006  9.3145e+005 121002 223518,223596,223544
 1.2000e+001 223846  2.8126e+004 -1.1231e+007  7.4965e+005 120662 223670,223748,223696
 1.2000e+001 223823  9.3272e+005 -8.2210e+006 -1.4806e+005 120662 223670,223774,223748
 1.2000e+001 223800 -2.5679e+005 -6.5317e+006 -6.7064e+005 120662 223696,223748,223722
 1.2000e+001 224047 -5.7217e+005 -6.2781e+006  1.6553e+006 120222 223897,223949,223923
 1.2000e+001 224024 -3.2864e+005 -7.9581e+006 -4.1704e+005 120222 223871,223949,223897
 1.2000e+001 224001  2.1311e+005 -1.1224e+007  5.2433e+005 120222 223871,223975,223949
 1.2000e+001 224248  4.1877e+005 -7.3058e+006  2.0428e+005 119875 224124,224176,224150
 1.2000e+001 224225 -1.0989e+006 -1.4356e+007 -6.8578e+005 119875 224098,224176,224124
 1.2000e+001 224202 -1.0051e+006 -4.2427e+006 -2.5439e+005 119875 224072,224176,224098
 1.2000e+001 224449 -1.7876e+005 -5.8953e+006 -2.2166e+005 119677 224325,224377,224351
 1.2000e+001 224426 -6.9957e+005 -7.9981e+006  1.1586e+005 119677 224299,224377,224325
 1.2000e+001 224403 -3.6669e+005 -8.6975e+006  3.9033e+005 119677 224273,224377,224299
 1.2000e+001 224552 -9.6449e+005 -7.0819e+006 -4.4891e+005 119273 224474,224526,224500
 1.2000e+001 224704 -2.6122e+006 -1.2160e+007 -2.1315e+006 118983 224603,224655,224629
 1.2000e+001 224681 -1.6937e+006 -1.1972e+007 -1.9627e+006 118983 224577,224655,224603
 1.2000e+001 224856 -2.5807e+005 -1.2209e+007 -1.0666e+006 118529 224755,224807,224781
 1.2000e+001 224833 -4.5715e+003 -1.3072e+007 -1.2609e+006 118529 224729,224807,224755
 1.2000e+001 225008  4.0442e+004 -7.2626e+006  7.6515e+003 118353 224881,224933,224907
 1.2000e+001 224985 -9.7887e+004 -6.9381e+006  1.2756e+005 118353 224881,224959,224933
 1.2000e+001 225209 -1.0192e+006 -6.2386e+006 -4.9226e+005 117949 225059,225137,225111
 1.2000e+001 225186 -8.5459e+005 -6.3670e+006 -9.5084e+005 117949 225033,225137,225059
 1.2000e+001 225163  5.0740e+004 -9.2685e+006  5.7256e+005 117949 225059,225111,225085
 1.2000e+001 225410  5.5822e+004 -6.8655e+006 -6.4928e+005 117559 225260,225338,225312
 1.2000e+001 225387 -1.0856e+006 -6.8636e+006  2.1025e+005 117559 225234,225338,225260
 1.2000e+001 225364 -7.0273e+005 -5.7395e+006 -2.0081e+006 117559 225260,225312,225286
 1.2000e+001 225611 -1.9741e+006 -1.2865e+007 -6.5996e+006 117361 225461,225513,225487
 1.2000e+001 225588  3.0777e+006 -1.2860e+007  6.1453e+005 117361 225461,225539,225513
 1.2000e+001 225565 -3.3234e+006 -4.3581e+006  5.9598e+006 117361 225435,225539,225461
 1.2000e+001 225812  3.7404e+005 -6.8961e+006 -2.6898e+005 116900 225636,225714,225662
 1.2000e+001 225789  6.6198e+005 -6.6838e+006 -4.3315e+005 116900 225636,225740,225714
 1.2000e+001 225766 -6.8022e+004 -6.8986e+006 -6.8588e+005 116900 225662,225714,225688
 1.2000e+001 225964 -1.2861e+005 -6.5952e+006  3.0942e+005 116560 225837,225889,225863
 1.2000e+001 225941 -3.3361e+004 -5.9429e+006  1.3850e+005 116560 225837,225915,225889
 1.2000e+001 226165 -9.7463e+004 -9.5568e+006  6.8801e+005 116106 226015,226093,226041
 1.2000e+001 226142  1.2067e+006 -1.3038e+007 -2.2742e+006 116106 225989,226093,226015
 1.2000e+001 226119 -2.5595e+006 -6.2322e+006  7.7463e+004 116106 226041,226093,226067
 1.2000e+001 226268 -1.4551e+006 -9.4417e+006  4.3402e+005 115716 226190,226242,226216
 1.2000e+001 226420 -6.0029e+005 -7.8894e+006  2.0668e+006 115376 226293,226345,226319
 1.2000e+001 226397 -7.3184e+005 -7.2682e+006  9.5505e+005 115376 226293,226371,226345
 1.2000e+001 226621  2.9554e+003 -5.7495e+006 -6.1899e+004 114972 226497,226549,226523
 1.2000e+001 226598 -6.1793e+005 -9.0031e+006 -8.2550e+005 114972 226445,226549,226497
 1.2000e+001 226575 -3.2233e+005 -6.2211e+006  2.0646e+005 114972 226445,226497,226471
 1.2000e+001 226773 -4.8717e+005 -5.8829e+006 -5.8754e+005 114670 226646,226698,226672
 1.2000e+001 226750 -2.0038e+005 -7.0571e+006 -1.5645e+005 114670 226646,226724,226698
 1.2000e+001 226974  2.1728e+005 -4.5094e+006 -2.2259e+005 114082 226798,226850,226824
 1.2000e+001 226951 -9.4482e+004 -3.5247e+006 -5.2074e+005 114082 226798,226902,226850
 1.2000e+001 226928 -2.3422e+005 -4.1574e+006 -5.1115e+005 114082 226850,226902,226876
 1.2000e+001 227175 -8.9223e+005 -7.6845e+006 -5.2139e+004 113678 226999,227051,227025
 1.2000e+001 227152 -1.5905e+006 -9.1970e+006 -8.2441e+005 113678 226999,227077,227051
 1.2000e+001 227129 -7.5825e+005 -1.1110e+007 -1.6746e+006 113678 226999,227103,227077
 1.2000e+001 227425 -1.2007e+005 -9.5190e+006 -4.0054e+005 113274 227226,227278,227252
 1.2000e+001 227402 -3.8470e+004 -9.4323e+006 -1.6426e+006 113274 227226,227330,227278
 1.2000e+001 227379  3.1943e+004 -1.0324e+007 -1.8696e+006 113274 227200,227330,227226
 1.2000e+001 227356 -3.5819e+006 -8.0713e+006  3.4999e+005 113274 227278,227330,227304
 1.2000e+001 227626  2.3237e+005 -4.2242e+006 -4.4761e+005 112934 227502,227554,227528
 1.2000e+001 227603  3.9172e+004 -3.8025e+006 -2.7839e+005 112934 227450,227554,227502
 1.2000e+001 227580 -6.8493e+005 -6.4851e+006 -7.5232e+005 112934 227450,227502,227476
 1.2000e+001 227876 -3.4823e+004 -4.5200e+006 -5.6022e+005 112437 227677,227755,227703
 1.2000e+001 227853 -7.7205e+005 -4.8367e+006  3.4439e+005 112437 227677,227781,227755
 1.2000e+001 227830 -5.4411e+005 -2.5320e+006  6.1617e+005 112437 227703,227755,227729
 1.2000e+001 227807 -4.9821e+005 -6.1478e+006 -1.1930e+005 112437 227651,227781,227677
 1.2000e+001 228126 -8.9092e+005 -5.2393e+006  4.6765e+005 112041 227927,228005,227953
 1.2000e+001 228103 -2.7129e+005 -8.1230e+006 -1.2132e+006 112041 227927,228031,228005
 1.2000e+001 228080 -1.0385e+006 -7.1463e+006  3.0670e+005 112041 227953,228005,227979
 1.2000e+001 228057 -9.7924e+004 -6.3812e+006 -1.0410e+006 112041 227901,228031,227927
 1.2000e+001 228327 -7.7686e+005 -7.7365e+006 -1.1792e+006 111693 228151,228203,228177
 1.2000e+001 228304 -7.9283e+005 -4.8166e+006 -1.3813e+006 111693 228151,228229,228203
 1.2000e+001 228281  3.9308e+005 -6.9525e+006  1.7631e+005 111693 228151,228255,228229
 1.2000e+001 228479 -1.7848e+006 -1.1107e+007 -4.0703e+006 111253 228352,228404,228378
 1.2000e+001 228456 -2.4659e+006 -8.2261e+006 -1.2295e+006 111253 228352,228430,228404
 1.2000e+001 228582 -3.3322e+000 -5.6422e+004  7.7918e+001 110906 228504,228556,228530
 1.2000e+001 228783 -6.5420e+005 -7.0157e+006  1.0957e+006 110416 228633,228711,228659
 1.2000e+001 228760 -4.3590e+005 -2.8709e+006  1.1931e+004 110416 228607,228711,228633
 1.2000e+001 228737 -1.4990e+005 -4.4500e+006  8.4376e+005 110416 228659,228711,228685
 1.2000e+001 228935 -1.6808e+005 -3.7341e+006 -1.5926e+005 110012 228808,228860,228834
 1.2000e+001 228912 -8.2439e+004 -7.2293e+006 -7.1042e+005 110012 228808,228886,228860
 1.2000e+001 229087 -8.8632e+005 -3.9474e+006 -1.0503e+006 109672 228960,229012,228986
 1.2000e+001 229064 -4.6841e+005 -6.5567e+006 -1.6335e+005 109672 228960,229038,229012
 1.2000e+001 229190  3.1726e+004 -7.2499e+005 -4.9798e+004 109332 229112,229164,229138
 1.2000e+001 229391 -1.7205e+005 -1.6150e+006 -2.6677e+005 109156 229267,229319,229293
 1.2000e+001 229368 -4.0175e+005 -2.9207e+006 -3.6139e+005 109156 229215,229319,229267
 1.2000e+001 229345 -2.2352e+005 -1.7684e+006  1.3299e+005 109156 229215,229267,229241
 1.2000e+001 229543  7.1149e+004 -9.4728e+006  7.4344e+005 108752 229416,229468,229442
 1.2000e+001 229520 -5.3876e+005 -9.5279e+006  8.9886e+005 108752 229416,229494,229468
 1.2000e+001 229744 -2.1423e+005 -7.7902e+006  1.6598e+005 108198 229594,229646,229620
 1.2000e+001 229721 -9.7760e+005 -8.0264e+006  6.9712e+005 108198 229594,229672,229646
 1.2000e+001 229698  3.6452e+005 -1.0646e+007 -7.2039e+005 108198 229568,229672,229594
 1.2000e+001 229847 -1.1666e+005 -2.9847e+006 -1.2676e+005 107758 229769,229821,229795
 1.2000e+001 230048 -9.8639e+005 -4.7514e+006 -1.1919e+006 107468 229898,229950,229924
 1.2000e+001 230025 -4.5331e+005 -4.1614e+006 -2.1527e+005 107468 229872,229950,229898
 1.2000e+001 230002 -6.3075e+005 -4.5880e+006  1.5257e+005 107468 229872,229976,229950
 1.2000e+001 230298  1.2853e+005 -4.6280e+006  4.4495e+005 107121 230099,230203,230177
 1.2000e+001 230275 -6.5573e+005 -3.6939e+006  5.8403e+004 107121 230073,230203,230099
 1.2000e+001 230252 -9.0945e+005 -5.0250e+006 -5.5466e+004 107121 230099,230177,230151
 1.2000e+001 230229 -5.1959e+005 -5.7845e+006  5.8187e+005 107121 230099,230151,230125
 1.2000e+001 230450  5.1743e+005 -5.9456e+006 -6.1227e+005 106823 230349,230401,230375
 1.2000e+001 230427 -3.6436e+005 -1.5033e+006  3.5031e+005 106823 230323,230401,230349
 1.2000e+001 230602 -1.1022e+006 -7.6072e+006 -1.3701e+006 106533 230501,230553,230527
 1.2000e+001 230579 -1.1276e+006 -8.3183e+006 -2.2643e+006 106533 230475,230553,230501
 1.2000e+001 230803 -5.0536e+005 -2.6637e+006  4.2856e+005 106029 230679,230731,230705
 1.2000e+001 230780 -1.2011e+006 -5.7884e+006  9.3586e+005 106029 230653,230731,230679
 1.2000e+001 230757 -1.7123e+005 -6.5795e+006  1.1903e+006 106029 230627,230731,230653
 1.2000e+001 231004  1.0144e+005 -4.8837e+006 -2.2198e+005 105689 230854,230906,230880
 1.2000e+001 230981  8.1151e+004 -5.0666e+006 -4.1371e+005 105689 230828,230906,230854
 1.2000e+001 230958 -8.0791e+005 -4.2946e+006 -1.0320e+006 105689 230828,230932,230906
 1.2000e+001 231156 -9.7535e+005 -4.2786e+006  1.0526e+006 105377 231055,231107,231081
 1.2000e+001 231133  1.1657e+006 -1.3298e+007 -1.4438e+006 105377 231029,231107,231055
 1.2000e+001 231406  7.1516e+004 -7.3479e+006 -2.7959e+005 104858 231207,231259,231233
 1.2000e+001 231383 -1.0711e+006 -7.4166e+006 -4.8048e+005 104858 231207,231311,231259
 1.2000e+001 231360 -7.3354e+005 -1.1039e+007 -9.0803e+005 104858 231259,231311,231285
 1.2000e+001 231337 -4.1186e+005 -9.8833e+006 -1.1047e+006 104858 231181,231311,231207
 1.2000e+001 231558 -8.5645e+005 -4.2539e+006  2.2549e+006 104418 231457,231509,231483
 1.2000e+001 231535 -2.0636e+005 -4.1239e+006  5.0648e+005 104418 231431,231509,231457
 1.2000e+001 231710 -5.2736e+005 -4.2558e+006 -3.7572e+005 103978 231583,231635,231609
 1.2000e+001 231687 -5.9628e+005 -3.0869e+006 -4.4462e+005 103978 231583,231661,231635
 1.2000e+001 231862 -2.5595e+004 -1.0023e+006 -8.7152e+004 103588 231761,231813,231787
 1.2000e+001 231839 -1.6108e+004 -9.6453e+005 -8.4239e+004 103588 231735,231813,231761
 1.2000e+001 232014 -1.3811e+006 -8.4327e+006 -2.3026e+006 103248 231887,231939,231913
 1.2000e+001 231991  3.9257e+005 -1.4046e+007 -3.0168e+006 103248 231887,231965,231939
 1.2000e+001 232215 -3.5050e+005 -3.5957e+006  4.3353e+005 102844 232039,232117,232065
 1.2000e+001 232192 -2.0896e+005 -4.3884e+006 -1.6041e+005 102844 232039,232143,232117
 1.2000e+001 232169 -1.8567e+005 -3.3504e+006  2.5888e+005 102844 232065,232117,232091
 1.2000e+001 232416 -2.2397e+006 -9.7406e+006 -1.7909e+006 102554 232240,232318,232292
 1.2000e+001 232393  9.5588e+005 -1.2663e+007 -1.4320e+004 102554 232240,232344,232318
 1.2000e+001 232370 -2.3077e+006 -8.5494e+006 -1.4210e+006 102554 232240,232292,232266
 1.2000e+001 232568 -6.6459e+005 -5.3872e+006  1.2290e+006 102100 232441,232493,232467
 1.2000e+001 232545 -6.8676e+005 -4.9465e+006  3.3973e+005 102100 232441,232519,232493
 1.2000e+001 232769 -2.0802e+005 -1.5451e+006 -1.6822e+005 101596 232645,232697,232671
 1.2000e+001 232746 -4.3279e+005 -2.4349e+006 -2.0834e+005 101596 232593,232697,232645
 1.2000e+001 232723  5.7993e+004 -5.6376e+006 -3.6804e+005 101596 232593,232645,232619
 1.2000e+001 232921 -1.7887e+004 -7.5742e+005 -5.8729e+003 101420 232794,232846,232820
 1.2000e+001 232898 -7.2870e+003 -6.0581e+005  8.4104e+003 101420 232794,232872,232846
 1.2000e+001 233073 -1.2290e+006 -5.0403e+006 -5.7772e+005 101023 232946,232998,232972
 1.2000e+001 233050 -3.4000e+005 -6.9119e+006  8.1140e+005 101023 232946,233024,232998
 1.2000e+001 233225 -2.1453e+005 -4.6961e+006 -6.0181e+003 100661 233098,233150,233124
 1.2000e+001 233202  2.1017e+005 -6.9670e+006  1.5407e+005 100661 233098,233176,233150
 1.2000e+001 233426 -1.0575e+006 -6.3403e+006 -1.4598e+006 100265 233276,233328,233302
 1.2000e+001 233403 -8.0468e+005 -5.8906e+006 -4.4839e+005 100265 233276,233354,233328
 1.2000e+001 233380 -8.5390e+005 -8.1377e+006 -9.1945e+005 100265 233250,233354,233276
 1.2000e+001 233578 -4.3058e+005 -1.1894e+006 -9.0425e+005 100032 233451,233503,233477
 1.2000e+001 233555 -1.5864e+005 -1.2122e+006  4.5456e+002 100032 233451,233529,233503
 1.2000e+001 233681 -8.0572e+004 -9.9074e+005  7.9592e+004 99742 233603,233655,233629
 1.2000e+001 233784 -3.1802e+005 -5.1178e+006  2.5736e+004 99402 233706,233758,233732
 1.2000e+001 233936 -7.5202e+005 -3.6656e+006  1.3053e+005 99062 233835,233887,233861
 1.2000e+001 233913 -4.5463e+005 -2.3452e+006 -3.6592e+005 99062 233809,233887,233835
 1.2000e+001 234088 -4.4829e+005 -3.9094e+006  5.4257e+005 98772 233987,234039,234013
 1.2000e+001 234065 -1.0507e+006 -4.0585e+006  1.7478e+006 98772 233961,234039,233987
 1.2000e+001 234240 -1.3397e+005 -1.7102e+006  3.3954e+005 98160 234139,234191,234165
 1.2000e+001 234217 -4.2124e+004 -1.0309e+006  1.0215e+005 98160 234113,234191,234139
 1.2000e+001 234441 -1.5859e+005 -3.7569e+006  2.8399e+005 97820 234317,234369,234343
 1.2000e+001 234418 -2.1928e+005 -3.9616e+006  9.6095e+004 97820 234291,234369,234317
 1.2000e+001 234395 -3.4434e+005 -4.4376e+006 -4.8308e+004 97820 234265,234369,234291
 1.2000e+001 234593 -8.0981e+005 -3.0225e+006  4.2467e+004 97366 234466,234518,234492
 1.2000e+001 234570 -1.3470e+005 -6.3818e+006 -1.7444e+004 97366 234466,234544,234518
 1.2000e+001 234794 -1.0897e+006 -2.3261e+006 -4.9908e+005 96976 234618,234670,234644
 1.2000e+001 234771 -3.5347e+005 -6.0491e+006  2.6312e+005 96976 234618,234722,234670
 1.2000e+001 234748 -7.7329e+005 -4.0178e+006 -1.0107e+006 96976 234670,234722,234696
 1.2000e+001 234946 -8.1935e+005 -2.5504e+006  8.3510e+005 96568 234845,234897,234871
 1.2000e+001 234923 -8.2788e+005 -2.1000e+006  4.1935e+005 96568 234819,234897,234845
 1.2000e+001 235196 -1.1022e+005 -2.6257e+006 -1.2703e+005 96216 234997,235075,235049
 1.2000e+001 235173 -7.5865e+004 -5.3412e+006  9.1555e+005 96216 234997,235101,235075
 1.2000e+001 235150 -7.1927e+005 -4.4567e+006  3.2987e+005 96216 234997,235049,235023
 1.2000e+001 235127 -1.2693e+005 -5.9928e+006 -7.1565e+005 96216 234971,235101,234997
 1.2000e+001 235348 -9.3334e+005 -2.2969e+006 -1.2449e+006 95863 235247,235299,235273
 1.2000e+001 235325 -6.9664e+005 -1.6630e+006 -1.0610e+006 95863 235221,235299,235247
 1.2000e+001 235500 -1.4161e+006 -5.2321e+006 -1.5825e+006 95339 235373,235425,235399
 1.2000e+001 235477 -1.0050e+006 -7.4558e+006  1.6033e+006 95339 235373,235451,235425
 1.2000e+001 235701  1.6325e+004 -4.7771e+006  1.1852e+006 95023 235525,235577,235551
 1.2000e+001 235678 -6.3798e+004 -2.9780e+006 -2.0993e+005 95023 235525,235629,235577
 1.2000e+001 235655 -7.7689e+005 -3.0359e+006  9.7724e+004 95023 235577,235629,235603
 1.2000e+001 235853  7.4559e+005 -7.6908e+006  1.0998e+006 94671 235726,235778,235752
 1.2000e+001 235830 -3.4012e+005 -5.3191e+006 -6.8051e+005 94671 235726,235804,235778
 1.2000e+001 236005 -9.2962e+005 -5.8175e+006 -4.9561e+005 94261 235904,235956,235930
 1.2000e+001 235982 -1.3368e+006 -6.8432e+006 -1.4265e+006 94261 235878,235956,235904
 1.2000e+001 236206 -8.6107e+005 -2.1903e+006  1.3188e+006 93853 236056,236134,236082
 1.2000e+001 236183 -1.9064e+005 -2.0939e+006 -1.9180e+005 93853 236030,236134,236056
 1.2000e+001 236160 -4.7041e+005 -4.1876e+006  9.5953e+005 93853 236082,236134,236108
 1.2000e+001 236407 -8.8672e+005 -5.3078e+006 -1.9700e+005 93557 236257,236309,236283
 1.2000e+001 236384 -1.5842e+006 -5.6474e+006 -9.6740e+005 93557 236231,236309,236257
 1.2000e+001 236361 -4.3558e+005 -8.1290e+006 -2.4765e+005 93557 236231,236335,236309
 1.2000e+001 236559 -1.6880e+005 -1.9446e+006 -1.7482e+005 93149 236432,236484,236458
 1.2000e+001 236536 -2.2918e+005 -2.0300e+006 -2.3364e+005 93149 236432,236510,236484
 1.2000e+001 236711 -7.6774e+004 -2.7367e+006  5.2715e+005 92853 236584,236636,236610
 1.2000e+001 236688  1.3995e+004 -2.9920e+006  5.4708e+005 92853 236584,236662,236636
 1.2000e+001 236912 -9.1055e+004 -4.6843e+006  6.8637e+005 92501 236736,236788,236762
 1.2000e+001 236889 -2.1462e+005 -3.8656e+006  2.2343e+005 92501 236736,236840,236788
 1.2000e+001 236866 -3.2130e+005 -3.5602e+006  6.9006e+005 92501 236788,236840,236814
 1.2000e+001 237113 -3.7661e+004 -3.8564e+006  4.0130e+005 92291 236963,237041,237015
 1.2000e+001 237090  1.4168e+004 -2.5481e+006  1.6671e+005 92291 236937,237041,236963
 1.2000e+001 237067 -1.9370e+005 -3.6316e+006  8.3855e+005 92291 236963,237015,236989
 1.2000e+001 237265 -8.1294e+005 -2.7615e+006 -1.2654e+005 91871 237138,237190,237164
 1.2000e+001 237242 -1.2389e+006 -3.1141e+006 -5.4052e+005 91871 237138,237216,237190
 1.2000e+001 237368 -5.5260e+002 -3.4801e+006  3.6926e+002 91581 237290,237342,237316
 1.2000e+001 237520 -4.1071e+005 -2.0889e+006  7.6965e+005 91184 237419,237471,237445
 1.2000e+001 237497 -3.2854e+005 -2.9519e+006  2.2444e+002 91184 237393,237471,237419
 1.2000e+001 237672 -1.0293e+006 -3.1729e+006  1.5391e+005 90894 237545,237597,237571
 1.2000e+001 237649 -7.6793e+005 -3.7550e+006  3.7320e+005 90894 237545,237623,237597
 1.2000e+001 237873 -6.4992e+005 -4.8192e+006  1.3977e+005 90490 237749,237801,237775
 1.2000e+001 237850 -1.5332e+005 -4.4037e+006  5.6282e+005 90490 237723,237801,237749
 1.2000e+001 237827 -1.4019e+005 -4.4126e+006 -1.5975e+006 90490 237697,237801,237723
 1.2000e+001 238074 -9.0149e+005 -6.4303e+006 -2.1152e+005 90100 237898,237976,237950
 1.2000e+001 238051 -1.5831e+006 -6.6498e+006 -7.0519e+004 90100 237898,238002,237976
 1.2000e+001 238028 -5.8248e+005 -6.5561e+006 -4.5983e+005 90100 237898,237950,237924
 1.2000e+001 238275 -9.1936e+005 -5.0141e+006  4.3233e+005 89696 238125,238177,238151
 1.2000e+001 238252 -9.6344e+005 -4.1301e+006 -1.2569e+006 89696 238099,238177,238125
 1.2000e+001 238229 -1.7419e+006 -5.5176e+006 -6.8294e+005 89696 238099,238203,238177
 1.2000e+001 238427 -1.1622e+005 -2.3806e+006 -3.3315e+004 89206 238326,238378,238352
 1.2000e+001 238404  2.0894e+005 -3.3534e+006  1.2916e+005 89206 238300,238378,238326
 1.2000e+001 238579 -9.7730e+005 -5.3087e+006  7.2182e+005 88908 238452,238504,238478
 1.2000e+001 238556 -5.4795e+005 -5.4075e+006  1.1447e+006 88908 238452,238530,238504
 1.2000e+001 238682 -1.1701e+002 -3.6600e+005 -3.0274e+002 88568 238604,238656,238630
 1.2000e+001 238883 -6.9398e+004 -3.6429e+006  4.1091e+005 88278 238733,238811,238785
 1.2000e+001 238860 -3.9191e+004 -3.9210e+006  3.9611e+005 88278 238707,238811,238733
 1.2000e+001 238837 -1.2378e+005 -3.5364e+006  6.6148e+005 88278 238733,238785,238759
 1.2000e+001 239035 -5.0021e+005 -6.0784e+006 -1.4678e+005 87988 238908,238960,238934
 1.2000e+001 239012 -1.0662e+006 -5.1902e+006  8.0637e+005 87988 238908,238986,238960
 1.2000e+001 239138 -1.2642e+005 -3.3960e+006 -9.2485e+004 87648 239060,239112,239086
 1.2000e+001 239339 -8.4366e+005 -4.0961e+006 -1.4189e+006 87358 239163,239215,239189
 1.2000e+001 239316 -1.2552e+006 -4.5737e+006  7.6640e+004 87358 239163,239241,239215
 1.2000e+001 239293 -7.4549e+005 -2.4158e+006 -8.7209e+005 87358 239163,239267,239241
 1.2000e+001 239589 -1.1173e+003 -2.8617e+006  2.4084e+005 86961 239390,239468,239416
 1.2000e+001 239566  5.0109e+004 -2.9178e+006  1.3086e+005 86961 239390,239494,239468
 1.2000e+001 239543 -1.0214e+005 -8.8202e+005  1.0422e+005 86961 239416,239468,239442
 1.2000e+001 239520 -4.8469e+005 -1.6537e+006  3.4247e+005 86961 239364,239494,239390
 1.2000e+001 239741 -1.0960e+006 -5.0145e+006 -1.0947e+006 86621 239640,239692,239666
 1.2000e+001 239718 -4.5848e+005 -5.7163e+006 -1.5697e+006 86621 239614,239692,239640
 1.2000e+001 239893 -7.3390e+004 -4.6268e+006  2.9196e+005 86217 239792,239844,239818
 1.2000e+001 239870 -2.4158e+005 -4.4801e+006 -2.7609e+004 86217 239766,239844,239792
 1.2000e+001 240045 -6.1233e+005 -4.2390e+006 -9.4142e+004 85827 239918,239970,239944
 1.2000e+001 240022 -1.1228e+005 -4.1215e+006  1.2800e+005 85827 239918,239996,239970
 1.2000e+001 240197 -8.4933e+004 -5.0357e+006  6.3378e+005 85437 240096,240148,240122
 1.2000e+001 240174 -8.6089e+005 -4.2095e+006 -2.0765e+005 85437 240070,240148,240096
 1.2000e+001 240349 -2.6338e+005 -2.7736e+006  9.4627e+005 85147 240222,240274,240248
 1.2000e+001 240326 -3.5834e+005 -1.5751e+006 -1.6245e+005 85147 240222,240300,240274
 1.2000e+001 240501 -8.1875e+005 -3.2710e+006  3.2291e+005 84807 240374,240426,240400
 1.2000e+001 240478 -1.0508e+006 -3.3322e+006  3.5929e+005 84807 240374,240452,240426
 1.2000e+001 240653 -1.1119e+004 -3.7037e+005 -6.2804e+004 84303 240552,240604,240578
 1.2000e+001 240630 -1.0186e+004 -3.6696e+005 -6.2380e+004 84303 240526,240604,240552
 1.2000e+001 240854 -2.0165e+005 -8.0197e+006 -2.1814e+006 83929 240704,240756,240730
 1.2000e+001 240831  6.4237e+005 -7.1114e+006  9.2614e+005 83929 240704,240782,240756
 1.2000e+001 240808 -1.4272e+006 -1.9797e+006  1.1839e+006 83929 240678,240782,240704
 1.2000e+001 241055 -1.7943e+004 -1.8631e+006 -1.7616e+005 83539 240879,240957,240931
 1.2000e+001 241032 -6.2830e+005 -2.1299e+006  6.1762e+004 83539 240879,240983,240957
 1.2000e+001 241009 -3.2657e+005 -1.0135e+006 -1.9529e+005 83539 240879,240931,240905
 1.2000e+001 241207  1.7155e+005 -3.4282e+006  3.1565e+005 83079 241106,241158,241132
 1.2000e+001 241184 -4.1372e+005 -1.4812e+006  3.6768e+005 83079 241080,241158,241106
 1.2000e+001 241408  8.3630e+005 -4.9791e+006  2.2820e+004 82665 241232,241284,241258
 1.2000e+001 241385 -1.1449e+006 -1.1331e+007 -2.9498e+006 82665 241232,241336,241284
 1.2000e+001 241362 -3.1174e+006  2.3165e+006  5.2057e+006 82665 241284,241336,241310
 1.2000e+001 241658 -1.0468e+005 -3.6029e+006  2.5584e+005 82375 241485,241563,241511
 1.2000e+001 241635  1.2296e+005 -2.4833e+006  2.1746e+005 82375 241433,241563,241485
 1.2000e+001 241612 -4.2295e+003 -2.9175e+006  3.0201e+005 82375 241433,241485,241459
 1.2000e+001 241589 -4.1773e+005 -4.0949e+006  4.9024e+005 82375 241511,241563,241537
 1.2000e+001 241810 -7.0623e+005 -3.7711e+006  1.1766e+005 82035 241683,241735,241709
 1.2000e+001 241787 -9.9046e+005 -3.9556e+006  3.0102e+005 82035 241683,241761,241735
 1.2000e+001 241962 -8.0391e+005 -4.7560e+006 -1.5791e+005 81695 241861,241913,241887
 1.2000e+001 241939 -7.5735e+005 -4.6165e+006  5.8970e+004 81695 241835,241913,241861
 1.2000e+001 242114 -1.3973e+006 -4.6920e+006  3.1866e+004 81355 242013,242065,242039
 1.2000e+001 242091 -1.2150e+006 -3.8490e+006  1.9978e+005 81355 241987,242065,242013
 1.2000e+001 242266 -4.6077e+005 -2.1584e+006 -6.8048e+005 80951 242139,242191,242165
 1.2000e+001 242243 -5.5854e+005 -2.6924e+006 -3.2773e+005 80951 242139,242217,242191
 1.2000e+001 242467 -6.6153e+004 -3.7383e+006  3.1498e+005 80311 242291,242369,242343
 1.2000e+001 242444  1.1252e+005 -3.1091e+006  2.2495e+005 80311 242291,242395,242369
 1.2000e+001 242421 -6.8571e+004 -3.6311e+006  2.9286e+005 80311 242291,242343,242317
 1.2000e+001 242619 -1.6187e+006 -3.6444e+006 -4.9507e+005 80021 242492,242544,242518
 1.2000e+001 242596 -1.5211e+006 -3.3324e+006  3.7180e+002 80021 242492,242570,242544
 1.2000e+001 242869 -3.1765e+005 -3.0203e+006 -2.4118e+004 79631 242644,242722,242696
 1.2000e+001 242846 -2.3626e+005 -3.0925e+006 -3.1912e+004 79631 242644,242774,242722
 1.2000e+001 242823 -3.3821e+005 -3.1103e+006  4.1992e+005 79631 242722,242774,242748
 1.2000e+001 242800 -3.3508e+005 -2.8474e+006 -2.3693e+005 79631 242644,242696,242670
 1.2000e+001 243070 -2.7393e+005 -1.0669e+007  1.4305e+006 79341 242920,242972,242946
 1.2000e+001 243047 -9.0544e+005 -6.3692e+006 -6.6443e+005 79341 242920,242998,242972
 1.2000e+001 243024 -7.1943e+005 -4.0422e+006  1.4387e+006 79341 242894,242998,242920
 1.2000e+001 243222  4.7981e+004 -2.0365e+006  5.2778e+005 78801 243121,243173,243147
 1.2000e+001 243199 -4.5285e+005 -3.7841e+006  9.5248e+005 78801 243095,243173,243121
 1.2000e+001 243423 -2.0997e+005 -6.5625e+006 -7.6066e+004 78511 243273,243325,243299
 1.2000e+001 243400 -4.0731e+005 -7.6092e+006  5.2392e+005 78511 243273,243351,243325
 1.2000e+001 243377 -4.2213e+003 -7.5290e+006  1.7725e+005 78511 243247,243351,243273
 1.2000e+001 243624 -3.2132e+005 -3.4839e+006 -4.0719e+005 78107 243474,243552,243526
 1.2000e+001 243601 -3.1527e+005 -2.6652e+006 -5.8857e+005 78107 243448,243552,243474
 1.2000e+001 243578 -8.2310e+005 -4.1434e+006 -1.0069e+006 78107 243474,243526,243500
 1.2000e+001 243776 -6.7954e+005 -4.1421e+006 -1.0872e+006 77653 243649,243701,243675
 1.2000e+001 243753 -1.5454e+006 -5.9275e+006 -2.8842e+005 77653 243649,243727,243701
 1.2000e+001 243977 -4.1959e+005 -5.0189e+006 -5.6234e+005 77093 243801,243853,243827
 1.2000e+001 243954 -1.2332e+005 -4.1822e+006  4.9193e+004 77093 243801,243879,243853
 1.2000e+001 243931 -1.9715e+005 -4.4155e+006  1.4460e+005 77093 243801,243905,243879
 1.2000e+001 244080 -1.2639e+006 -4.7213e+006  2.9635e+005 76791 244002,244054,244028
 1.2000e+001 244232 -3.7958e+005 -4.8069e+006  2.2726e+005 76311 244131,244183,244157
 1.2000e+001 244209 -7.2716e+004 -6.8550e+006  6.9538e+005 76311 244105,244183,244131
 1.2000e+001 244433 -8.7608e+005 -1.0329e+007  1.2156e+006 75903 244283,244335,244309
 1.2000e+001 244410 -3.6170e+005 -8.9712e+006  2.3393e+005 75903 244283,244361,244335
 1.2000e+001 244387 -1.6045e+006 -7.4166e+006  1.4080e+006 75903 244257,244361,244283
 1.2000e+001 244585 -1.6032e+005 -1.0797e+007  5.4066e+005 75419 244458,244510,244484
 1.2000e+001 244562 -3.9975e+005 -7.9207e+006 -1.2523e+005 75419 244458,244536,244510
 1.2000e+001 244737 -3.7917e+005 -2.4368e+006 -1.4786e+005 75215 244636,244688,244662
 1.2000e+001 244714 -3.0890e+005 -4.7769e+006 -1.6967e+005 75215 244610,244688,244636
 1.2000e+001 244889 -1.1067e+006 -4.1916e+006 -1.1012e+005 74857 244788,244840,244814
 1.2000e+001 244866 -8.5411e+005 -3.2101e+006 -4.2372e+004 74857 244762,244840,244788
 1.2000e+001 245041  3.9865e+004 -3.2243e+005 -8.9773e+004 74653 244940,244992,244966
 1.2000e+001 245018 -9.4977e+003 -2.2861e+005  4.1045e+004 74653 244914,244992,244940
 1.2000e+001 245144  8.5726e+004 -5.4079e+006 -3.0521e+005 74359 245066,245118,245092
 1.2000e+001 245296 -4.5398e+005 -2.7561e+006 -7.6158e+005 74007 245169,245221,245195
 1.2000e+001 245273 -5.3380e+005 -3.3899e+006 -7.5908e+005 74007 245169,245247,245221
 1.2000e+001 245448 -1.2964e+006 -5.8922e+006  1.9956e+006 73711 245321,245373,245347
 1.2000e+001 245425 -4.6294e+005 -5.6776e+006 -1.8360e+006 73711 245321,245399,245373
 1.2000e+001 245600  7.4665e+005 -9.1107e+006 -1.1514e+006 73301 245499,245551,245525
 1.2000e+001 245577 -1.2443e+006 -6.1143e+006  1.2774e+006 73301 245473,245551,245499
 1.2000e+001 245752  4.6718e+004 -3.9930e+006 -1.0058e+006 72995 245625,245677,245651
 1.2000e+001 245729  4.9930e+005 -6.3682e+006 -8.7689e+005 72995 245625,245703,245677
 1.2000e+001 245953 -1.9067e+006 -9.1847e+006  7.2283e+005 72585 245777,245829,245803
 1.2000e+001 245930 -1.1272e+006 -9.5418e+006  1.6923e+006 72585 245777,245855,245829
 1.2000e+001 245907 -8.7796e+005 -8.5566e+006  1.3272e+006 72585 245777,245881,245855
 1.2000e+001 246154 -2.4101e+005 -4.4701e+006  1.0256e+006 72127 246030,246082,246056
 1.2000e+001 246131 -8.9170e+005 -6.4792e+006  5.8002e+005 72127 245978,246082,246030
 1.2000e+001 246108 -1.3050e+005 -6.4598e+006  1.5738e+005 72127 245978,246030,246004
 1.2000e+001 246257 -8.7368e+005 -3.2980e+006 -2.3311e+005 71737 246179,246231,246205
 1.2000e+001 246360 -1.4550e+005 -2.4542e+006  2.0977e+005 71447 246282,246334,246308
 1.2000e+001 246512 -3.0189e+005 -3.1432e+006  6.9080e+005 71157 246385,246437,246411
 1.2000e+001 246489 -8.9686e+004 -3.0034e+006  5.0961e+005 71157 246385,246463,246437
 1.2000e+001 246664 -3.5944e+005 -3.4212e+006 -3.9973e+005 70753 246537,246589,246563
 1.2000e+001 246641 -7.0628e+005 -3.0393e+006 -2.1208e+005 70753 246537,246615,246589
 1.2000e+001 246865 -9.8465e+005 -7.4218e+006  2.4944e+006 70249 246715,246767,246741
 1.2000e+001 246842 -1.2528e+006 -7.0331e+006  4.7113e+005 70249 246715,246793,246767
 1.2000e+001 246819 -8.1076e+005 -8.6821e+006 -6.2871e+005 70249 246689,246793,246715
 1.2000e+001 247066 -2.1339e+005 -2.7940e+006  4.3220e+005 70023 246916,246994,246942
 1.2000e+001 247043  2.1693e+005 -3.8848e+006 -2.0378e+004 70023 246890,246994,246916
 1.2000e+001 247020 -2.7083e+005 -2.6226e+006  5.8702e+004 70023 246942,246994,246968
 1.2000e+001 247267 -2.9943e+005 -4.5189e+006 -2.8507e+005 69633 247091,247143,247117
 1.2000e+001 247244 -1.1528e+005 -3.9489e+006 -1.5691e+005 69633 247091,247169,247143
 1.2000e+001 247221 -7.6252e+003 -2.9973e+006 -1.0985e+005 69633 247091,247195,247169
 1.2000e+001 247419 -6.0094e+005 -5.6961e+006  5.1297e+005 69457 247318,247370,247344
 1.2000e+001 247396 -9.6881e+005 -4.3649e+006  4.9430e+005 69457 247292,247370,247318
 1.2000e+001 247522 -8.1535e-001 -3.2417e+004 -1.4228e+002 69209 247444,247496,247470
 1.2000e+001 247625 -1.9422e+006 -2.8184e+006 -3.0233e+005 68919 247547,247599,247573
 1.2000e+001 247777  2.8999e+005 -5.9326e+006 -8.9615e+005 68579 247650,247702,247676
 1.2000e+001 247754 -4.8925e+005 -3.7065e+006 -3.9787e+005 68579 247650,247728,247702
 1.2000e+001 247929 -5.4130e+005 -3.4484e+006  1.5517e+006 68289 247802,247854,247828
 1.2000e+001 247906 -3.5572e+005 -2.6437e+006  8.4692e+005 68289 247802,247880,247854
 1.2000e+001 248081 -3.7941e+005 -4.5674e+006  1.0717e+006 67949 247980,248032,248006
 1.2000e+001 248058 -6.9674e+005 -2.0511e+006  2.0216e+004 67949 247954,248032,247980
 1.2000e+001 248233 -1.3969e+006 -6.0679e+006 -6.6356e+005 67616 248132,248184,248158
 1.2000e+001 248210 -7.2598e+005 -6.0732e+006 -4.2495e+005 67616 248106,248184,248132
 1.2000e+001 248434 -2.2244e+005 -4.1021e+006 -5.4097e+005 67212 248284,248336,248310
 1.2000e+001 248411 -8.5740e+004 -4.1965e+006 -9.8308e+005 67212 248258,248336,248284
 1.2000e+001 248388 -1.5253e+006 -3.8204e+006 -7.2570e+005 67212 248258,248362,248336
 1.2000e+001 248586  3.7766e+004 -4.6293e+006  5.8782e+005 66872 248485,248537,248511
 1.2000e+001 248563 -9.4972e+005 -2.3197e+006 -2.6126e+005 66872 248459,248537,248485
 1.2000e+001 248738 -2.6446e+005 -5.4049e+006  1.1515e+005 66510 248637,248689,248663
 1.2000e+001 248715 -3.8110e+005 -8.2968e+006  1.7442e+005 66510 248611,248689,248637
 1.2000e+001 248890 -5.1580e+004 -1.2175e+006  2.4982e+005 66220 248789,248841,248815
 1.2000e+001 248867 -4.8312e+005 -1.6974e+006 -5.0002e+005 66220 248763,248841,248789
 1.2000e+001 249091 -8.0306e+005 -5.5261e+006  1.9685e+006 65759 248915,248967,248941
 1.2000e+001 249068 -5.0717e+005 -4.4329e+006  1.6180e+006 65759 248915,248993,248967
 1.2000e+001 249045 -4.2688e+005 -4.2926e+006  1.5246e+006 65759 248915,249019,248993
 1.2000e+001 249243 -1.7676e+005 -7.8077e+006  1.5591e+006 65419 249142,249194,249168
 1.2000e+001 249220 -4.4005e+005 -5.0429e+006  3.4864e+005 65419 249116,249194,249142
 1.2000e+001 249395 -3.8411e+005 -3.0511e+006 -2.5924e+005 65079 249268,249320,249294
 1.2000e+001 249372 -3.8346e+005 -3.8412e+006 -5.0200e+005 65079 249268,249346,249320
 1.2000e+001 249547 -5.8545e+004 -1.3482e+006 -9.8471e+004 64739 249420,249472,249446
 1.2000e+001 249524 -5.4392e+005 -1.5139e+006  4.0402e+004 64739 249420,249498,249472
 1.2000e+001 249650 -8.1210e+005 -4.5491e+006 -1.4261e+006 64342 249572,249624,249598
 1.2000e+001 249851 -1.3101e+006 -7.1618e+006 -1.2151e+006 63938 249701,249779,249753
 1.2000e+001 249828 -9.0210e+005 -7.6506e+006  2.2960e+006 63938 249675,249779,249701
 1.2000e+001 249805 -1.0537e+006 -1.8730e+007 -6.1972e+005 63938 249701,249753,249727
 1.2000e+001 250052 -1.0236e+006 -5.4389e+006 -2.5944e+005 63341 249876,249954,249902
 1.2000e+001 250029 -8.6970e+005 -5.5032e+006 -4.4108e+005 63341 249876,249980,249954
 1.2000e+001 250006  5.1778e+005 -5.9528e+006  1.8570e+005 63341 249902,249954,249928
 1.2000e+001 250253 -3.1181e+005 -1.1335e+007 -1.4481e+006 63058 250077,250129,250103
 1.2000e+001 250230 -1.1027e+006 -6.7342e+006 -4.0304e+005 63058 250077,250155,250129
 1.2000e+001 250207 -4.7178e+005 -6.4807e+006 -6.1915e+005 63058 250077,250181,250155
 1.2000e+001 250454 -1.0085e+006 -7.2557e+006  1.3943e+006 62832 250304,250382,250330
 1.2000e+001 250431  2.2020e+005 -9.1115e+006 -2.4048e+006 62832 250278,250382,250304
 1.2000e+001 250408 -2.4472e+006 -4.4560e+006  3.2199e+005 62832 250330,250382,250356
 1.2000e+001 250606  2.0132e+005 -1.0367e+007 -2.1275e+005 62428 250479,250531,250505
 1.2000e+001 250583 -2.6039e+004 -8.6359e+006 -5.6925e+005 62428 250479,250557,250531
 1.2000e+001 250758 -2.3770e+005 -6.8979e+006  6.0904e+005 62202 250631,250683,250657
 1.2000e+001 250735 -2.0008e+005 -7.8707e+006  2.0465e+006 62202 250631,250709,250683
 1.2000e+001 250861 -1.3227e+006 -2.6613e+006  9.0139e+004 61954 250783,250835,250809
 1.2000e+001 251062 -1.7850e+006 -8.1551e+006 -6.4054e+005 61557 250912,250990,250938
 1.2000e+001 251039 -2.7028e+005 -8.6949e+006 -3.3998e+005 61557 250886,250990,250912
 1.2000e+001 251016 -1.5248e+006 -8.8830e+006 -1.1894e+006 61557 250938,250990,250964
 1.2000e+001 251263 -9.8982e+005 -7.4611e+006  1.2190e+004 61167 251113,251165,251139
 1.2000e+001 251240 -5.3961e+005 -7.1086e+006 -2.5715e+005 61167 251113,251191,251165
 1.2000e+001 251217 -1.1759e+006 -6.8866e+006  1.9562e+006 61167 251087,251191,251113
 1.2000e+001 251415 -9.5231e+005 -4.0156e+006  9.9697e+005 60827 251288,251340,251314
 1.2000e+001 251392 -7.1368e+005 -1.7075e+006 -1.9101e+005 60827 251288,251366,251340
 1.2000e+001 251567  5.8771e+004 -4.8202e+006  5.7244e+005 60487 251466,251518,251492
 1.2000e+001 251544 -1.2115e+005 -3.2891e+006 -2.6308e+005 60487 251440,251518,251466
 1.2000e+001 251719 -1.7074e+005 -9.4131e+006 -1.5014e+005 59983 251592,251644,251618
 1.2000e+001 251696 -8.3016e+005 -7.7921e+006 -1.4627e+004 59983 251592,251670,251644
 1.2000e+001 251920  7.4890e+004 -2.1118e+006 -3.1296e+004 59807 251770,251848,251796
 1.2000e+001 251897  6.7443e+004 -2.0540e+006 -5.7128e+004 59807 251744,251848,251770
 1.2000e+001 251874  5.5616e+004 -2.4262e+006 -1.7479e+005 59807 251796,251848,251822
 1.2000e+001 252023 -8.5519e+004 -4.8859e+006  6.8018e+004 59517 251945,251997,251971
 1.2000e+001 252175  6.2317e+005 -7.4437e+006 -5.3138e+005 59269 252074,252126,252100
 1.2000e+001 252152 -9.5888e+005  1.5097e+006  8.0832e+005 59269 252048,252126,252074
 1.2000e+001 252278 -4.0499e+005 -2.6816e+006  1.2074e+006 58979 252200,252252,252226
 1.2000e+001 252381 -2.0820e+006 -2.6888e+006  9.1450e+005 58689 252303,252355,252329
 1.2000e+001 252533 -7.9700e+005 -4.4552e+006  3.5754e+004 58249 252432,252484,252458
 1.2000e+001 252510 -6.8228e+005 -4.7357e+006 -5.6737e+005 58249 252406,252484,252432
 1.2000e+001 252734 -4.1437e+005 -3.8851e+006  3.1784e+005 57902 252584,252662,252610
 1.2000e+001 252711  7.8832e+005 -5.0432e+006 -1.3199e+005 57902 252558,252662,252584
 1.2000e+001 252688 -3.7739e+005 -2.6793e+006 -3.4339e+005 57902 252610,252662,252636
 1.2000e+001 252886 -1.3373e+005 -4.2711e+006 -1.7631e+005 57540 252785,252837,252811
 1.2000e+001 252863  1.3161e+005 -4.4017e+006 -1.3512e+005 57540 252759,252837,252785
 1.2000e+001 253038 -4.9655e+005 -5.4462e+006  1.1220e+006 57086 252937,252989,252963
 1.2000e+001 253015 -2.3287e+005 -2.6234e+006  1.5488e+005 57086 252911,252989,252937
 1.2000e+001 253239 -4.4312e+005 -5.2991e+006 -8.6073e+005 56796 253063,253141,253115
 1.2000e+001 253216  3.0737e+005 -5.9799e+006  2.3612e+003 56796 253063,253167,253141
 1.2000e+001 253193 -9.5825e+005 -4.0931e+006 -5.5859e+005 56796 253063,253115,253089
 1.2000e+001 253342 -5.0041e+005 -4.8987e+006  4.1648e+005 56349 253264,253316,253290
 1.2000e+001 253543 -8.3253e+005 -7.3030e+006 -6.9017e+005 56009 253367,253419,253393
 1.2000e+001 253520 -7.3261e+005 -4.8665e+006 -3.3547e+005 56009 253367,253445,253419
 1.2000e+001 253497 -3.9587e+005 -5.6456e+006  8.4612e+002 56009 253367,253471,253445
 1.2000e+001 253695 -1.8047e+004 -3.8482e+006  8.0810e+004 55733 253594,253646,253620
 1.2000e+001 253672 -1.7580e+005 -3.0493e+006  8.7850e+004 55733 253568,253646,253594
 1.2000e+001 253798 -5.0001e+005 -2.4062e+006 -1.5908e+005 55557 253720,253772,253746
 1.2000e+001 253950 -4.9910e+005 -3.9644e+006  3.4825e+005 55153 253849,253901,253875
 1.2000e+001 253927  3.2095e+005 -4.6560e+006 -5.0726e+005 55153 253823,253901,253849
 1.2000e+001 254151 -1.1940e+006 -4.4937e+006  7.3206e+005 54863 253975,254053,254001
 1.2000e+001 254128 -6.0144e+005 -4.6947e+006 -2.3286e+004 54863 253975,254079,254053
 1.2000e+001 254105 -3.6753e+005 -3.4090e+006  9.9304e+004 54863 254001,254053,254027
 1.2000e+001 254303  6.6500e+004 -5.0719e+006  1.5377e+005 54373 254176,254228,254202
 1.2000e+001 254280 -9.5919e+005 -4.2808e+006  3.4114e+005 54373 254176,254254,254228
 1.2000e+001 254455 -3.2424e+005 -5.2342e+006 -3.8160e+005 53975 254354,254406,254380
 1.2000e+001 254432 -8.7051e+005 -1.8784e+006  4.2859e+004 53975 254328,254406,254354
 1.2000e+001 254607 -4.6492e+005 -4.4892e+006 -4.9898e+005 53585 254480,254532,254506
 1.2000e+001 254584 -3.1665e+005 -4.5527e+006 -5.4912e+005 53585 254480,254558,254532
 1.2000e+001 254808 -8.8768e+005 -3.4650e+006 -5.2646e+004 53245 254658,254736,254684
 1.2000e+001 254785 -1.0358e+006 -2.3373e+006 -3.5001e+005 53245 254632,254736,254658
 1.2000e+001 254762 -4.9379e+005 -2.5804e+006 -4.2357e+005 53245 254684,254736,254710
 1.2000e+001 254911 -3.1122e+005 -5.1870e+006 -1.9361e+005 52955 254833,254885,254859
 1.2000e+001 255063 -7.0325e+005 -5.3802e+006 -1.5898e+005 52551 254962,255014,254988
 1.2000e+001 255040 -6.7430e+005 -5.9128e+006 -3.8440e+005 52551 254936,255014,254962
 1.2000e+001 255264 -1.0977e+006 -1.8667e+006  2.3890e+004 52261 255114,255166,255140
 1.2000e+001 255241 -1.1314e+006 -4.0088e+006  6.4937e+005 52261 255114,255192,255166
 1.2000e+001 255218 -2.4606e+005 -6.5567e+006 -1.6718e+006 52261 255088,255192,255114
 1.2000e+001 255416 -3.0970e+005 -4.6204e+006  1.2684e+006 51971 255289,255341,255315
 1.2000e+001 255393 -3.2643e+005 -4.3004e+006 -2.2144e+005 51971 255289,255367,255341
 1.2000e+001 255568 -7.6561e+005 -2.3862e+006 -2.8994e+005 51681 255441,255493,255467
 1.2000e+001 255545  7.3318e+004 -7.0686e+006  4.9079e+005 51681 255441,255519,255493
 1.2000e+001 255769 -2.6700e+005 -3.5911e+006 -1.5038e+004 51291 255619,255697,255671
 1.2000e+001 255746 -2.3307e+005 -3.1623e+006 -3.2822e+005 51291 255593,255697,255619
 1.2000e+001 255723 -1.0689e+005 -4.8329e+006 -2.6582e+005 51291 255619,255671,255645
 1.2000e+001 255921 -4.6207e+005 -2.8738e+006  7.0264e+005 50951 255820,255872,255846
 1.2000e+001 255898 -3.8815e+005 -2.6876e+006  3.6466e+005 50951 255794,255872,255820
 1.2000e+001 256171 -1.1842e+006 -3.9896e+006 -7.7254e+004 50547 256024,256076,256050
 1.2000e+001 256148 -8.8344e+005 -4.2596e+006  4.2459e+005 50547 255972,256076,256024
 1.2000e+001 256125 -3.1038e+005 -5.0151e+006 -1.3776e+005 50547 255946,256076,255972
 1.2000e+001 256102 -8.6796e+005 -3.5555e+006  1.9623e+005 50547 255972,256024,255998
 1.2000e+001 256323  2.2449e+005 -5.1894e+006  9.0169e+005 50093 256196,256248,256222
 1.2000e+001 256300 -8.0098e+005 -2.8526e+006 -9.3445e+005 50093 256196,256274,256248
 1.2000e+001 256426  1.3203e+003 -1.4719e+005  1.0197e+003 49845 256348,256400,256374
 1.2000e+001 256627 -3.1228e+005 -4.6968e+006  2.5493e+005 49555 256477,256555,256503
 1.2000e+001 256604 -3.8738e+005 -4.2612e+006  2.4596e+005 49555 256451,256555,256477
 1.2000e+001 256581 -4.4820e+005 -3.9647e+006  3.2133e+005 49555 256503,256555,256529
 1.2000e+001 256828 -3.2956e+005 -3.4952e+006 -1.9751e+005 49056 256652,256730,256678
 1.2000e+001 256805 -5.1454e+005 -3.2455e+006 -6.4601e+004 49056 256652,256756,256730
 1.2000e+001 256782 -5.4351e+005 -3.4180e+006 -2.4057e+005 49056 256678,256730,256704
 1.2000e+001 256931 -9.4294e+005 -1.9931e+006 -6.8593e+005 48766 256853,256905,256879
 1.2000e+001 257083 -6.2114e+005 -4.5171e+006 -3.8570e+005 48568 256982,257034,257008
 1.2000e+001 257060 -4.6536e+005 -3.8703e+006 -5.2947e+005 48568 256956,257034,256982
 1.2000e+001 257186  1.3969e+002 -1.4132e+006  8.2985e+002 48228 257108,257160,257134
 1.2000e+001 257338 -4.1112e+005 -2.0253e+006  5.8549e+005 47888 257237,257289,257263
 1.2000e+001 257315 -4.5781e+005 -2.0367e+006  5.0838e+005 47888 257211,257289,257237
 1.2000e+001 257539 -3.1192e+005 -4.2471e+006  1.4400e+005 47548 257363,257441,257415
 1.2000e+001 257516 -5.9183e+005 -4.0801e+006 -1.9212e+005 47548 257363,257467,257441
 1.2000e+001 257493 -5.3258e+005 -3.1913e+006 -1.2770e+005 47548 257363,257415,257389
 1.2000e+001 257740 -2.6085e+005 -4.1149e+006  3.8788e+005 46994 257564,257642,257616
 1.2000e+001 257717 -4.2766e+005 -3.5351e+006  1.7969e+005 46994 257564,257668,257642
 1.2000e+001 257694 -6.9279e+005 -4.3405e+006  4.6423e+004 46994 257564,257616,257590
 1.2000e+001 257843 -9.5243e+005 -3.2790e+006  1.2206e+005 46654 257765,257817,257791
 1.2000e+001 257995 -7.4045e+005 -3.4897e+006  2.8673e+005 46364 257894,257946,257920
 1.2000e+001 257972 -6.6869e+005 -4.3227e+006 -1.8039e+005 46364 257868,257946,257894
 1.2000e+001 258147 -2.1127e+005 -3.4679e+006  2.2991e+005 46024 258046,258098,258072
 1.2000e+001 258124 -4.0161e+005 -3.4208e+006  2.0935e+005 46024 258020,258098,258046
 1.2000e+001 258250 -7.0731e+005 -2.8284e+006  8.7617e+005 45741 258172,258224,258198
 1.2000e+001 258402 -1.5731e+005 -3.1052e+006  2.6726e+005 45401 258301,258353,258327
 1.2000e+001 258379 -5.0991e+005 -2.3893e+006  1.8883e+005 45401 258275,258353,258301
 1.2000e+001 258603 -6.1807e+005 -2.1704e+006  6.0302e+004 45071 258427,258505,258479
 1.2000e+001 258580 -2.9480e+005 -4.8242e+006  3.8150e+005 45071 258427,258531,258505
 1.2000e+001 258557 -2.0555e+005 -2.7587e+006  2.6404e+005 45071 258427,258479,258453
 1.2000e+001 258755 -1.5968e+005 -3.7392e+006 -2.1125e+005 44681 258654,258706,258680
 1.2000e+001 258732 -1.8693e+005 -4.0485e+006 -2.5534e+005 44681 258628,258706,258654
 1.2000e+001 258907 -4.1643e+005 -2.6466e+006 -2.5581e+005 44157 258806,258858,258832
 1.2000e+001 258884 -5.8673e+005 -2.4288e+006 -2.2971e+005 44157 258780,258858,258806
 1.2000e+001 259010 -5.8725e+005 -1.8407e+006 -2.3731e+004 43705 258932,258984,258958
 1.2000e+001 259113 -2.4650e+005 -4.5471e+006  4.0074e+005 43284 259035,259087,259061
 1.2000e+001 259216 -5.2340e+005 -3.7636e+006 -2.2278e+005 42954 259138,259190,259164
 1.2000e+001 259319 -9.4641e+005 -2.1264e+006  2.6727e+003 42116 259241,259293,259267
 1.2000e+001 259422 -3.6754e+005 -3.5089e+006 -2.2581e+005 41804 259344,259396,259370
 1.2000e+001 259525 -5.9673e+005 -5.1828e+006  6.1976e+005 41219 259447,259499,259473
 1.2000e+001 259628 -8.3302e+005 -2.9555e+006 -2.9259e+005 385 259550,259602,259576
 1.4000e+001 190120 -1.2611e+006 -2.8834e+006  2.4593e+005 189630 189993,190045,190019
 1.4000e+001 190097 -5.0421e+005 -3.0002e+006  3.4469e+005 189630 189993,190071,190045
 1.4000e+001 190319 -7.1766e+005 -5.4868e+006  1.2535e+005 189312 190169,190221,190195
 1.4000e+001 190296 -6.2951e+005 -4.8135e+006 -5.0847e+005 189312 190169,190247,190221
 1.4000e+001 190273 -7.4597e+005 -4.5823e+006 -4.0252e+004 189312 190143,190247,190169
 1.4000e+001 190518 -3.1106e+005 -4.1806e+006 -5.5443e+005 189124 190368,190446,190420
 1.4000e+001 190495 -1.0580e+006 -3.1586e+006  2.2454e+005 189124 190342,190446,190368
 1.4000e+001 190472 -1.4925e+006 -4.1674e+006 -1.5452e+006 189124 190368,190420,190394
 1.4000e+001 190619 -4.8706e+005 -4.6923e+005 -2.9190e+004 188926 190541,190593,190567
 1.4000e+001 190771 -7.4433e+005 -4.9578e+006 -3.9804e+005 188614 190670,190722,190696
 1.4000e+001 190748 -3.0066e+005 -4.0883e+006 -1.6940e+004 188614 190644,190722,190670
 1.4000e+001 190972 -1.7279e+005 -4.2604e+006 -1.4576e+005 188324 190848,190900,190874
 1.4000e+001 190949 -2.5549e+005 -3.9948e+006 -2.7906e+003 188324 190796,190900,190848
 1.4000e+001 190926 -7.5912e+005 -5.1310e+006 -3.9922e+005 188324 190796,190848,190822
 1.4000e+001 191124 -2.8025e+005 -2.9844e+006 -1.3659e+005 188034 191023,191075,191049
 1.4000e+001 191101 -5.4154e+005 -2.7507e+006 -2.6086e+005 188034 190997,191075,191023
 1.4000e+001 191276 -1.9467e+005 -2.9951e+006 -1.0946e+005 187836 191149,191201,191175
 1.4000e+001 191253 -4.3351e+005 -2.4496e+006  1.7196e+005 187836 191149,191227,191201
 1.4000e+001 191379 -3.7984e+005 -1.7591e+006 -1.4590e+005 187546 191301,191353,191327
 1.4000e+001 191531 -1.8798e+003 -7.0555e+006 -1.8681e+006 187256 191430,191482,191456
 1.4000e+001 191508 -4.9842e+005 -5.7078e+006  7.5233e+004 187256 191404,191482,191430
 1.4000e+001 191634 -3.0235e+005 -4.0569e+006 -4.5152e+005 187058 191556,191608,191582
 1.4000e+001 191835 -4.4743e+005 -3.2016e+006  3.8614e+005 186860 191659,191711,191685
 1.4000e+001 191812 -2.3568e+005 -3.7497e+006  3.1525e+005 186860 191659,191737,191711
 1.4000e+001 191789  1.7001e+005 -2.1550e+006  2.0932e+005 186860 191659,191763,191737
 1.4000e+001 191987 -4.6590e+005 -2.6732e+006 -5.3948e+005 186662 191886,191938,191912
 1.4000e+001 191964 -2.4237e+005 -3.0652e+006 -2.6494e+005 186662 191860,191938,191886
 1.4000e+001 192090 -7.9897e+005 -2.1459e+006 -1.7451e+005 186486 192012,192064,192038
 1.4000e+001 192242 -5.0052e+005 -6.6451e+006  8.2207e+000 186288 192115,192167,192141
 1.4000e+001 192219 -4.7446e+005 -5.8145e+006  2.1146e+005 186288 192115,192193,192167
 1.4000e+001 192394 -9.9009e+004 -5.8248e+006 -2.9449e+005 185935 192293,192345,192319
 1.4000e+001 192371 -4.2929e+005 -4.8914e+006 -4.9898e+005 185935 192267,192345,192293
 1.4000e+001 192546 -5.2379e+005 -2.8582e+006 -1.2964e+005 185675 192419,192471,192445
 1.4000e+001 192523 -1.5269e+005 -3.1404e+006  3.0015e+004 185675 192419,192497,192471
 1.4000e+001 192649 -3.8359e+005 -2.1030e+006 -3.9672e+004 185499 192571,192623,192597
 1.4000e+001 192801 -1.3398e+006 -2.1890e+006 -3.3830e+005 185301 192674,192726,192700
 1.4000e+001 192778 -6.4002e+005 -2.1396e+006  2.3425e+004 185301 192674,192752,192726
 1.4000e+001 193002 -1.5152e+005 -2.9964e+006 -5.2918e+005 185046 192852,192930,192878
 1.4000e+001 192979 -4.4514e+005 -4.1172e+006 -4.3436e+005 185046 192826,192930,192852
 1.4000e+001 192956  3.8695e+005 -5.0893e+006  1.1004e+005 185046 192878,192930,192904
 1.4000e+001 193203 -1.7271e+006 -4.1968e+006 -4.6055e+005 184798 193079,193131,193105
 1.4000e+001 193180 -1.0602e+005 -6.1932e+006 -1.2777e+006 184798 193027,193131,193079
 1.4000e+001 193157 -2.9457e+005 -6.4155e+006  1.0712e+006 184798 193027,193079,193053
 1.4000e+001 193404 -8.7451e+004 -4.8810e+006 -7.5780e+005 184600 193254,193306,193280
 1.4000e+001 193381 -7.1203e+005 -4.5034e+006  1.2450e+005 184600 193254,193332,193306
 1.4000e+001 193358 -1.1272e+006 -3.0135e+006 -1.9276e+005 184600 193228,193332,193254
 1.4000e+001 193556  2.6904e+005 -4.9039e+006  1.5036e+005 184402 193429,193481,193455
 1.4000e+001 193533 -5.1017e+005 -3.5415e+006 -8.6796e+005 184402 193429,193507,193481
 1.4000e+001 193708 -8.9329e+005 -4.7272e+006 -2.6819e+005 184204 193607,193659,193633
 1.4000e+001 193685 -1.0122e+006 -6.3898e+006 -7.1597e+005 184204 193581,193659,193607
 1.4000e+001 193860 -4.0361e+005 -3.2266e+006  2.7815e+005 183908 193759,193811,193785
 1.4000e+001 193837 -2.0034e+005 -3.2081e+006  3.6582e+005 183908 193733,193811,193759
 1.4000e+001 194061 -1.2674e+005 -1.6409e+006 -3.6382e+005 183710 193911,193989,193937
 1.4000e+001 194038 -6.5655e+005 -2.2902e+006  2.1184e+005 183710 193885,193989,193911
 1.4000e+001 194015 -5.2331e+004 -3.4340e+006 -4.4794e+004 183710 193937,193989,193963
 1.4000e+001 194262 -1.2463e+006 -4.3309e+006 -1.2202e+006 183420 194086,194164,194112
 1.4000e+001 194239 -1.2226e+006 -3.5635e+006  2.3054e+004 183420 194086,194190,194164
 1.4000e+001 194216 -1.1325e+006 -8.6754e+006  9.3542e+005 183420 194112,194164,194138
 1.4000e+001 194414 -9.9326e+004 -6.0211e+006  5.3193e+005 183222 194287,194339,194313
 1.4000e+001 194391 -5.5303e+005 -3.3388e+006 -1.8343e+005 183222 194287,194365,194339
 1.4000e+001 194517 -1.2404e+006 -3.8779e+006  1.8632e+004 183024 194439,194491,194465
 1.4000e+001 194718 -2.3481e+004 -1.2084e+007  7.9201e+005 182734 194568,194620,194594
 1.4000e+001 194695 -9.6053e+005 -4.8393e+006 -2.4771e+006 182734 194542,194620,194568
 1.4000e+001 194672 -2.4427e+006 -2.1542e+006 -1.3425e+006 182734 194542,194646,194620
 1.4000e+001 194870 -5.4308e+005 -3.5000e+006  6.2533e+004 182444 194769,194821,194795
 1.4000e+001 194847 -2.7078e+005 -2.1307e+006 -1.9759e+005 182444 194743,194821,194769
 1.4000e+001 195071 -1.8831e+006 -4.8722e+006 -2.3775e+005 182154 194895,194947,194921
 1.4000e+001 195048 -1.0428e+006 -2.7360e+006  7.0014e+005 182154 194895,194999,194947
 1.4000e+001 195025 -1.4175e+004 -7.3448e+006  9.3163e+005 182154 194947,194999,194973
 1.4000e+001 195223 -9.3546e+005 -4.4431e+006  4.1429e+005 181814 195096,195148,195122
 1.4000e+001 195200 -5.6809e+005 -2.7795e+006  7.8256e+005 181814 195096,195174,195148
 1.4000e+001 195375 -8.1557e+004 -4.8926e+006  6.7534e+005 181524 195248,195300,195274
 1.4000e+001 195352  2.7083e+004 -4.1687e+006  4.7090e+005 181524 195248,195326,195300
 1.4000e+001 195527 -1.7838e+005 -1.1357e+006 -3.5531e+005 181326 195426,195478,195452
 1.4000e+001 195504 -5.9527e+005 -1.4413e+006 -7.9154e+004 181326 195400,195478,195426
 1.4000e+001 195679  5.6431e+005 -8.6471e+006  1.7841e+005 180936 195578,195630,195604
 1.4000e+001 195656 -5.1388e+005 -4.5529e+006 -1.6320e+004 180936 195552,195630,195578
 1.4000e+001 195831 -6.2708e+005 -4.3364e+005 -2.4457e+005 180646 195704,195756,195730
 1.4000e+001 195808 -5.3787e+005 -1.4663e+005 -6.1798e+004 180646 195704,195782,195756
 1.4000e+001 196032 -3.8226e+005 -2.8865e+006  1.4019e+006 180306 195882,195960,195934
 1.4000e+001 196009 -1.0487e+006 -2.9051e+006  1.1107e+005 180306 195856,195960,195882
 1.4000e+001 195986  5.2784e+005 -4.5212e+006 -4.1596e+005 180306 195882,195934,195908
 1.4000e+001 196233 -1.0513e+005 -1.5443e+006 -1.1575e+006 179944 196057,196109,196083
 1.4000e+001 196210 -1.7774e+006 -9.3104e+006  1.4778e+006 179944 196057,196135,196109
 1.4000e+001 196187 -3.7463e+006  6.9175e+006 -2.4897e+006 179944 196057,196161,196135
 1.4000e+001 196385 -3.3075e+004 -2.8242e+005 -6.5057e+004 179604 196258,196310,196284
 1.4000e+001 196362 -9.9855e+004 -4.4345e+005 -1.6151e+005 179604 196258,196336,196310
 1.4000e+001 196586  2.4459e+005 -2.6598e+006 -2.5086e+005 179114 196410,196488,196436
 1.4000e+001 196563 -5.4014e+004 -1.8962e+006 -1.5961e+005 179114 196410,196514,196488
 1.4000e+001 196540 -2.8919e+004 -2.7172e+006 -2.8232e+005 179114 196436,196488,196462
 1.4000e+001 196738 -7.8731e+005 -2.8984e+006 -4.2707e+005 178674 196611,196663,196637
 1.4000e+001 196715 -1.0752e+005 -4.2495e+006 -1.3225e+005 178674 196611,196689,196663
 1.4000e+001 196939  9.9418e+005 -7.9227e+006 -1.0851e+006 178334 196789,196867,196841
 1.4000e+001 196916 -3.8283e+005 -7.6842e+006  5.5298e+004 178334 196763,196867,196789
 1.4000e+001 196893 -1.0132e+006 -6.7746e+006 -3.0070e+006 178334 196789,196841,196815
 1.4000e+001 197091 -2.4069e+005 -3.9381e+006 -5.9171e+005 177930 196990,197042,197016
 1.4000e+001 197068 -4.0826e+005 -4.4438e+006 -3.3920e+005 177930 196964,197042,196990
 1.4000e+001 197194 -2.7091e+002 -1.3119e+006 -4.2263e+002 177732 197116,197168,197142
 1.4000e+001 197346 -5.7385e+005 -7.1962e+006 -9.8592e+004 177534 197219,197271,197245
 1.4000e+001 197323 -7.0219e+004 -9.0429e+006  8.9459e+005 177534 197219,197297,197271
 1.4000e+001 197547 -1.0293e+006 -2.9116e+006 -2.0247e+006 177130 197397,197449,197423
 1.4000e+001 197524 -6.8713e+005 -3.1501e+006 -3.5371e+005 177130 197397,197475,197449
 1.4000e+001 197501 -1.0570e+006 -8.6673e+006 -1.1637e+006 177130 197371,197475,197397
 1.4000e+001 197748 -4.2014e+005 -7.2848e+006  4.9829e+005 176790 197598,197676,197624
 1.4000e+001 197725 -2.4193e+005 -6.0749e+006  6.8679e+005 176790 197572,197676,197598
 1.4000e+001 197702 -6.4201e+005 -5.7871e+006  9.9619e+005 176790 197624,197676,197650
 1.4000e+001 197900 -1.6482e+005 -4.1192e+006 -7.7609e+005 176300 197773,197825,197799
 1.4000e+001 197877  8.1735e+004 -4.4524e+006 -8.3647e+005 176300 197773,197851,197825
 1.4000e+001 198052 -8.9408e+004 -8.9559e+006 -1.6778e+006 176010 197925,197977,197951
 1.4000e+001 198029 -8.5837e+005 -5.8936e+006 -9.2742e+005 176010 197925,198003,197977
 1.4000e+001 198204 -2.6444e+006 -7.2656e+006  2.0658e+006 175670 198103,198155,198129
 1.4000e+001 198181 -1.5996e+006 -6.9140e+006  5.0605e+004 175670 198077,198155,198103
 1.4000e+001 198405 -9.3465e+005 -6.8783e+006 -4.6470e+005 175266 198255,198307,198281
 1.4000e+001 198382 -2.7676e+005 -6.5676e+006 -2.3090e+005 175266 198229,198307,198255
 1.4000e+001 198359  2.1694e+004 -6.2920e+006 -4.3874e+005 175266 198229,198333,198307
 1.4000e+001 198606 -3.6456e+005 -3.9545e+006 -4.7872e+005 174876 198430,198508,198482
 1.4000e+001 198583 -6.2432e+005 -4.1033e+006  2.9494e+005 174876 198430,198534,198508
 1.4000e+001 198560 -1.0414e+005 -4.1523e+006 -4.6582e+005 174876 198430,198482,198456
 1.4000e+001 198758 -2.8377e+004 -1.1290e+005 -5.7485e+004 174536 198657,198709,198683
 1.4000e+001 198735 -2.8797e+004 -1.1253e+005 -5.6261e+004 174536 198631,198709,198657
 1.4000e+001 199008 -3.5780e+004 -1.1492e+007  2.3042e+005 174132 198835,198913,198887
 1.4000e+001 198985 -7.3974e+004 -7.2472e+006  3.7277e+005 174132 198809,198913,198835
 1.4000e+001 198962 -4.5824e+004 -7.4598e+006 -1.1962e+006 174132 198783,198913,198809
 1.4000e+001 198939 -1.6644e+005 -9.6306e+006  8.2009e+005 174132 198835,198887,198861
 1.4000e+001 199160 -5.5548e+005 -7.1590e+006  6.1091e+005 173842 199059,199111,199085
 1.4000e+001 199137 -8.8634e+005 -4.8922e+006 -1.2119e+005 173842 199033,199111,199059
 1.4000e+001 199361 -6.4646e+005 -7.3833e+006  1.0540e+006 173438 199237,199289,199263
 1.4000e+001 199338 -7.7824e+005 -5.7342e+006  1.3720e+006 173438 199211,199289,199237
 1.4000e+001 199315 -7.7018e+005 -7.3904e+006 -2.9201e+004 173438 199185,199289,199211
 1.4000e+001 199513  2.3654e+005 -9.0018e+006  1.3265e+006 173190 199386,199438,199412
 1.4000e+001 199490 -3.1907e+005 -7.2346e+006  1.3677e+005 173190 199386,199464,199438
 1.4000e+001 199665 -2.1514e+005 -3.6484e+006  1.1603e+005 172750 199564,199616,199590
 1.4000e+001 199642 -6.6173e+005 -2.3041e+006 -1.5230e+005 172750 199538,199616,199564
 1.4000e+001 199817 -6.9234e+005 -7.9421e+006 -2.4157e+006 172524 199690,199742,199716
 1.4000e+001 199794 -2.8180e+006 -4.8560e+006 -1.5876e+006 172524 199690,199768,199742
 1.4000e+001 199969 -1.1204e+004 -6.1520e+006 -2.6724e+005 172348 199842,199894,199868
 1.4000e+001 199946  4.8813e+005 -6.0697e+006  1.1668e+005 172348 199842,199920,199894
 1.4000e+001 200121  3.3224e+005 -8.6203e+006 -7.2154e+005 172008 199994,200046,200020
 1.4000e+001 200098 -5.5650e+005 -4.4969e+006 -3.9013e+005 172008 199994,200072,200046
 1.4000e+001 200273 -8.6940e+005 -9.9205e+006  1.5498e+006 171668 200172,200224,200198
 1.4000e+001 200250 -3.6805e+005 -9.0971e+006  2.1453e+006 171668 200146,200224,200172
 1.4000e+001 200474 -5.9005e+005 -1.0502e+007 -6.2702e+005 171264 200350,200402,200376
 1.4000e+001 200451 -8.2233e+005 -8.3952e+006  9.5507e+003 171264 200324,200402,200350
 1.4000e+001 200428 -8.1036e+005 -8.2481e+006  1.8966e+005 171264 200298,200402,200324
 1.4000e+001 200626  3.0335e+005 -1.0261e+007  4.2497e+005 170832 200525,200577,200551
 1.4000e+001 200603 -1.3086e+005 -8.8159e+006  2.7846e+005 170832 200499,200577,200525
 1.4000e+001 200827  3.3381e+005 -9.7897e+006  1.6437e+006 170492 200677,200729,200703
 1.4000e+001 200804 -1.4681e+006 -4.3620e+006 -2.6466e+006 170492 200651,200729,200677
 1.4000e+001 200781 -2.3035e+006 -5.5603e+006 -2.0227e+006 170492 200651,200755,200729
 1.4000e+001 201077  6.9035e+005 -3.1335e+006  8.9334e+004 170088 200878,200956,200904
 1.4000e+001 201054 -5.9528e+005 -3.8806e+006 -1.2963e+006 170088 200852,200956,200878
 1.4000e+001 201031  2.4697e+005 -3.1792e+006  2.2281e+006 170088 200904,200956,200930
 1.4000e+001 201008  3.1121e+006 -8.7405e+006  2.0962e+006 170088 200852,200982,200956
 1.4000e+001 201278  6.2721e+005 -4.8302e+006  7.5010e+005 169798 201102,201154,201128
 1.4000e+001 201255 -1.4519e+006 -1.3019e+007 -6.2788e+004 169798 201102,201206,201154
 1.4000e+001 201232 -2.3172e+006 -4.1641e+006  1.5344e+006 169798 201154,201206,201180
 1.4000e+001 201430 -1.0562e+006 -1.3959e+007 -1.1561e+006 169337 201303,201355,201329
 1.4000e+001 201407 -5.9271e+005 -6.7557e+006 -5.5826e+005 169337 201303,201381,201355
 1.4000e+001 201631 -3.0889e+005 -6.6631e+006 -2.8018e+005 168883 201481,201559,201507
 1.4000e+001 201608  3.6081e+005 -6.5476e+006 -1.6395e+005 168883 201455,201559,201481
 1.4000e+001 201585 -1.0988e+006 -8.1887e+006 -8.6949e+005 168883 201507,201559,201533
 1.4000e+001 201832 -3.6376e+005 -1.1915e+007  1.0693e+005 168479 201682,201734,201708
 1.4000e+001 201809 -1.5138e+006 -1.0762e+007 -8.8829e+005 168479 201656,201734,201682
 1.4000e+001 201786 -1.1046e+006 -9.1437e+006 -3.2830e+005 168479 201656,201760,201734
 1.4000e+001 202033 -2.0266e+005 -6.7974e+006  1.1743e+006 167825 201883,201935,201909
 1.4000e+001 202010  1.2586e+005 -7.3318e+006 -2.2136e+005 167825 201857,201935,201883
 1.4000e+001 201987  5.7661e+004 -9.8830e+006  4.1075e+005 167825 201857,201961,201935
 1.4000e+001 202234 -1.2870e+006 -9.2523e+006 -2.7533e+006 167435 202058,202136,202084
 1.4000e+001 202211 -2.3381e+006 -1.4336e+007  3.3122e+006 167435 202058,202162,202136
 1.4000e+001 202188 -1.0330e+006 -4.6464e+006  4.5895e+005 167435 202084,202136,202110
 1.4000e+001 202386  2.7718e+005 -7.7168e+006  3.3877e+005 167002 202285,202337,202311
 1.4000e+001 202363 -8.3801e+005 -2.9202e+006  4.9387e+005 167002 202259,202337,202285
 1.4000e+001 202538  6.8197e+004 -7.2120e+006 -3.2662e+005 166662 202411,202463,202437
 1.4000e+001 202515 -4.6262e+005 -4.2993e+006  4.0492e+004 166662 202411,202489,202463
 1.4000e+001 202690 -4.3904e+005 -7.5385e+006 -4.7709e+005 166322 202589,202641,202615
 1.4000e+001 202667  3.8815e+005 -8.0197e+006 -7.7520e+005 166322 202563,202641,202589
 1.4000e+001 202891 -1.5140e+006 -4.7463e+006  4.1785e+005 165918 202715,202767,202741
 1.4000e+001 202868 -1.5189e+006 -4.9747e+006 -1.8810e+005 165918 202715,202793,202767
 1.4000e+001 202845 -2.0208e+005 -4.8814e+006 -4.3745e+005 165918 202715,202819,202793
 1.4000e+001 203092 -1.5983e+006 -8.0565e+006 -6.7522e+005 165628 202916,202968,202942
 1.4000e+001 203069 -9.2093e+004 -1.2548e+007 -2.1822e+005 165628 202916,202994,202968
 1.4000e+001 203046 -9.8164e+005 -1.3212e+007  3.7889e+005 165628 202916,203020,202994
 1.4000e+001 203293 -2.2731e+006 -1.3539e+007  2.8367e+006 165266 203143,203195,203169
 1.4000e+001 203270 -3.6391e+006 -7.9953e+006 -7.4988e+005 165266 203143,203221,203195
 1.4000e+001 203247  1.6311e+005 -1.0956e+007 -4.1921e+006 165266 203117,203221,203143
 1.4000e+001 203445 -1.2941e+005 -5.6253e+006  6.9651e+005 164826 203318,203370,203344
 1.4000e+001 203422  5.4894e+004 -4.6012e+006 -6.8375e+004 164826 203318,203396,203370
 1.4000e+001 203597 -9.5188e+005 -7.9849e+006 -3.6829e+005 164386 203470,203522,203496
 1.4000e+001 203574 -2.0363e+005 -5.5682e+006  1.4424e+005 164386 203470,203548,203522
 1.4000e+001 203798  6.9416e+004 -7.8718e+006  9.8922e+005 163996 203622,203674,203648
 1.4000e+001 203775 -5.8539e+005 -3.3792e+006 -3.1378e+004 163996 203622,203726,203674
 1.4000e+001 203752 -2.0155e+006 -8.0555e+006  2.1160e+006 163996 203674,203726,203700
 1.4000e+001 203901 -4.8438e+005 -4.0508e+006 -6.3093e+005 163770 203823,203875,203849
 1.4000e+001 204053 -1.0158e+006 -7.3069e+006  1.1682e+006 163474 203952,204004,203978
 1.4000e+001 204030 -5.6621e+005 -8.1152e+006 -5.2762e+005 163474 203926,204004,203952
 1.4000e+001 204205 -4.7930e+004 -5.9282e+006 -3.4125e+005 163034 204104,204156,204130
 1.4000e+001 204182 -9.6061e+005 -8.6357e+006 -2.7757e+006 163034 204078,204156,204104
 1.4000e+001 204357 -3.0557e+005 -7.4979e+006  8.4360e+005 162624 204256,204308,204282
 1.4000e+001 204334 -2.0324e+005 -3.7539e+006 -1.2941e+004 162624 204230,204308,204256
 1.4000e+001 204509 -6.7014e+001 -4.5869e+002 -2.4153e+001 162200 204382,204434,204408
 1.4000e+001 204486 -1.1572e+001 -2.3662e+001 -5.2533e+001 162200 204382,204460,204434
 1.4000e+001 204710 -1.5943e+005 -1.6126e+006  4.1099e+005 161810 204560,204638,204586
 1.4000e+001 204687 -2.3822e+004 -2.5576e+006 -5.2564e+005 161810 204534,204638,204560
 1.4000e+001 204664 -1.9653e+005 -6.8895e+005  3.9616e+004 161810 204586,204638,204612
 1.4000e+001 204862 -1.3899e+006 -5.9294e+006 -1.4410e+006 161406 204735,204787,204761
 1.4000e+001 204839 -1.8990e+006 -6.9006e+006 -8.6912e+005 161406 204735,204813,204787
 1.4000e+001 205014 -2.8301e+005 -3.2691e+006  8.7654e+005 161180 204887,204939,204913
 1.4000e+001 204991 -3.5926e+005 -1.6623e+006  4.8618e+004 161180 204887,204965,204939
 1.4000e+001 205215  6.3759e+005 -3.0292e+006 -2.2178e+005 160726 205039,205091,205065
 1.4000e+001 205192 -7.9798e+005 -8.5829e+006 -6.9713e+005 160726 205039,205143,205091
 1.4000e+001 205169 -2.5376e+005 -2.0999e+006 -9.5543e+004 160726 205091,205143,205117
 1.4000e+001 205416 -4.6621e+005 -4.1942e+006  9.3781e+005 160272 205292,205344,205318
 1.4000e+001 205393 -3.8426e+005 -4.3943e+006  9.9029e+005 160272 205240,205344,205292
 1.4000e+001 205370 -4.9837e+005 -4.9832e+006  7.9709e+005 160272 205240,205292,205266
 1.4000e+001 205568 -1.9111e+005 -4.2283e+006  8.9529e+005 159932 205441,205493,205467
 1.4000e+001 205545 -3.7027e+005 -4.3182e+006  1.0453e+006 159932 205441,205519,205493
 1.4000e+001 205720 -2.5243e+004 -2.5487e+006 -4.6987e+005 159542 205593,205645,205619
 1.4000e+001 205697 -2.0398e+005 -3.8984e+005 -1.0601e+005 159542 205593,205671,205645
 1.4000e+001 205872  3.1174e+005 -9.3896e+005  7.8341e+004 159252 205745,205797,205771
 1.4000e+001 205849 -3.7594e+005 -4.0191e+006 -1.3356e+005 159252 205745,205823,205797
 1.4000e+001 206024 -2.8206e+006 -2.6076e+006 -8.7811e+005 159004 205923,205975,205949
 1.4000e+001 206001 -9.9096e+005 -4.0135e+006  2.7789e+005 159004 205897,205975,205923
 1.4000e+001 206127 -6.1062e+000  1.5608e+001  1.3824e+001 158364 206049,206101,206075
 1.4000e+001 206328 -4.4917e+005 -3.4441e+006  2.5908e+005 157960 206178,206256,206204
 1.4000e+001 206305 -2.3657e+005 -3.0804e+006  6.5948e+005 157960 206152,206256,206178
 1.4000e+001 206282  7.9421e+004 -3.6132e+006  5.1921e+005 157960 206204,206256,206230
 1.4000e+001 206529 -2.1198e+005 -7.2717e+006  1.4381e+005 157648 206405,206457,206431
 1.4000e+001 206506 -1.8937e+006 -6.1533e+006 -5.9502e+005 157648 206379,206457,206405
 1.4000e+001 206483 -4.8968e+005 -5.7271e+006 -3.3484e+005 157648 206353,206457,206379
 1.4000e+001 206730  9.2994e+005 -1.3551e+007  2.7392e+005 157208 206554,206606,206580
 1.4000e+001 206707  4.9934e+005 -1.6909e+007  3.6848e+005 157208 206554,206632,206606
 1.4000e+001 206684 -3.5061e+006 -5.6517e+006  1.6401e+005 157208 206554,206658,206632
 1.4000e+001 206882 -9.8519e+004 -2.7798e+006  4.6357e+005 157010 206755,206807,206781
 1.4000e+001 206859 -5.2941e+004 -3.0277e+006  5.7127e+005 157010 206755,206833,206807
 1.4000e+001 207034 -9.2623e+004 -9.2880e+006 -5.9068e+004 156620 206907,206959,206933
 1.4000e+001 207011  2.3648e+004 -1.0988e+007  4.2360e+004 156620 206907,206985,206959
 1.4000e+001 207186 -5.7740e+004 -4.1623e+006  1.7811e+005 156330 207085,207137,207111
 1.4000e+001 207163 -1.0718e+005 -4.2124e+006 -4.6677e+005 156330 207059,207137,207085
 1.4000e+001 207387 -1.5037e+004 -7.9691e+006  9.6233e+004 155890 207211,207289,207237
 1.4000e+001 207364 -3.1744e+005 -8.0399e+006  2.9522e+005 155890 207211,207315,207289
 1.4000e+001 207341 -1.2189e+006 -4.9351e+006  1.9779e+006 155890 207237,207289,207263
 1.4000e+001 207588  9.4761e+005 -1.6006e+007  2.6852e+006 155436 207438,207490,207464
 1.4000e+001 207565 -3.7202e+005 -1.4325e+007  2.1535e+005 155436 207412,207490,207438
 1.4000e+001 207542 -4.8315e+005 -1.0806e+007 -1.0155e+005 155436 207412,207516,207490
 1.4000e+001 207789 -2.6391e+005 -2.3500e+007 -1.3071e+006 155260 207639,207691,207665
 1.4000e+001 207766 -2.0329e+006 -1.1723e+007  2.9186e+006 155260 207613,207691,207639
 1.4000e+001 207743 -4.7527e+005 -9.7914e+006 -7.0890e+005 155260 207613,207717,207691
 1.4000e+001 207990 -6.6491e+004 -1.3657e+006  2.8051e+005 154920 207840,207918,207892
 1.4000e+001 207967 -6.7257e+005 -1.6278e+006 -7.0250e+004 154920 207814,207918,207840
 1.4000e+001 207944 -1.4257e+005 -7.8060e+005 -7.4419e+004 154920 207840,207892,207866
 1.4000e+001 208191  2.2304e+005 -1.2029e+007 -1.1817e+006 154630 208015,208093,208041
 1.4000e+001 208168 -1.0348e+006 -7.0774e+006 -6.6725e+005 154630 208015,208119,208093
 1.4000e+001 208145 -1.3333e+006 -1.0306e+007 -2.7943e+006 154630 208041,208093,208067
 1.4000e+001 208343 -7.9809e+004 -1.2241e+006  8.3071e+004 154240 208216,208268,208242
 1.4000e+001 208320 -2.8850e+004 -9.7688e+005  1.2766e+005 154240 208216,208294,208268
 1.4000e+001 208495  1.0860e+005 -1.7706e+007 -3.3040e+006 153950 208394,208446,208420
 1.4000e+001 208472 -1.4849e+006 -1.1492e+007  1.2289e+006 153950 208368,208446,208394
 1.4000e+001 208647 -5.7360e+005 -1.1307e+007  4.4077e+006 153603 208520,208572,208546
 1.4000e+001 208624 -3.9573e+006 -5.9807e+006 -4.9436e+005 153603 208520,208598,208572
 1.4000e+001 208848 -6.0344e+005 -7.8967e+006  1.1650e+006 153149 208698,208776,208724
 1.4000e+001 208825  2.2812e+005 -1.1961e+007 -8.9110e+005 153149 208672,208776,208698
 1.4000e+001 208802 -2.0011e+006 -8.9457e+006  2.8288e+005 153149 208724,208776,208750
 1.4000e+001 209000 -6.2193e+005 -1.1038e+007  1.4599e+005 152859 208873,208925,208899
 1.4000e+001 208977  1.3990e+004 -1.3928e+007  5.2075e+005 152859 208873,208951,208925
 1.4000e+001 209152 -5.5539e+004 -1.2212e+007 -6.3750e+004 152569 209051,209103,209077
 1.4000e+001 209129 -3.8038e+005 -1.2485e+007 -2.5172e+005 152569 209025,209103,209051
 1.4000e+001 209304 -1.1033e+005 -1.0331e+006  6.0397e+004 152065 209177,209229,209203
 1.4000e+001 209281 -1.4954e+005 -1.9708e+006  4.6005e+005 152065 209177,209255,209229
 1.4000e+001 209456  4.9402e+005 -1.2099e+007  2.7713e+005 151775 209355,209407,209381
 1.4000e+001 209433  6.3671e+005 -1.4619e+007  1.1661e+005 151775 209329,209407,209355
 1.4000e+001 209608 -7.5425e+005 -1.4920e+007 -1.0380e+005 151371 209481,209533,209507
 1.4000e+001 209585  3.1058e+005 -1.6744e+007  2.8223e+005 151371 209481,209559,209533
 1.4000e+001 209760 -2.4315e+006 -9.1588e+006 -1.6032e+006 150981 209659,209711,209685
 1.4000e+001 209737 -4.6574e+005 -8.7183e+006 -1.3669e+006 150981 209633,209711,209659
 1.4000e+001 209912  1.1960e+006 -2.3203e+007 -1.4500e+006 150619 209811,209863,209837
 1.4000e+001 209889  1.0904e+006 -1.7029e+007  1.0147e+006 150619 209785,209863,209811
 1.4000e+001 210064  1.4103e+005 -1.2910e+007 -9.5836e+005 150279 209937,209989,209963
 1.4000e+001 210041 -3.7683e+005 -8.9199e+006 -1.2702e+006 150279 209937,210015,209989
 1.4000e+001 210265  2.8845e+005 -1.4813e+007 -3.1339e+006 149989 210115,210167,210141
 1.4000e+001 210242 -1.5098e+006 -1.1311e+007  1.2041e+006 149989 210115,210193,210167
 1.4000e+001 210219 -1.6757e+006 -1.6597e+007  8.1889e+005 149989 210089,210193,210115
 1.4000e+001 210417 -1.3872e+006 -1.1536e+007 -9.4173e+005 149599 210316,210368,210342
 1.4000e+001 210394 -1.1572e+006 -7.8030e+006  7.5592e+004 149599 210290,210368,210316
 1.4000e+001 210618 -2.4864e+006 -9.1963e+006 -7.7004e+005 149095 210468,210520,210494
 1.4000e+001 210595 -2.9208e+006 -9.7078e+006  1.8603e+006 149095 210442,210520,210468
 1.4000e+001 210572 -7.9052e+005 -1.9038e+007  2.3664e+006 149095 210442,210546,210520
 1.4000e+001 210819 -2.2235e+005 -2.8211e+006  6.5257e+005 148748 210695,210747,210721
 1.4000e+001 210796 -5.4430e+004 -4.9661e+006  1.1712e+006 148748 210669,210747,210695
 1.4000e+001 210773 -7.0563e+005 -4.4097e+006  1.7640e+006 148748 210643,210747,210669
 1.4000e+001 210971 -7.0075e+004 -1.2431e+006  7.7713e+004 148408 210870,210922,210896
 1.4000e+001 210948 -1.5830e+005 -9.3232e+005 -5.9685e+004 148408 210844,210922,210870
 1.4000e+001 211123 -6.4440e+004 -8.4807e+006  1.8790e+006 148118 210996,211048,211022
 1.4000e+001 211100 -9.3121e+005 -1.0068e+007  3.2251e+006 148118 210996,211074,211048
 1.4000e+001 211275 -2.5090e+006 -1.0695e+007  7.1752e+005 147778 211148,211200,211174
 1.4000e+001 211252 -2.2721e+006 -1.5888e+007  3.9321e+006 147778 211148,211226,211200
 1.4000e+001 211427 -1.1823e+006 -1.0996e+007 -2.6427e+005 147324 211326,211378,211352
 1.4000e+001 211404  8.2206e+004 -1.0862e+007  4.7925e+004 147324 211300,211378,211326
 1.4000e+001 211628  4.2021e+004 -2.3386e+005  1.2807e+004 147012 211452,211504,211478
 1.4000e+001 211605 -7.2918e+003 -6.6144e+005 -1.0595e+004 147012 211452,211556,211504
 1.4000e+001 211582 -2.4332e+004 -7.9066e+005  1.6314e+003 147012 211504,211556,211530
 1.4000e+001 211829 -4.9542e+005 -8.3900e+006  1.7924e+006 146636 211679,211757,211731
 1.4000e+001 211806  1.5133e+006 -1.4172e+007 -2.2640e+005 146636 211653,211757,211679
 1.4000e+001 211783  4.2319e+005 -6.9427e+006  3.2761e+005 146636 211679,211731,211705
 1.4000e+001 211981  2.4058e+003 -8.5875e+005 -6.0911e+004 146246 211880,211932,211906
 1.4000e+001 211958  3.5183e+004 -2.0812e+005 -3.8495e+004 146246 211854,211932,211880
 1.4000e+001 212133 -4.1394e+004 -1.5094e+006  1.1682e+005 145956 212006,212058,212032
 1.4000e+001 212110 -3.8524e+005 -8.1234e+005 -2.5197e+005 145956 212006,212084,212058
 1.4000e+001 212285 -5.4444e+004 -9.0350e+005  2.2703e+004 145544 212184,212236,212210
 1.4000e+001 212262 -6.0223e+004 -2.7346e+005 -3.0217e+004 145544 212158,212236,212184
 1.4000e+001 212486 -1.2587e+005 -6.6932e+006  9.3272e+005 144990 212362,212414,212388
 1.4000e+001 212463  7.1149e+004 -5.7565e+006  1.4819e+006 144990 212310,212414,212362
 1.4000e+001 212440 -8.1569e+005 -2.8582e+006  9.5933e+005 144990 212310,212362,212336
 1.4000e+001 212638 -1.1886e+006 -4.9998e+006  1.7095e+006 144600 212537,212589,212563
 1.4000e+001 212615 -3.9625e+005 -1.9146e+006 -6.8793e+004 144600 212511,212589,212537
 1.4000e+001 212839 -7.7565e+004 -7.8183e+005 -1.8766e+005 144210 212689,212741,212715
 1.4000e+001 212816  2.0522e+003 -9.9131e+005 -3.0035e+004 144210 212663,212741,212689
 1.4000e+001 212793  4.4397e+004 -6.6998e+005 -6.6699e+004 144210 212663,212767,212741
 1.4000e+001 212991 -1.3199e+006 -2.9080e+006  1.1426e+006 143920 212890,212942,212916
 1.4000e+001 212968 -5.9201e+005 -7.6877e+006  5.2443e+005 143920 212864,212942,212890
 1.4000e+001 213143  3.9177e+004 -6.8267e+005 -4.8616e+004 143480 213016,213068,213042
 1.4000e+001 213120 -1.2743e+004 -6.5943e+005 -7.5234e+004 143480 213016,213094,213068
 1.4000e+001 213295 -8.0849e+005 -2.8442e+006  1.5188e+006 142990 213194,213246,213220
 1.4000e+001 213272 -1.4157e+006 -1.1295e+006  1.1988e+005 142990 213168,213246,213194
 1.4000e+001 213447 -1.3060e+006 -4.8562e+006  1.1652e+006 142600 213320,213372,213346
 1.4000e+001 213424 -2.0851e+006 -2.5390e+006 -4.6040e+005 142600 213320,213398,213372
 1.4000e+001 213599 -5.6149e+005 -4.8744e+006  2.4043e+005 142260 213472,213524,213498
 1.4000e+001 213576  1.3209e+005 -4.9089e+006  7.1678e+005 142260 213472,213550,213524
 1.4000e+001 213751 -1.4152e+006 -5.2601e+006  8.2052e+005 141870 213624,213676,213650
 1.4000e+001 213728 -1.5202e+006 -5.8694e+006  1.6096e+006 141870 213624,213702,213676
 1.4000e+001 213903 -1.4410e+006 -3.9211e+006 -2.1336e+006 141530 213776,213828,213802
 1.4000e+001 213880 -4.6875e+005 -4.5264e+006 -1.0259e+006 141530 213776,213854,213828
 1.4000e+001 214055 -6.7887e+004 -5.8114e+005 -6.7988e+004 141218 213928,213980,213954
 1.4000e+001 214032  2.7726e+005 -2.0723e+006  2.7921e+005 141218 213928,214006,213980
 1.4000e+001 214207 -9.3709e+004 -9.7797e+005 -3.1568e+003 140928 214080,214132,214106
 1.4000e+001 214184  1.2721e+004 -9.6131e+005  1.0144e+005 140928 214080,214158,214132
 1.4000e+001 214359 -5.6033e+005 -3.3724e+006 -9.4751e+005 140538 214232,214284,214258
 1.4000e+001 214336  3.0871e+005 -7.2734e+006  1.6927e+006 140538 214232,214310,214284
 1.4000e+001 214560 -3.2094e+004 -1.3716e+006 -1.3941e+004 140248 214384,214462,214410
 1.4000e+001 214537  1.1351e+005 -2.0693e+005 -5.2108e+004 140248 214384,214488,214462
 1.4000e+001 214514 -1.6917e+005 -7.3805e+005 -2.1047e+005 140248 214410,214462,214436
 1.4000e+001 214712 -2.1986e+005 -7.3722e+006  2.9425e+005 140000 214611,214663,214637
 1.4000e+001 214689 -8.9958e+005 -3.7161e+006 -3.4433e+005 140000 214585,214663,214611
 1.4000e+001 214913 -5.4573e+005 -3.2030e+006 -1.1079e+006 139596 214737,214815,214763
 1.4000e+001 214890 -4.4744e+005 -1.4564e+006 -1.5151e+005 139596 214737,214841,214815
 1.4000e+001 214867  3.8253e+005 -4.9404e+006 -8.0377e+005 139596 214763,214815,214789
 1.4000e+001 215016  1.7714e+002 -1.7226e+004  3.7639e+002 139420 214938,214990,214964
 1.4000e+001 215168 -1.8612e+005 -5.0830e+006  8.8726e+005 139130 215067,215119,215093
 1.4000e+001 215145 -5.8494e+005 -5.1162e+006  1.8061e+006 139130 215041,215119,215067
 1.4000e+001 215320 -8.6633e+005 -1.2155e+006  6.0814e+005 138790 215219,215271,215245
 1.4000e+001 215297  2.5415e+005 -6.4094e+006  1.6127e+006 138790 215193,215271,215219
 1.4000e+001 215472 -2.2239e+005 -1.8174e+006  6.6433e+005 138514 215345,215397,215371
 1.4000e+001 215449 -2.0031e+005 -9.8456e+005  1.6518e+004 138514 215345,215423,215397
 1.4000e+001 215624 -9.2124e+005 -6.3448e+006 -2.3173e+005 138174 215497,215549,215523
 1.4000e+001 215601 -4.1807e+005 -5.4419e+006 -6.0528e+005 138174 215497,215575,215549
 1.4000e+001 215776 -1.2037e+006 -5.0982e+006  1.3665e+006 137734 215649,215701,215675
 1.4000e+001 215753 -1.4414e+006 -5.3225e+006  1.6940e+006 137734 215649,215727,215701
 1.4000e+001 215977 -2.9261e+006 -1.0301e+007  2.1606e+006 137344 215801,215879,215827
 1.4000e+001 215954  6.4329e+005 -1.0243e+007  2.2640e+006 137344 215801,215905,215879
 1.4000e+001 215931  3.6398e+006 -1.8618e+007 -3.4595e+006 137344 215827,215879,215853
 1.4000e+001 216129 -5.5248e+005 -8.3065e+006 -4.4219e+005 136940 216028,216080,216054
 1.4000e+001 216106 -7.5322e+005 -7.5064e+006 -9.7348e+005 136940 216002,216080,216028
 1.4000e+001 216330 -4.6649e+005 -5.8097e+006 -1.7323e+005 136600 216180,216232,216206
 1.4000e+001 216307 -5.4944e+005 -6.1514e+006  9.6327e+005 136600 216154,216232,216180
 1.4000e+001 216284 -2.4484e+005 -5.2360e+006  4.8059e+005 136600 216154,216258,216232
 1.4000e+001 216482  1.0989e+005 -5.4558e+006 -6.1620e+005 136260 216381,216433,216407
 1.4000e+001 216459  1.1765e+004 -4.9601e+006 -5.5398e+005 136260 216355,216433,216381
 1.4000e+001 216634 -1.4696e+005 -5.7764e+006  7.4966e+005 135970 216533,216585,216559
 1.4000e+001 216611 -1.6636e+005 -6.7246e+006  6.9889e+005 135970 216507,216585,216533
 1.4000e+001 216835 -7.3957e+005 -5.0678e+006 -4.4587e+005 135608 216685,216763,216711
 1.4000e+001 216812 -1.3931e+005 -4.8686e+006 -3.1383e+005 135608 216659,216763,216685
 1.4000e+001 216789 -6.3289e+005 -8.0838e+006  2.0756e+005 135608 216711,216763,216737
 1.4000e+001 217036 -4.8039e+004 -4.8224e+006  6.9223e+005 135312 216912,216964,216938
 1.4000e+001 217013 -1.2055e+005 -5.4213e+006  7.5771e+005 135312 216886,216964,216912
 1.4000e+001 216990 -4.0292e+005 -5.8651e+006  5.2579e+005 135312 216860,216964,216886
 1.4000e+001 217237  3.1729e+004 -9.2748e+005 -4.6236e+004 134908 217061,217139,217113
 1.4000e+001 217214 -1.4220e+005 -1.1035e+006  4.8881e+005 134908 217061,217165,217139
 1.4000e+001 217191 -2.1811e+005 -3.3606e+005 -2.3759e+005 134908 217061,217113,217087
 1.4000e+001 217438 -8.5322e+005 -1.4179e+007  1.5774e+006 134568 217288,217366,217314
 1.4000e+001 217415 -4.1211e+005 -1.3420e+007  1.9093e+006 134568 217262,217366,217288
 1.4000e+001 217392  3.6322e+005 -1.0231e+007  7.9261e+005 134568 217314,217366,217340
 1.4000e+001 217590  7.6534e+004 -2.2734e+006  5.3279e+005 134106 217463,217515,217489
 1.4000e+001 217567  2.8834e+004 -2.1163e+006  2.8011e+005 134106 217463,217541,217515
 1.4000e+001 217791 -3.6684e+006 -2.3018e+007 -1.2130e+007 133816 217641,217693,217667
 1.4000e+001 217768  1.5794e+006 -2.8239e+007  5.7755e+006 133816 217641,217719,217693
 1.4000e+001 217745 -5.9178e+006 -8.4171e+006  3.8835e+006 133816 217615,217719,217641
 1.4000e+001 217992 -1.2597e+006 -5.0271e+006  1.8761e+006 133355 217842,217920,217894
 1.4000e+001 217969 -3.7538e+005 -9.7993e+006 -7.5576e+005 133355 217816,217920,217842
 1.4000e+001 217946 -9.1193e+005 -3.4425e+006 -7.0132e+005 133355 217842,217894,217868
 1.4000e+001 218193 -4.6013e+005 -3.7769e+006 -3.2427e+006 132851 218017,218095,218069
 1.4000e+001 218170 -9.7414e+005 -6.7658e+006  4.0685e+006 132851 218017,218121,218095
 1.4000e+001 218147 -2.4690e+006 -5.4209e+006 -2.0642e+006 132851 218017,218069,218043
 1.4000e+001 218345 -6.7201e+005 -3.2382e+006  8.5449e+005 132511 218244,218296,218270
 1.4000e+001 218322 -1.2471e+006 -3.2550e+006  2.5703e+005 132511 218218,218296,218244
 1.4000e+001 218497 -2.9272e+006 -2.2174e+007 -1.3750e+006 132235 218396,218448,218422
 1.4000e+001 218474 -3.2172e+006 -9.0685e+006  1.1167e+006 132235 218370,218448,218396
 1.4000e+001 218698 -1.4240e+005 -8.8033e+006  5.9370e+005 131945 218574,218626,218600
 1.4000e+001 218675 -5.7157e+005 -1.1079e+007  8.9301e+005 131945 218522,218626,218574
 1.4000e+001 218652 -6.0853e+005 -8.6779e+006  2.2272e+005 131945 218522,218574,218548
 1.4000e+001 218850 -3.7019e+005 -1.4778e+007 -2.2806e+006 131655 218723,218775,218749
 1.4000e+001 218827 -1.4510e+006 -1.0936e+007 -4.9012e+005 131655 218723,218801,218775
 1.4000e+001 218953 -1.2833e+006 -6.1806e+006  8.8957e+004 131215 218875,218927,218901
 1.4000e+001 219105 -7.1701e+005 -9.2983e+006  2.5650e+005 130875 218978,219030,219004
 1.4000e+001 219082 -2.1875e+005 -4.9739e+006  4.8426e+005 130875 218978,219056,219030
 1.4000e+001 219306  9.9808e+004 -4.5056e+006  2.1447e+005 130429 219156,219234,219208
 1.4000e+001 219283 -4.1704e+004 -4.2170e+006  2.3971e+005 130429 219130,219234,219156
 1.4000e+001 219260 -2.5715e+004 -4.5058e+006 -1.1722e+005 130429 219156,219208,219182
 1.4000e+001 219507 -3.2714e+004 -2.5241e+006 -2.0117e+005 130025 219383,219435,219409
 1.4000e+001 219484 -1.0913e+005 -3.0197e+006 -1.7800e+005 130025 219331,219435,219383
 1.4000e+001 219461 -1.6867e+004 -3.1609e+006 -1.3192e+005 130025 219331,219383,219357
 1.4000e+001 219659 -1.2219e+006 -1.1078e+007 -1.6429e+006 129685 219558,219610,219584
 1.4000e+001 219636 -3.2633e+005 -1.2266e+007 -3.2191e+006 129685 219532,219610,219558
 1.4000e+001 219860 -1.2445e+004 -3.4687e+006  3.1697e+005 129395 219710,219788,219762
 1.4000e+001 219837 -1.0081e+005 -4.4161e+006  1.8706e+005 129395 219684,219788,219710
 1.4000e+001 219814  3.0151e+005 -4.0923e+006 -1.5175e+005 129395 219710,219762,219736
 1.4000e+001 220061  8.2552e+004 -3.4866e+006  2.3046e+005 128991 219937,219989,219963
 1.4000e+001 220038 -8.7446e+004 -5.3834e+006 -2.4658e+005 128991 219885,219989,219937
 1.4000e+001 220015  2.3712e+005 -4.3902e+006  7.3386e+004 128991 219885,219937,219911
 1.4000e+001 220262 -3.0672e+005 -3.1599e+006 -2.3862e+005 128701 220086,220164,220112
 1.4000e+001 220239  2.9702e+005 -4.3129e+006  1.3864e+005 128701 220086,220190,220164
 1.4000e+001 220216 -1.3281e+005 -2.6529e+006  5.9373e+005 128701 220112,220164,220138
 1.4000e+001 220463 -1.7038e+006 -1.1052e+007  1.4864e+006 128297 220339,220391,220365
 1.4000e+001 220440  7.9792e+005 -1.2987e+007  1.3109e+006 128297 220313,220391,220339
 1.4000e+001 220417 -1.5652e+005 -1.4683e+007 -1.5620e+006 128297 220287,220391,220313
 1.4000e+001 220615 -4.0214e+005 -1.0409e+007 -1.1908e+006 128007 220488,220540,220514
 1.4000e+001 220592 -2.9586e+003 -1.1430e+007 -1.0736e+006 128007 220488,220566,220540
 1.4000e+001 220767  9.3403e+004 -3.8437e+006 -4.1264e+005 127567 220640,220692,220666
 1.4000e+001 220744 -2.7705e+005 -2.2390e+006 -2.8391e+005 127567 220640,220718,220692
 1.4000e+001 220919  4.8531e+005 -1.3799e+007  4.0219e+005 127163 220792,220844,220818
 1.4000e+001 220896  1.3312e+006 -1.4354e+007  9.8958e+005 127163 220792,220870,220844
 1.4000e+001 221071 -6.9687e+005 -4.0639e+006  7.1671e+005 126915 220970,221022,220996
 1.4000e+001 221048 -7.2597e+005 -4.1153e+006  6.8988e+005 126915 220944,221022,220970
 1.4000e+001 221272 -1.0838e+006 -9.9480e+006  7.9057e+005 126461 221122,221174,221148
 1.4000e+001 221249 -2.1196e+006 -1.0295e+007  4.5840e+005 126461 221122,221200,221174
 1.4000e+001 221226 -3.1506e+005 -1.3673e+007 -1.0999e+006 126461 221096,221200,221122
 1.4000e+001 221375  9.8191e+000 -2.2932e+005  3.0653e+002 126213 221297,221349,221323
 1.4000e+001 221478  1.3850e+001 -6.2855e+005  2.3230e+001 125766 221400,221452,221426
 1.4000e+001 221679 -7.1493e+004 -1.8013e+006  1.7619e+005 125212 221503,221555,221529
 1.4000e+001 221656 -1.1575e+005 -2.3134e+006  2.8671e+004 125212 221503,221581,221555
 1.4000e+001 221633  1.8178e+005 -3.8771e+006  7.5748e+005 125212 221503,221607,221581
 1.4000e+001 221929 -6.0921e+005 -1.1482e+006  1.6197e+005 124872 221782,221834,221808
 1.4000e+001 221906 -9.8526e+005 -2.3060e+006  4.0503e+005 124872 221756,221834,221782
 1.4000e+001 221883 -5.5238e+005 -3.8227e+006  1.1240e+006 124872 221704,221834,221756
 1.4000e+001 221860 -8.1865e+005 -4.5517e+006  1.3480e+006 124872 221704,221756,221730
 1.4000e+001 222130 -5.9382e+005 -9.0330e+006 -1.4188e+006 124582 221980,222058,222006
 1.4000e+001 222107 -1.3015e+006 -9.7065e+006 -2.0263e+006 124582 221954,222058,221980
 1.4000e+001 222084 -1.4988e+006 -1.0376e+007 -2.0777e+006 124582 222006,222058,222032
 1.4000e+001 222282 -2.6540e+006 -1.2406e+007 -2.9938e+006 124192 222181,222233,222207
 1.4000e+001 222259 -1.0184e+006 -1.2603e+007 -3.5660e+006 124192 222155,222233,222181
 1.4000e+001 222483 -3.9526e+005 -5.3010e+006  1.3340e+005 123702 222333,222385,222359
 1.4000e+001 222460 -3.0049e+005 -5.5175e+006 -2.4007e+005 123702 222333,222411,222385
 1.4000e+001 222437 -6.4183e+003 -2.8020e+006 -3.0584e+005 123702 222307,222411,222333
 1.4000e+001 222635 -4.1939e+005 -3.2384e+006 -3.0572e+005 123312 222508,222560,222534
 1.4000e+001 222612  4.7066e+005 -7.3949e+006 -2.2395e+005 123312 222508,222586,222560
 1.4000e+001 222787 -1.9475e+005 -5.2944e+006 -1.1970e+005 122858 222686,222738,222712
 1.4000e+001 222764 -1.6685e+005 -5.0510e+006 -2.2730e+005 122858 222660,222738,222686
 1.4000e+001 222939 -3.4277e+005 -5.6282e+006 -3.8418e+004 122568 222812,222864,222838
 1.4000e+001 222916 -9.0668e+004 -4.0942e+006  3.6127e+005 122568 222812,222890,222864
 1.4000e+001 223091 -4.1757e+005 -4.4906e+006 -5.5364e+005 122392 222964,223016,222990
 1.4000e+001 223068  4.1581e+005 -5.4422e+006  2.8218e+005 122392 222964,223042,223016
 1.4000e+001 223292 -3.7730e+005 -1.2342e+007 -1.3418e+006 121852 223142,223220,223194
 1.4000e+001 223269 -1.1408e+006 -1.1803e+007 -1.0217e+006 121852 223116,223220,223142
 1.4000e+001 223246 -4.4309e+005 -1.2234e+007 -1.6182e+006 121852 223142,223194,223168
 1.4000e+001 223493 -7.4460e+005 -1.3734e+007  7.4937e+005 121406 223343,223395,223369
 1.4000e+001 223470 -2.4151e+005 -9.2369e+006 -2.9042e+006 121406 223343,223421,223395
 1.4000e+001 223447 -4.6048e+005 -7.0346e+006  1.4130e+006 121406 223317,223421,223343
 1.4000e+001 223645  4.5588e+004 -1.0926e+007  6.3442e+005 121002 223544,223596,223570
 1.4000e+001 223622 -1.0059e+006 -6.7715e+006  1.0024e+006 121002 223518,223596,223544
 1.4000e+001 223846 -2.5049e+002 -1.2880e+007  9.5847e+005 120662 223670,223748,223696
 1.4000e+001 223823  1.1751e+006 -8.7715e+006  4.9403e+004 120662 223670,223774,223748
 1.4000e+001 223800 -5.4189e+005 -6.9397e+006 -7.8432e+005 120662 223696,223748,223722
 1.4000e+001 224047 -6.5740e+005 -6.8810e+006  1.9662e+006 120222 223897,223949,223923
 1.4000e+001 224024 -2.8065e+005 -8.7079e+006 -3.0987e+005 120222 223871,223949,223897
 1.4000e+001 224001  1.2717e+005 -1.2177e+007  7.3405e+005 120222 223871,223975,223949
 1.4000e+001 224248  5.5621e+005 -8.1555e+006  3.7855e+005 119875 224124,224176,224150
 1.4000e+001 224225 -1.2378e+006 -1.6372e+007 -6.1385e+005 119875 224098,224176,224124
 1.4000e+001 224202 -1.1962e+006 -4.2877e+006 -1.0030e+005 119875 224072,224176,224098
 1.4000e+001 224449 -9.6322e+004 -6.0588e+006 -6.1104e+004 119677 224325,224377,224351
 1.4000e+001 224426 -7.4562e+005 -8.6778e+006  2.9196e+005 119677 224299,224377,224325
 1.4000e+001 224403 -3.6484e+005 -9.6882e+006  6.0891e+005 119677 224273,224377,224299
 1.4000e+001 224552 -1.0813e+006 -8.0027e+006 -5.0883e+005 119273 224474,224526,224500
 1.4000e+001 224704 -2.5383e+006 -1.3864e+007 -2.5866e+006 118983 224603,224655,224629
 1.4000e+001 224681 -1.9773e+006 -1.3120e+007 -2.0755e+006 118983 224577,224655,224603
 1.4000e+001 224856 -2.9872e+005 -1.3657e+007 -1.3261e+006 118529 224755,224807,224781
 1.4000e+001 224833 -4.9969e+004 -1.4453e+007 -1.5025e+006 118529 224729,224807,224755
 1.4000e+001 225008  1.2344e+005 -7.5400e+006 -2.5419e+003 118353 224881,224933,224907
 1.4000e+001 224985 -6.0476e+004 -7.9602e+006  1.3492e+005 118353 224881,224959,224933
 1.4000e+001 225209 -1.1030e+006 -6.8225e+006 -5.7704e+005 117949 225059,225137,225111
 1.4000e+001 225186 -7.5922e+005 -6.9707e+006 -1.1976e+006 117949 225033,225137,225059
 1.4000e+001 225163  2.0337e+005 -1.0201e+007  5.9536e+005 117949 225059,225111,225085
 1.4000e+001 225410  9.4039e+004 -7.0366e+006 -7.1580e+005 117559 225260,225338,225312
 1.4000e+001 225387 -1.0931e+006 -6.9907e+006  3.1636e+005 117559 225234,225338,225260
 1.4000e+001 225364 -7.2406e+005 -5.9226e+006 -2.0708e+006 117559 225260,225312,225286
 1.4000e+001 225611 -2.0487e+006 -1.3613e+007 -7.0583e+006 117361 225461,225513,225487
 1.4000e+001 225588  3.2641e+006 -1.3639e+007  7.1039e+005 117361 225461,225539,225513
 1.4000e+001 225565 -3.5104e+006 -4.7507e+006  6.2952e+006 117361 225435,225539,225461
 1.4000e+001 225812  4.2790e+005 -7.6277e+006 -3.1481e+005 116900 225636,225714,225662
 1.4000e+001 225789  7.4430e+005 -7.3392e+006 -5.0522e+005 116900 225636,225740,225714
 1.4000e+001 225766 -7.3894e+004 -7.6416e+006 -7.4967e+005 116900 225662,225714,225688
 1.4000e+001 225964  1.9556e+004 -7.1125e+006  1.7409e+005 116560 225837,225889,225863
 1.4000e+001 225941  5.1403e+004 -6.6508e+006  6.7204e+004 116560 225837,225915,225889
 1.4000e+001 226165 -2.9027e+004 -1.0770e+007  9.6538e+005 116106 226015,226093,226041
 1.4000e+001 226142  1.4900e+006 -1.4820e+007 -2.5295e+006 116106 225989,226093,226015
 1.4000e+001 226119 -2.7930e+006 -6.5577e+006  3.8780e+005 116106 226041,226093,226067
 1.4000e+001 226268 -1.6594e+006 -1.0258e+007  4.8044e+005 115716 226190,226242,226216
 1.4000e+001 226420 -5.1060e+005 -8.2290e+006  2.1446e+006 115376 226293,226345,226319
 1.4000e+001 226397 -6.5632e+005 -7.6106e+006  1.0298e+006 115376 226293,226371,226345
 1.4000e+001 226621  7.2526e+004 -5.9234e+006  1.0556e+005 114972 226497,226549,226523
 1.4000e+001 226598 -5.5369e+005 -9.7633e+006 -7.4122e+005 114972 226445,226549,226497
 1.4000e+001 226575 -1.8352e+005 -6.6509e+006  2.9197e+005 114972 226445,226497,226471
 1.4000e+001 226773 -6.5597e+005 -5.9454e+006 -6.0735e+005 114670 226646,226698,226672
 1.4000e+001 226750 -7.8521e+004 -7.7411e+006  2.7586e+004 114670 226646,226724,226698
 1.4000e+001 226974  2.2905e+005 -4.8077e+006 -2.4800e+005 114082 226798,226850,226824
 1.4000e+001 226951 -8.2127e+004 -3.8285e+006 -5.4412e+005 114082 226798,226902,226850
 1.4000e+001 226928 -2.2013e+005 -4.5441e+006 -5.7360e+005 114082 226850,226902,226876
 1.4000e+001 227175 -9.6151e+005 -8.3240e+006 -1.8388e+005 113678 226999,227051,227025
 1.4000e+001 227152 -1.7451e+006 -1.0169e+007 -9.8791e+005 113678 226999,227077,227051
 1.4000e+001 227129 -7.8898e+005 -1.1617e+007 -1.9155e+006 113678 226999,227103,227077
 1.4000e+001 227425 -9.7712e+004 -1.0734e+007 -3.8864e+005 113274 227226,227278,227252
 1.4000e+001 227402  1.0302e+005 -1.0593e+007 -2.0108e+006 113274 227226,227330,227278
 1.4000e+001 227379 -9.8763e+004 -1.0494e+007 -2.0475e+006 113274 227200,227330,227226
 1.4000e+001 227356 -3.9666e+006 -7.3485e+006  1.5036e+005 113274 227278,227330,227304
 1.4000e+001 227626  2.5927e+005 -4.2692e+006 -3.8176e+005 112934 227502,227554,227528
 1.4000e+001 227603  2.7497e+004 -4.1804e+006 -3.7488e+005 112934 227450,227554,227502
 1.4000e+001 227580 -5.6890e+005 -7.0930e+006 -7.2383e+005 112934 227450,227502,227476
 1.4000e+001 227876 -5.0031e+004 -4.7244e+006 -6.0740e+005 112437 227677,227755,227703
 1.4000e+001 227853 -8.3645e+005 -5.0702e+006  4.1745e+005 112437 227677,227781,227755
 1.4000e+001 227830 -6.5087e+005 -2.4037e+006  7.6371e+005 112437 227703,227755,227729
 1.4000e+001 227807 -5.4617e+005 -6.6818e+006 -1.6151e+005 112437 227651,227781,227677
 1.4000e+001 228126 -9.4369e+005 -4.8388e+006  5.7013e+005 112041 227927,228005,227953
 1.4000e+001 228103 -2.4022e+005 -8.4635e+006 -1.5575e+006 112041 227927,228031,228005
 1.4000e+001 228080 -1.3151e+006 -6.5475e+006  2.6067e+005 112041 227953,228005,227979
 1.4000e+001 228057  2.1670e+005 -6.9454e+006 -1.1964e+006 112041 227901,228031,227927
 1.4000e+001 228327 -7.8312e+005 -8.1454e+006 -1.2314e+006 111693 228151,228203,228177
 1.4000e+001 228304 -7.8173e+005 -5.0565e+006 -1.4560e+006 111693 228151,228229,228203
 1.4000e+001 228281  4.5372e+005 -7.4128e+006  2.6220e+005 111693 228151,228255,228229
 1.4000e+001 228479 -2.0612e+006 -1.2840e+007 -4.4837e+006 111253 228352,228404,228378
 1.4000e+001 228456 -2.6897e+006 -8.8292e+006 -1.1410e+006 111253 228352,228430,228404
 1.4000e+001 228582  1.1401e+001 -5.4984e+004 -2.3294e+002 110906 228504,228556,228530
 1.4000e+001 228783 -6.8805e+005 -7.1655e+006  1.2307e+006 110416 228633,228711,228659
 1.4000e+001 228760 -4.8349e+005 -2.8248e+006  4.4831e+004 110416 228607,228711,228633
 1.4000e+001 228737 -1.4341e+005 -4.5068e+006  9.4695e+005 110416 228659,228711,228685
 1.4000e+001 228935 -2.3002e+005 -3.6575e+006 -1.0028e+005 110012 228808,228860,228834
 1.4000e+001 228912 -1.4484e+005 -8.0982e+006 -7.9604e+005 110012 228808,228886,228860
 1.4000e+001 229087 -1.1052e+006 -3.5835e+006 -1.2290e+006 109672 228960,229012,228986
 1.4000e+001 229064 -3.9521e+005 -7.1922e+006 -4.0341e+004 109672 228960,229038,229012
 1.4000e+001 229190  1.8399e+004 -4.9059e+005 -3.1322e+004 109332 229112,229164,229138
 1.4000e+001 229391 -1.6578e+005 -1.5009e+006 -2.7594e+005 109156 229267,229319,229293
 1.4000e+001 229368 -4.1759e+005 -2.9064e+006 -3.8123e+005 109156 229215,229319,229267
 1.4000e+001 229345 -1.8020e+005 -1.5089e+006  1.0772e+005 109156 229215,229267,229241
 1.4000e+001 229543  1.7921e+005 -9.8866e+006  6.1658e+005 108752 229416,229468,229442
 1.4000e+001 229520 -4.8521e+005 -9.9287e+006  7.7879e+005 108752 229416,229494,229468
 1.4000e+001 229744 -1.6768e+005 -7.9114e+006 -2.8168e+004 108198 229594,229646,229620
 1.4000e+001 229721 -1.0034e+006 -8.1919e+006  8.0153e+005 108198 229594,229672,229646
 1.4000e+001 229698  3.9858e+005 -1.1235e+007 -8.5904e+005 108198 229568,229672,229594
 1.4000e+001 229847 -1.0505e+005 -2.9148e+006 -1.6961e+005 107758 229769,229821,229795
 1.4000e+001 230048 -1.0598e+006 -4.8787e+006 -1.2498e+006 107468 229898,229950,229924
 1.4000e+001 230025 -4.6243e+005 -4.2538e+006 -2.2890e+005 107468 229872,229950,229898
 1.4000e+001 230002 -6.6886e+005 -4.7266e+006  1.7805e+005 107468 229872,229976,229950
 1.4000e+001 230298  2.3366e+005 -4.7946e+006  5.6982e+005 107121 230099,230203,230177
 1.4000e+001 230275 -5.1184e+005 -3.5097e+006  2.3261e+005 107121 230073,230203,230099
 1.4000e+001 230252 -8.3763e+005 -5.2263e+006 -1.5077e+004 107121 230099,230177,230151
 1.4000e+001 230229 -3.6339e+005 -5.9773e+006  6.2039e+005 107121 230099,230151,230125
 1.4000e+001 230450  5.4261e+005 -6.1860e+006 -6.4947e+005 106823 230349,230401,230375
 1.4000e+001 230427 -3.8684e+005 -1.4793e+006  3.7196e+005 106823 230323,230401,230349
 1.4000e+001 230602 -1.0106e+006 -8.4900e+006 -1.7357e+006 106533 230501,230553,230527
 1.4000e+001 230579 -1.1842e+006 -8.9363e+006 -2.2727e+006 106533 230475,230553,230501
 1.4000e+001 230803 -5.2859e+005 -2.7149e+006  5.1219e+005 106029 230679,230731,230705
 1.4000e+001 230780 -1.2403e+006 -5.9266e+006  1.0684e+006 106029 230653,230731,230679
 1.4000e+001 230757 -1.8623e+005 -6.8016e+006  1.3175e+006 106029 230627,230731,230653
 1.4000e+001 231004  4.6298e+004 -5.1215e+006 -1.4039e+005 105689 230854,230906,230880
 1.4000e+001 230981  1.2838e+005 -5.4131e+006 -4.6126e+005 105689 230828,230906,230854
 1.4000e+001 230958 -8.6943e+005 -4.4987e+006 -1.1921e+006 105689 230828,230932,230906
 1.4000e+001 231156 -8.9551e+005 -4.7633e+006  9.6622e+005 105377 231055,231107,231081
 1.4000e+001 231133  1.2409e+006 -1.3342e+007 -1.3818e+006 105377 231029,231107,231055
 1.4000e+001 231406  4.0575e+004 -8.0223e+006 -4.0991e+005 104858 231207,231259,231233
 1.4000e+001 231383 -9.9723e+005 -8.0021e+006 -7.1115e+005 104858 231207,231311,231259
 1.4000e+001 231360 -7.2793e+005 -1.2097e+007 -1.1045e+006 104858 231259,231311,231285
 1.4000e+001 231337 -5.1137e+005 -1.0417e+007 -1.3684e+006 104858 231181,231311,231207
 1.4000e+001 231558 -9.2707e+005 -4.7089e+006  2.5841e+006 104418 231457,231509,231483
 1.4000e+001 231535 -2.0486e+005 -4.5736e+006  4.0994e+005 104418 231431,231509,231457
 1.4000e+001 231710 -5.1116e+005 -4.4175e+006 -3.8090e+005 103978 231583,231635,231609
 1.4000e+001 231687 -5.6856e+005 -3.1362e+006 -4.6665e+005 103978 231583,231661,231635
 1.4000e+001 231862 -2.6058e+004 -9.9911e+005 -1.1432e+005 103588 231761,231813,231787
 1.4000e+001 231839 -2.3434e+004 -1.0025e+006 -1.0763e+005 103588 231735,231813,231761
 1.4000e+001 232014 -1.5456e+006 -9.1218e+006 -2.4304e+006 103248 231887,231939,231913
 1.4000e+001 231991  5.7522e+005 -1.5885e+007 -3.3185e+006 103248 231887,231965,231939
 1.4000e+001 232215 -2.8541e+005 -3.5235e+006  4.9099e+005 102844 232039,232117,232065
 1.4000e+001 232192 -8.8785e+004 -4.2227e+006 -1.7160e+005 102844 232039,232143,232117
 1.4000e+001 232169 -2.2080e+005 -2.8541e+006  2.4990e+004 102844 232065,232117,232091
 1.4000e+001 232416 -2.3474e+006 -1.0367e+007 -2.2935e+006 102554 232240,232318,232292
 1.4000e+001 232393  1.1149e+006 -1.3873e+007 -1.5242e+005 102554 232240,232344,232318
 1.4000e+001 232370 -2.4860e+006 -8.5127e+006 -1.6701e+006 102554 232240,232292,232266
 1.4000e+001 232568 -4.9798e+005 -5.7925e+006  1.3036e+006 102100 232441,232493,232467
 1.4000e+001 232545 -6.3569e+005 -5.3409e+006  3.3702e+005 102100 232441,232519,232493
 1.4000e+001 232769 -2.1543e+005 -1.5136e+006 -1.5538e+005 101596 232645,232697,232671
 1.4000e+001 232746 -4.6731e+005 -2.5185e+006 -1.7542e+005 101596 232593,232697,232645
 1.4000e+001 232723  3.4991e+004 -5.7662e+006 -3.3804e+005 101596 232593,232645,232619
 1.4000e+001 232921 -7.0349e+003 -5.9668e+005 -2.0975e+003 101420 232794,232846,232820
 1.4000e+001 232898 -1.3466e+003 -5.2775e+005  3.3537e+003 101420 232794,232872,232846
 1.4000e+001 233073 -1.3506e+006 -5.2625e+006 -6.3673e+005 101023 232946,232998,232972
 1.4000e+001 233050 -3.9175e+005 -7.4922e+006  1.0225e+006 101023 232946,233024,232998
 1.4000e+001 233225 -2.7395e+005 -4.1507e+006 -2.6673e+003 100661 233098,233150,233124
 1.4000e+001 233202  2.5339e+005 -6.9051e+006  1.8577e+005 100661 233098,233176,233150
 1.4000e+001 233426 -1.1943e+006 -6.8091e+006 -1.7914e+006 100265 233276,233328,233302
 1.4000e+001 233403 -9.6563e+005 -6.1805e+006 -2.9979e+005 100265 233276,233354,233328
 1.4000e+001 233380 -1.0493e+006 -9.1947e+006 -9.4020e+005 100265 233250,233354,233276
 1.4000e+001 233578 -4.7020e+005 -1.0640e+006 -9.7211e+005 100032 233451,233503,233477
 1.4000e+001 233555 -1.0015e+005 -1.0796e+006  1.3316e+005 100032 233451,233529,233503
 1.4000e+001 233681 -5.1489e+004 -8.3374e+005  4.3152e+004 99742 233603,233655,233629
 1.4000e+001 233784 -2.9807e+005 -5.4119e+006  7.8969e+004 99402 233706,233758,233732
 1.4000e+001 233936 -7.8681e+005 -3.8377e+006  1.3317e+005 99062 233835,233887,233861
 1.4000e+001 233913 -4.6191e+005 -2.4036e+006 -3.7407e+005 99062 233809,233887,233835
 1.4000e+001 234088 -4.7737e+005 -4.0828e+006  5.7978e+005 98772 233987,234039,234013
 1.4000e+001 234065 -1.1220e+006 -4.2391e+006  1.9835e+006 98772 233961,234039,233987
 1.4000e+001 234240 -1.2609e+005 -1.6086e+006  3.2072e+005 98160 234139,234191,234165
 1.4000e+001 234217 -4.2077e+004 -9.8064e+005  9.6207e+004 98160 234113,234191,234139
 1.4000e+001 234441 -1.0608e+005 -3.6732e+006  2.3523e+005 97820 234317,234369,234343
 1.4000e+001 234418 -1.7029e+005 -3.9126e+006  1.4364e+005 97820 234291,234369,234317
 1.4000e+001 234395 -2.0215e+005 -4.5379e+006  1.0631e+004 97820 234265,234369,234291
 1.4000e+001 234593 -8.7055e+005 -3.1095e+006  9.4376e+004 97366 234466,234518,234492
 1.4000e+001 234570 -1.6794e+005 -6.8157e+006  5.2733e+004 97366 234466,234544,234518
 1.4000e+001 234794 -1.1321e+006 -2.1698e+006 -5.9757e+005 96976 234618,234670,234644
 1.4000e+001 234771 -2.9399e+005 -6.3287e+006  2.5208e+005 96976 234618,234722,234670
 1.4000e+001 234748 -7.7108e+005 -4.0107e+006 -1.2041e+006 96976 234670,234722,234696
 1.4000e+001 234946 -7.2293e+005 -2.4911e+006  8.2832e+005 96568 234845,234897,234871
 1.4000e+001 234923 -6.8548e+005 -1.7621e+006  3.4049e+005 96568 234819,234897,234845
 1.4000e+001 235196 -1.0818e+005 -2.5714e+006 -5.9560e+004 96216 234997,235075,235049
 1.4000e+001 235173 -6.0805e+004 -5.5397e+006  1.0795e+006 96216 234997,235101,235075
 1.4000e+001 235150 -8.0338e+005 -4.5775e+006  5.0171e+005 96216 234997,235049,235023
 1.4000e+001 235127 -1.3274e+005 -6.2437e+006 -6.6787e+005 96216 234971,235101,234997
 1.4000e+001 235348 -1.0345e+006 -2.4100e+006 -1.4303e+006 95863 235247,235299,235273
 1.4000e+001 235325 -6.4104e+005 -1.6688e+006 -1.0288e+006 95863 235221,235299,235247
 1.4000e+001 235500 -1.5488e+006 -5.3518e+006 -1.8046e+006 95339 235373,235425,235399
 1.4000e+001 235477 -9.4397e+005 -7.9155e+006  1.9123e+006 95339 235373,235451,235425
 1.4000e+001 235701 -7.9250e+004 -4.9721e+006  1.3884e+006 95023 235525,235577,235551
 1.4000e+001 235678 -6.8202e+004 -2.9595e+006 -1.7516e+005 95023 235525,235629,235577
 1.4000e+001 235655 -7.9880e+005 -3.0974e+006  1.5498e+005 95023 235577,235629,235603
 1.4000e+001 235853  8.9100e+005 -8.7602e+006  1.1849e+006 94671 235726,235778,235752
 1.4000e+001 235830 -3.4380e+005 -6.2664e+006 -6.8703e+005 94671 235726,235804,235778
 1.4000e+001 236005 -8.9197e+005 -6.4838e+006 -6.9421e+005 94261 235904,235956,235930
 1.4000e+001 235982 -1.3609e+006 -7.5267e+006 -1.6375e+006 94261 235878,235956,235904
 1.4000e+001 236206 -8.9741e+005 -2.2309e+006  1.4066e+006 93853 236056,236134,236082
 1.4000e+001 236183 -1.7626e+005 -2.1229e+006 -1.2274e+005 93853 236030,236134,236056
 1.4000e+001 236160 -4.3702e+005 -4.3512e+006  1.0415e+006 93853 236082,236134,236108
 1.4000e+001 236407 -8.4188e+005 -5.8261e+006 -7.4321e+004 93557 236257,236309,236283
 1.4000e+001 236384 -1.7805e+006 -6.3084e+006 -1.2288e+006 93557 236231,236309,236257
 1.4000e+001 236361 -5.5312e+005 -9.5158e+006 -2.4371e+005 93557 236231,236335,236309
 1.4000e+001 236559 -2.4420e+005 -1.9896e+006 -1.5620e+005 93149 236432,236484,236458
 1.4000e+001 236536 -1.8725e+005 -1.7936e+006 -1.2334e+005 93149 236432,236510,236484
 1.4000e+001 236711 -2.6908e+004 -2.6373e+006  5.6796e+005 92853 236584,236636,236610
 1.4000e+001 236688  3.7189e+004 -2.9703e+006  6.1524e+005 92853 236584,236662,236636
 1.4000e+001 236912 -6.7544e+004 -4.6859e+006  7.6995e+005 92501 236736,236788,236762
 1.4000e+001 236889 -1.6840e+005 -3.5426e+006  1.1737e+005 92501 236736,236840,236788
 1.4000e+001 236866 -3.8075e+005 -3.5926e+006  6.4912e+005 92501 236788,236840,236814
 1.4000e+001 237113 -4.7386e+004 -4.1413e+006  3.6783e+005 92291 236963,237041,237015
 1.4000e+001 237090  3.1764e+004 -2.6760e+006  1.3460e+005 92291 236937,237041,236963
 1.4000e+001 237067 -2.0558e+005 -3.8671e+006  8.9125e+005 92291 236963,237015,236989
 1.4000e+001 237265 -7.1474e+005 -2.7038e+006 -1.0858e+005 91871 237138,237190,237164
 1.4000e+001 237242 -1.2638e+006 -3.0375e+006 -6.6018e+005 91871 237138,237216,237190
 1.4000e+001 237368 -1.0707e+003 -3.6899e+006  7.3177e+002 91581 237290,237342,237316
 1.4000e+001 237520 -3.8505e+005 -1.9900e+006  7.3439e+005 91184 237419,237471,237445
 1.4000e+001 237497 -3.8343e+005 -2.7973e+006  1.9218e+004 91184 237393,237471,237419
 1.4000e+001 237672 -9.2394e+005 -3.3603e+006  3.1237e+005 90894 237545,237597,237571
 1.4000e+001 237649 -6.8507e+005 -3.8524e+006  4.9555e+005 90894 237545,237623,237597
 1.4000e+001 237873 -6.8384e+005 -5.0432e+006  2.2118e+005 90490 237749,237801,237775
 1.4000e+001 237850 -1.7637e+005 -4.4053e+006  6.3831e+005 90490 237723,237801,237749
 1.4000e+001 237827 -1.6326e+005 -4.4135e+006 -1.6948e+006 90490 237697,237801,237723
 1.4000e+001 238074 -9.0091e+005 -6.5925e+006 -7.0088e+004 90100 237898,237976,237950
 1.4000e+001 238051 -1.7700e+006 -6.7597e+006 -6.5240e+004 90100 237898,238002,237976
 1.4000e+001 238028 -5.4161e+005 -6.7503e+006 -3.5021e+005 90100 237898,237950,237924
 1.4000e+001 238275 -9.5500e+005 -4.7516e+006  4.5593e+005 89696 238125,238177,238151
 1.4000e+001 238252 -8.9823e+005 -3.8639e+006 -1.2057e+006 89696 238099,238177,238125
 1.4000e+001 238229 -1.5697e+006 -5.3870e+006 -6.8600e+005 89696 238099,238203,238177
 1.4000e+001 238427 -1.0793e+005 -2.0152e+006 -3.9765e+004 89206 238326,238378,238352
 1.4000e+001 238404  2.1148e+005 -3.2013e+006  1.0945e+005 89206 238300,238378,238326
 1.4000e+001 238579 -9.4098e+005 -5.2454e+006  5.7297e+005 88908 238452,238504,238478
 1.4000e+001 238556 -3.3856e+005 -5.2780e+006  9.3548e+005 88908 238452,238530,238504
 1.4000e+001 238682  9.9367e+001 -4.0909e+005  2.4988e+002 88568 238604,238656,238630
 1.4000e+001 238883  4.5058e+004 -3.9473e+006  4.3088e+005 88278 238733,238811,238785
 1.4000e+001 238860 -9.0126e+004 -3.8022e+006  3.7398e+005 88278 238707,238811,238733
 1.4000e+001 238837 -1.3571e+005 -3.8499e+006  7.2011e+005 88278 238733,238785,238759
 1.4000e+001 239035 -5.5251e+005 -6.4786e+006 -1.6220e+005 87988 238908,238960,238934
 1.4000e+001 239012 -1.1608e+006 -5.4202e+006  8.8500e+005 87988 238908,238986,238960
 1.4000e+001 239138  2.7403e+003 -3.1281e+006  8.6740e+004 87648 239060,239112,239086
 1.4000e+001 239339 -8.0107e+005 -3.9884e+006 -1.5826e+006 87358 239163,239215,239189
 1.4000e+001 239316 -1.2546e+006 -4.6100e+006 -4.7261e+004 87358 239163,239241,239215
 1.4000e+001 239293 -9.5403e+005 -2.1622e+006 -1.0615e+006 87358 239163,239267,239241
 1.4000e+001 239589  1.8396e+003 -2.5268e+006  2.1955e+005 86961 239390,239468,239416
 1.4000e+001 239566  5.2916e+004 -2.5277e+006  2.0130e+005 86961 239390,239494,239468
 1.4000e+001 239543 -8.3662e+004 -7.6178e+005  1.0189e+005 86961 239416,239468,239442
 1.4000e+001 239520 -3.4907e+005 -1.3985e+006  4.1369e+005 86961 239364,239494,239390
 1.4000e+001 239741 -1.1464e+006 -5.0346e+006 -1.0047e+006 86621 239640,239692,239666
 1.4000e+001 239718 -4.5649e+005 -5.8519e+006 -1.5598e+006 86621 239614,239692,239640
 1.4000e+001 239893 -5.0730e+004 -4.9076e+006  3.7578e+005 86217 239792,239844,239818
 1.4000e+001 239870 -2.3595e+005 -4.2538e+006 -1.3079e+005 86217 239766,239844,239792
 1.4000e+001 240045 -6.8052e+005 -4.4831e+006  5.2642e+004 85827 239918,239970,239944
 1.4000e+001 240022 -1.3601e+005 -4.3508e+006  1.6138e+005 85827 239918,239996,239970
 1.4000e+001 240197 -6.6620e+004 -5.3082e+006  6.3524e+005 85437 240096,240148,240122
 1.4000e+001 240174 -8.5904e+005 -4.0469e+006 -2.6577e+005 85437 240070,240148,240096
 1.4000e+001 240349 -1.9063e+005 -2.7542e+006  9.7973e+005 85147 240222,240274,240248
 1.4000e+001 240326 -2.4511e+005 -1.3837e+006 -2.8780e+005 85147 240222,240300,240274
 1.4000e+001 240501 -9.2806e+005 -3.2899e+006  4.4415e+005 84807 240374,240426,240400
 1.4000e+001 240478 -1.2030e+006 -3.3343e+006  4.5875e+005 84807 240374,240452,240426
 1.4000e+001 240653 -1.2681e+004 -3.5683e+005 -6.5273e+004 84303 240552,240604,240578
 1.4000e+001 240630 -1.0446e+004 -3.5850e+005 -6.0601e+004 84303 240526,240604,240552
 1.4000e+001 240854 -1.4979e+005 -8.4665e+006 -2.3184e+006 83929 240704,240756,240730
 1.4000e+001 240831  7.4777e+005 -7.5061e+006  9.6261e+005 83929 240704,240782,240756
 1.4000e+001 240808 -1.5662e+006 -1.5399e+006  1.2991e+006 83929 240678,240782,240704
 1.4000e+001 241055 -1.7959e+004 -1.5811e+006 -1.5410e+005 83539 240879,240957,240931
 1.4000e+001 241032 -5.9936e+005 -1.8434e+006  8.5687e+004 83539 240879,240983,240957
 1.4000e+001 241009 -2.9368e+005 -8.6262e+005 -1.6446e+005 83539 240879,240931,240905
 1.4000e+001 241207  2.0693e+005 -3.3633e+006  2.2408e+005 83079 241106,241158,241132
 1.4000e+001 241184 -3.4280e+005 -1.3432e+006  3.0191e+005 83079 241080,241158,241106
 1.4000e+001 241408  9.7319e+005 -4.9468e+006  1.4619e+005 82665 241232,241284,241258
 1.4000e+001 241385 -1.3070e+006 -1.2228e+007 -3.3239e+006 82665 241232,241336,241284
 1.4000e+001 241362 -3.5135e+006  3.1495e+006  5.8676e+006 82665 241284,241336,241310
 1.4000e+001 241658 -1.2054e+005 -3.8622e+006  2.8803e+005 82375 241485,241563,241511
 1.4000e+001 241635  1.2534e+005 -2.6579e+006  2.4921e+005 82375 241433,241563,241485
 1.4000e+001 241612 -7.2905e+003 -3.1060e+006  3.4143e+005 82375 241433,241485,241459
 1.4000e+001 241589 -4.5634e+005 -4.3994e+006  5.4184e+005 82375 241511,241563,241537
 1.4000e+001 241810 -7.9452e+005 -3.9860e+006  1.7405e+005 82035 241683,241735,241709
 1.4000e+001 241787 -1.0001e+006 -4.2033e+006  4.2001e+005 82035 241683,241761,241735
 1.4000e+001 241962 -8.0380e+005 -4.6541e+006 -5.5306e+004 81695 241861,241913,241887
 1.4000e+001 241939 -7.1288e+005 -4.6768e+006 -1.2283e+005 81695 241835,241913,241861
 1.4000e+001 242114 -1.2462e+006 -4.7815e+006  1.3704e+005 81355 242013,242065,242039
 1.4000e+001 242091 -1.0237e+006 -3.8394e+006  2.0071e+005 81355 241987,242065,242013
 1.4000e+001 242266 -4.2369e+005 -1.9169e+006 -5.6987e+005 80951 242139,242191,242165
 1.4000e+001 242243 -5.5123e+005 -2.5614e+006 -2.3095e+005 80951 242139,242217,242191
 1.4000e+001 242467 -1.0572e+005 -4.0913e+006  3.7068e+005 80311 242291,242369,242343
 1.4000e+001 242444  1.1716e+005 -3.2922e+006  2.6381e+005 80311 242291,242395,242369
 1.4000e+001 242421 -1.1651e+005 -3.7189e+006  2.9111e+005 80311 242291,242343,242317
 1.4000e+001 242619 -1.5082e+006 -3.5494e+006 -3.6447e+005 80021 242492,242544,242518
 1.4000e+001 242596 -1.3994e+006 -3.1768e+006  4.1962e+004 80021 242492,242570,242544
 1.4000e+001 242869 -2.3690e+005 -2.8242e+006 -2.8056e+004 79631 242644,242722,242696
 1.4000e+001 242846 -1.7111e+005 -2.9543e+006 -1.4947e+004 79631 242644,242774,242722
 1.4000e+001 242823 -2.5623e+005 -3.0015e+006  3.2204e+005 79631 242722,242774,242748
 1.4000e+001 242800 -2.5333e+005 -2.7345e+006 -1.6663e+005 79631 242644,242696,242670
 1.4000e+001 243070 -1.6616e+005 -1.1093e+007  1.5993e+006 79341 242920,242972,242946
 1.4000e+001 243047 -8.0988e+005 -6.4796e+006 -6.5649e+005 79341 242920,242998,242972
 1.4000e+001 243024 -7.1565e+005 -4.1070e+006  1.4911e+006 79341 242894,242998,242920
 1.4000e+001 243222  5.2935e+004 -1.9569e+006  5.0685e+005 78801 243121,243173,243147
 1.4000e+001 243199 -4.4992e+005 -3.7079e+006  9.3633e+005 78801 243095,243173,243121
 1.4000e+001 243423 -2.5968e+005 -7.1324e+006 -1.4248e+005 78511 243273,243325,243299
 1.4000e+001 243400 -4.1228e+005 -8.4958e+006  6.2865e+005 78511 243273,243351,243325
 1.4000e+001 243377 -5.6600e+003 -8.4198e+006  2.0004e+005 78511 243247,243351,243273
 1.4000e+001 243624 -3.4474e+005 -3.6615e+006 -4.3323e+005 78107 243474,243552,243526
 1.4000e+001 243601 -3.4253e+005 -2.8235e+006 -6.2567e+005 78107 243448,243552,243474
 1.4000e+001 243578 -8.8766e+005 -4.3744e+006 -1.0800e+006 78107 243474,243526,243500
 1.4000e+001 243776 -7.8709e+005 -4.3691e+006 -1.2081e+006 77653 243649,243701,243675
 1.4000e+001 243753 -1.7813e+006 -6.6133e+006 -3.4303e+005 77653 243649,243727,243701
 1.4000e+001 243977 -4.6659e+005 -5.2657e+006 -3.7842e+005 77093 243801,243853,243827
 1.4000e+001 243954 -1.4250e+005 -4.2971e+006  2.0442e+005 77093 243801,243879,243853
 1.4000e+001 243931 -8.9615e+004 -4.4407e+006  2.3571e+005 77093 243801,243905,243879
 1.4000e+001 244080 -1.3714e+006 -4.9840e+006  2.6605e+005 76791 244002,244054,244028
 1.4000e+001 244232 -3.3984e+005 -5.2400e+006  2.6608e+005 76311 244131,244183,244157
 1.4000e+001 244209 -4.2352e+004 -7.6469e+006  7.5978e+005 76311 244105,244183,244131
 1.4000e+001 244433 -8.8519e+005 -1.0727e+007  1.1939e+006 75903 244283,244335,244309
 1.4000e+001 244410 -3.5420e+005 -9.2669e+006  1.3686e+005 75903 244283,244361,244335
 1.4000e+001 244387 -1.6355e+006 -7.5944e+006  1.3957e+006 75903 244257,244361,244283
 1.4000e+001 244585 -5.4345e+004 -1.1284e+007  5.8245e+005 75419 244458,244510,244484
 1.4000e+001 244562 -4.0278e+005 -8.0695e+006 -1.3665e+005 75419 244458,244536,244510
 1.4000e+001 244737 -3.7915e+005 -2.3276e+006 -1.4918e+005 75215 244636,244688,244662
 1.4000e+001 244714 -2.8687e+005 -5.0540e+006 -1.6743e+005 75215 244610,244688,244636
 1.4000e+001 244889 -1.1105e+006 -4.5457e+006 -2.4828e+005 74857 244788,244840,244814
 1.4000e+001 244866 -7.5537e+005 -3.2177e+006 -7.8853e+004 74857 244762,244840,244788
 1.4000e+001 245041  3.9305e+004 -3.4177e+005 -1.1529e+005 74653 244940,244992,244966
 1.4000e+001 245018 -1.6908e+004 -2.1783e+005  5.5655e+004 74653 244914,244992,244940
 1.4000e+001 245144  6.2340e+004 -5.7606e+006 -3.5583e+005 74359 245066,245118,245092
 1.4000e+001 245296 -4.8660e+005 -2.9326e+006 -8.1325e+005 74007 245169,245221,245195
 1.4000e+001 245273 -5.5855e+005 -3.5770e+006 -8.0003e+005 74007 245169,245247,245221
 1.4000e+001 245448 -1.2977e+006 -6.3875e+006  2.3162e+006 73711 245321,245373,245347
 1.4000e+001 245425 -3.6635e+005 -6.1477e+006 -2.0440e+006 73711 245321,245399,245373
 1.4000e+001 245600  7.5875e+005 -9.6426e+006 -1.2658e+006 73301 245499,245551,245525
 1.4000e+001 245577 -1.2978e+006 -6.5099e+006  1.2691e+006 73301 245473,245551,245499
 1.4000e+001 245752 -1.9013e+005 -3.6690e+006 -1.0836e+006 72995 245625,245677,245651
 1.4000e+001 245729  6.7883e+005 -7.0859e+006 -1.0023e+006 72995 245625,245703,245677
 1.4000e+001 245953 -2.0499e+006 -9.4531e+006  6.2942e+005 72585 245777,245829,245803
 1.4000e+001 245930 -1.1736e+006 -9.7201e+006  1.7005e+006 72585 245777,245855,245829
 1.4000e+001 245907 -8.5418e+005 -8.8096e+006  1.3352e+006 72585 245777,245881,245855
 1.4000e+001 246154 -2.5869e+005 -4.8436e+006  1.0491e+006 72127 246030,246082,246056
 1.4000e+001 246131 -9.4340e+005 -6.9294e+006  5.6763e+005 72127 245978,246082,246030
 1.4000e+001 246108 -1.1938e+005 -6.9441e+006  1.1472e+005 72127 245978,246030,246004
 1.4000e+001 246257 -9.6809e+005 -3.2242e+006 -2.0837e+005 71737 246179,246231,246205
 1.4000e+001 246360 -1.5346e+005 -2.6649e+006  2.3914e+005 71447 246282,246334,246308
 1.4000e+001 246512 -3.2027e+005 -3.0894e+006  7.4996e+005 71157 246385,246437,246411
 1.4000e+001 246489 -9.0501e+004 -2.8854e+006  4.5426e+005 71157 246385,246463,246437
 1.4000e+001 246664 -2.7234e+005 -3.2917e+006 -3.4415e+005 70753 246537,246589,246563
 1.4000e+001 246641 -6.4959e+005 -2.6345e+006 -1.5690e+005 70753 246537,246615,246589
 1.4000e+001 246865 -1.0963e+006 -7.4813e+006  2.8723e+006 70249 246715,246767,246741
 1.4000e+001 246842 -1.4553e+006 -7.0041e+006  3.2944e+005 70249 246715,246793,246767
 1.4000e+001 246819 -8.3592e+005 -9.0301e+006 -1.0151e+006 70249 246689,246793,246715
 1.4000e+001 247066 -1.7596e+005 -2.5998e+006  4.4121e+005 70023 246916,246994,246942
 1.4000e+001 247043  1.7675e+005 -3.5026e+006  6.6293e+004 70023 246890,246994,246916
 1.4000e+001 247020 -2.0209e+005 -2.3941e+006  1.5500e+005 70023 246942,246994,246968
 1.4000e+001 247267 -2.9931e+005 -4.5936e+006 -3.3644e+005 69633 247091,247143,247117
 1.4000e+001 247244 -1.0637e+005 -3.8222e+006 -2.1378e+005 69633 247091,247169,247143
 1.4000e+001 247221 -1.7027e+004 -3.0015e+006 -1.6911e+005 69633 247091,247195,247169
 1.4000e+001 247419 -6.9018e+005 -5.7529e+006  5.8320e+005 69457 247318,247370,247344
 1.4000e+001 247396 -1.0084e+006 -4.2405e+006  6.1351e+005 69457 247292,247370,247318
 1.4000e+001 247522  2.9362e+001 -3.3301e+004 -8.1493e+002 69209 247444,247496,247470
 1.4000e+001 247625 -1.9508e+006 -2.5132e+006 -3.3907e+005 68919 247547,247599,247573
 1.4000e+001 247777  4.2469e+005 -6.0215e+006 -8.0486e+005 68579 247650,247702,247676
 1.4000e+001 247754 -4.6663e+005 -3.3532e+006 -2.3819e+005 68579 247650,247728,247702
 1.4000e+001 247929 -5.4466e+005 -3.6253e+006  1.5989e+006 68289 247802,247854,247828
 1.4000e+001 247906 -3.8257e+005 -2.8020e+006  8.7612e+005 68289 247802,247880,247854
 1.4000e+001 248081 -3.8652e+005 -4.6739e+006  1.0953e+006 67949 247980,248032,248006
 1.4000e+001 248058 -7.1311e+005 -1.8740e+006 -4.1467e+004 67949 247954,248032,247980
 1.4000e+001 248233 -1.5081e+006 -6.0701e+006 -6.9368e+005 67616 248132,248184,248158
 1.4000e+001 248210 -6.8005e+005 -6.2247e+006 -4.3568e+005 67616 248106,248184,248132
 1.4000e+001 248434 -1.8328e+005 -4.0605e+006 -4.2087e+005 67212 248284,248336,248310
 1.4000e+001 248411 -4.3465e+002 -4.1461e+006 -8.7002e+005 67212 248258,248336,248284
 1.4000e+001 248388 -1.5164e+006 -3.5477e+006 -6.6680e+005 67212 248258,248362,248336
 1.4000e+001 248586  5.4277e+004 -4.7579e+006  5.3756e+005 66872 248485,248537,248511
 1.4000e+001 248563 -9.2628e+005 -2.2478e+006 -3.1404e+005 66872 248459,248537,248485
 1.4000e+001 248738 -2.5797e+005 -5.4285e+006  1.1197e+005 66510 248637,248689,248663
 1.4000e+001 248715 -3.7407e+005 -8.4567e+006  1.7931e+005 66510 248611,248689,248637
 1.4000e+001 248890 -4.5078e+004 -1.0723e+006  2.1929e+005 66220 248789,248841,248815
 1.4000e+001 248867 -4.5814e+005 -1.4975e+006 -4.3278e+005 66220 248763,248841,248789
 1.4000e+001 249091 -7.0153e+005 -5.6818e+006  1.8694e+006 65759 248915,248967,248941
 1.4000e+001 249068 -4.4741e+005 -4.7252e+006  1.6574e+006 65759 248915,248993,248967
 1.4000e+001 249045 -1.9205e+005 -4.1666e+006  1.2872e+006 65759 248915,249019,248993
 1.4000e+001 249243 -1.7809e+005 -8.0560e+006  1.6484e+006 65419 249142,249194,249168
 1.4000e+001 249220 -4.1649e+005 -4.8336e+006  3.4308e+005 65419 249116,249194,249142
 1.4000e+001 249395 -4.0391e+005 -3.0015e+006 -3.0087e+005 65079 249268,249320,249294
 1.4000e+001 249372 -3.9891e+005 -3.7410e+006 -5.3458e+005 65079 249268,249346,249320
 1.4000e+001 249547 -5.5508e+004 -1.1969e+006 -6.8945e+004 64739 249420,249472,249446
 1.4000e+001 249524 -5.2937e+005 -1.3636e+006  7.8801e+004 64739 249420,249498,249472
 1.4000e+001 249650 -9.1276e+005 -4.8487e+006 -1.6507e+006 64342 249572,249624,249598
 1.4000e+001 249851 -1.4023e+006 -7.1740e+006 -1.2894e+006 63938 249701,249779,249753
 1.4000e+001 249828 -9.4977e+005 -7.6900e+006  2.4481e+006 63938 249675,249779,249701
 1.4000e+001 249805 -1.1059e+006 -1.9792e+007 -6.5043e+005 63938 249701,249753,249727
 1.4000e+001 250052 -9.2711e+005 -5.5250e+006 -3.3799e+005 63341 249876,249954,249902
 1.4000e+001 250029 -9.3720e+005 -5.7180e+006 -3.5550e+005 63341 249876,249980,249954
 1.4000e+001 250006  6.2119e+005 -6.3340e+006  3.4384e+005 63341 249902,249954,249928
 1.4000e+001 250253 -3.1853e+005 -1.1874e+007 -1.5274e+006 63058 250077,250129,250103
 1.4000e+001 250230 -1.1323e+006 -6.7798e+006 -4.2129e+005 63058 250077,250155,250129
 1.4000e+001 250207 -4.8087e+005 -6.5429e+006 -6.0277e+005 63058 250077,250181,250155
 1.4000e+001 250454 -1.0325e+006 -7.4603e+006  1.4430e+006 62832 250304,250382,250330
 1.4000e+001 250431  2.3300e+005 -9.3547e+006 -2.4376e+006 62832 250278,250382,250304
 1.4000e+001 250408 -2.4634e+006 -4.6266e+006  3.7610e+005 62832 250330,250382,250356
 1.4000e+001 250606  2.0321e+005 -1.0646e+007 -2.3317e+005 62428 250479,250531,250505
 1.4000e+001 250583 -2.4549e+004 -8.9017e+006 -5.9113e+005 62428 250479,250557,250531
 1.4000e+001 250758 -2.0423e+005 -7.1553e+006  6.8486e+005 62202 250631,250683,250657
 1.4000e+001 250735 -1.2128e+005 -8.0918e+006  2.0823e+006 62202 250631,250709,250683
 1.4000e+001 250861 -1.4300e+006 -2.8057e+006  5.7925e+004 61954 250783,250835,250809
 1.4000e+001 251062 -1.6948e+006 -8.3451e+006 -6.2849e+005 61557 250912,250990,250938
 1.4000e+001 251039 -2.6266e+005 -8.9504e+006 -3.7437e+005 61557 250886,250990,250912
 1.4000e+001 251016 -1.3860e+006 -9.1749e+006 -1.2744e+006 61557 250938,250990,250964
 1.4000e+001 251263 -1.0451e+006 -7.7206e+006 -2.0434e+004 61167 251113,251165,251139
 1.4000e+001 251240 -5.1262e+005 -7.4008e+006 -3.2411e+005 61167 251113,251191,251165
 1.4000e+001 251217 -1.1688e+006 -7.1481e+006  2.0874e+006 61167 251087,251191,251113
 1.4000e+001 251415 -9.7888e+005 -3.8142e+006  9.2475e+005 60827 251288,251340,251314
 1.4000e+001 251392 -6.6365e+005 -1.7360e+006 -1.6044e+005 60827 251288,251366,251340
 1.4000e+001 251567  8.1843e+004 -5.1015e+006  5.6828e+005 60487 251466,251518,251492
 1.4000e+001 251544 -1.0806e+005 -3.5252e+006 -3.0186e+005 60487 251440,251518,251466
 1.4000e+001 251719 -7.1349e+004 -9.8474e+006 -1.6202e+005 59983 251592,251644,251618
 1.4000e+001 251696 -8.3882e+005 -8.1388e+006  1.7819e+004 59983 251592,251670,251644
 1.4000e+001 251920  5.8759e+004 -2.1345e+006 -1.0147e+003 59807 251770,251848,251796
 1.4000e+001 251897  5.2124e+004 -2.0117e+006 -4.2589e+004 59807 251744,251848,251770
 1.4000e+001 251874  4.1109e+004 -2.4226e+006 -1.3241e+005 59807 251796,251848,251822
 1.4000e+001 252023 -1.4187e+005 -4.8953e+006  5.9812e+004 59517 251945,251997,251971
 1.4000e+001 252175  6.2382e+005 -7.5515e+006 -5.3698e+005 59269 252074,252126,252100
 1.4000e+001 252152 -9.5661e+005  1.4210e+006  8.0753e+005 59269 252048,252126,252074
 1.4000e+001 252278 -4.1559e+005 -2.5483e+006  1.1429e+006 58979 252200,252252,252226
 1.4000e+001 252381 -2.1619e+006 -2.7353e+006  1.0129e+006 58689 252303,252355,252329
 1.4000e+001 252533 -8.5999e+005 -4.6965e+006 -1.7014e+004 58249 252432,252484,252458
 1.4000e+001 252510 -7.6423e+005 -5.0959e+006 -6.4864e+005 58249 252406,252484,252432
 1.4000e+001 252734 -4.0698e+005 -4.1827e+006  2.5914e+005 57902 252584,252662,252610
 1.4000e+001 252711  8.0749e+005 -5.2722e+006 -1.5293e+005 57902 252558,252662,252584
 1.4000e+001 252688 -3.5956e+005 -2.9794e+006 -3.7319e+005 57902 252610,252662,252636
 1.4000e+001 252886 -1.2539e+005 -4.4002e+006 -1.7737e+005 57540 252785,252837,252811
 1.4000e+001 252863  1.4978e+005 -4.5393e+006 -1.3572e+005 57540 252759,252837,252785
 1.4000e+001 253038 -5.2139e+005 -5.6454e+006  1.2185e+006 57086 252937,252989,252963
 1.4000e+001 253015 -2.4968e+005 -2.6447e+006  1.6763e+005 57086 252911,252989,252937
 1.4000e+001 253239 -4.5095e+005 -5.2316e+006 -9.8969e+005 56796 253063,253141,253115
 1.4000e+001 253216  3.1335e+005 -6.0212e+006 -1.6449e+003 56796 253063,253167,253141
 1.4000e+001 253193 -1.0798e+006 -3.7144e+006 -6.2413e+005 56796 253063,253115,253089
 1.4000e+001 253342 -5.2506e+005 -5.0264e+006  4.1344e+005 56349 253264,253316,253290
 1.4000e+001 253543 -8.4869e+005 -7.7311e+006 -6.5344e+005 56009 253367,253419,253393
 1.4000e+001 253520 -6.7917e+005 -5.0791e+006 -3.4474e+005 56009 253367,253445,253419
 1.4000e+001 253497 -3.6436e+005 -5.9873e+006  5.8852e+004 56009 253367,253471,253445
 1.4000e+001 253695 -2.1006e+004 -3.9307e+006  5.3277e+004 55733 253594,253646,253620
 1.4000e+001 253672 -1.8478e+005 -3.0655e+006  6.4670e+004 55733 253568,253646,253594
 1.4000e+001 253798 -4.8582e+005 -2.4059e+006 -1.5768e+005 55557 253720,253772,253746
 1.4000e+001 253950 -5.3715e+005 -4.1544e+006  3.5314e+005 55153 253849,253901,253875
 1.4000e+001 253927  3.1067e+005 -4.8241e+006 -4.8160e+005 55153 253823,253901,253849
 1.4000e+001 254151 -1.2087e+006 -4.6713e+006  7.4759e+005 54863 253975,254053,254001
 1.4000e+001 254128 -5.9980e+005 -4.8267e+006 -1.8701e+004 54863 253975,254079,254053
 1.4000e+001 254105 -4.0392e+005 -3.6026e+006  1.2562e+005 54863 254001,254053,254027
 1.4000e+001 254303  9.6734e+004 -5.2305e+006  1.3897e+005 54373 254176,254228,254202
 1.4000e+001 254280 -9.0962e+005 -4.2332e+006  2.7012e+005 54373 254176,254254,254228
 1.4000e+001 254455 -2.7537e+005 -5.3494e+006 -3.8142e+005 53975 254354,254406,254380
 1.4000e+001 254432 -8.3344e+005 -1.7994e+006  7.5918e+004 53975 254328,254406,254354
 1.4000e+001 254607 -4.1498e+005 -4.7447e+006 -4.9501e+005 53585 254480,254532,254506
 1.4000e+001 254584 -3.3915e+005 -4.7191e+006 -5.3191e+005 53585 254480,254558,254532
 1.4000e+001 254808 -8.9599e+005 -3.5845e+006 -3.6808e+004 53245 254658,254736,254684
 1.4000e+001 254785 -1.0396e+006 -2.2646e+006 -3.5400e+005 53245 254632,254736,254658
 1.4000e+001 254762 -4.8932e+005 -2.6373e+006 -4.0806e+005 53245 254684,254736,254710
 1.4000e+001 254911 -3.3067e+005 -5.3743e+006 -1.4200e+005 52955 254833,254885,254859
 1.4000e+001 255063 -7.0988e+005 -5.6729e+006 -1.4680e+005 52551 254962,255014,254988
 1.4000e+001 255040 -6.7557e+005 -6.2000e+006 -3.6882e+005 52551 254936,255014,254962
 1.4000e+001 255264 -1.0578e+006 -1.8346e+006  6.3535e+004 52261 255114,255166,255140
 1.4000e+001 255241 -1.1537e+006 -4.1708e+006  7.6424e+005 52261 255114,255192,255166
 1.4000e+001 255218 -1.0015e+005 -6.9787e+006 -1.7984e+006 52261 255088,255192,255114
 1.4000e+001 255416 -3.2681e+005 -4.8072e+006  1.3675e+006 51971 255289,255341,255315
 1.4000e+001 255393 -2.9160e+005 -4.4547e+006 -2.1668e+005 51971 255289,255367,255341
 1.4000e+001 255568 -8.0959e+005 -2.3455e+006 -2.8818e+005 51681 255441,255493,255467
 1.4000e+001 255545  1.0149e+005 -7.5411e+006  5.8627e+005 51681 255441,255519,255493
 1.4000e+001 255769 -2.5748e+005 -3.6786e+006 -4.9388e+004 51291 255619,255697,255671
 1.4000e+001 255746 -2.2464e+005 -3.2711e+006 -3.4569e+005 51291 255593,255697,255619
 1.4000e+001 255723 -1.1873e+005 -4.9528e+006 -3.1530e+005 51291 255619,255671,255645
 1.4000e+001 255921 -4.4445e+005 -2.9917e+006  7.1668e+005 50951 255820,255872,255846
 1.4000e+001 255898 -3.3318e+005 -2.6887e+006  2.8146e+005 50951 255794,255872,255820
 1.4000e+001 256171 -1.2104e+006 -4.1743e+006 -5.5516e+004 50547 256024,256076,256050
 1.4000e+001 256148 -9.0326e+005 -4.4096e+006  4.4695e+005 50547 255972,256076,256024
 1.4000e+001 256125 -2.9651e+005 -5.1821e+006 -1.2756e+005 50547 255946,256076,255972
 1.4000e+001 256102 -8.6341e+005 -3.7273e+006  2.1852e+005 50547 255972,256024,255998
 1.4000e+001 256323  2.4009e+005 -5.3261e+006  9.1826e+005 50093 256196,256248,256222
 1.4000e+001 256300 -8.4326e+005 -2.8915e+006 -9.9583e+005 50093 256196,256274,256248
 1.4000e+001 256426 -1.1344e+003 -1.4483e+005 -5.8392e+002 49845 256348,256400,256374
 1.4000e+001 256627 -2.5633e+005 -4.8737e+006  2.3262e+005 49555 256477,256555,256503
 1.4000e+001 256604 -3.7695e+005 -4.3170e+006  2.0633e+005 49555 256451,256555,256477
 1.4000e+001 256581 -4.3714e+005 -4.1237e+006  3.2846e+005 49555 256503,256555,256529
 1.4000e+001 256828 -3.7690e+005 -3.5378e+006 -1.6374e+005 49056 256652,256730,256678
 1.4000e+001 256805 -5.0670e+005 -3.2789e+006 -7.1413e+004 49056 256652,256756,256730
 1.4000e+001 256782 -5.5153e+005 -3.3776e+006 -2.6407e+005 49056 256678,256730,256704
 1.4000e+001 256931 -9.8072e+005 -1.9464e+006 -7.5346e+005 48766 256853,256905,256879
 1.4000e+001 257083 -6.7275e+005 -4.6034e+006 -4.4829e+005 48568 256982,257034,257008
 1.4000e+001 257060 -5.1785e+005 -3.9646e+006 -5.6705e+005 48568 256956,257034,256982
 1.4000e+001 257186 -8.9111e+003 -1.3494e+006  2.7139e+003 48228 257108,257160,257134
 1.4000e+001 257338 -4.1075e+005 -2.0315e+006  5.8637e+005 47888 257237,257289,257263
 1.4000e+001 257315 -4.5787e+005 -2.0385e+006  5.0697e+005 47888 257211,257289,257237
 1.4000e+001 257539 -3.0361e+005 -4.3479e+006  1.4899e+005 47548 257363,257441,257415
 1.4000e+001 257516 -5.8481e+005 -4.1675e+006 -2.0846e+005 47548 257363,257467,257441
 1.4000e+001 257493 -5.3973e+005 -3.2403e+006 -1.3494e+005 47548 257363,257415,257389
 1.4000e+001 257740 -2.6146e+005 -4.3155e+006  4.0867e+005 46994 257564,257642,257616
 1.4000e+001 257717 -4.3205e+005 -3.6860e+006  1.8031e+005 46994 257564,257668,257642
 1.4000e+001 257694 -7.0349e+005 -4.5714e+006  5.9661e+004 46994 257564,257616,257590
 1.4000e+001 257843 -1.0095e+006 -3.3325e+006  1.1781e+005 46654 257765,257817,257791
 1.4000e+001 257995 -7.4661e+005 -3.5453e+006  2.9664e+005 46364 257894,257946,257920
 1.4000e+001 257972 -6.7921e+005 -4.3906e+006 -1.7773e+005 46364 257868,257946,257894
 1.4000e+001 258147 -2.0096e+005 -3.5460e+006  2.4548e+005 46024 258046,258098,258072
 1.4000e+001 258124 -3.8467e+005 -3.4253e+006  2.5595e+005 46024 258020,258098,258046
 1.4000e+001 258250 -7.1056e+005 -2.8013e+006  9.4046e+005 45741 258172,258224,258198
 1.4000e+001 258402 -1.5601e+005 -3.1114e+006  2.6726e+005 45401 258301,258353,258327
 1.4000e+001 258379 -5.1061e+005 -2.3928e+006  1.8817e+005 45401 258275,258353,258301
 1.4000e+001 258603 -6.4147e+005 -2.2111e+006  4.6538e+004 45071 258427,258505,258479
 1.4000e+001 258580 -2.6545e+005 -4.9870e+006  3.6673e+005 45071 258427,258531,258505
 1.4000e+001 258557 -2.0551e+005 -2.8285e+006  2.6267e+005 45071 258427,258479,258453
 1.4000e+001 258755 -1.4881e+005 -3.9015e+006 -2.4290e+005 44681 258654,258706,258680
 1.4000e+001 258732 -1.8843e+005 -4.1373e+006 -2.8728e+005 44681 258628,258706,258654
 1.4000e+001 258907 -4.4190e+005 -2.5802e+006 -2.3663e+005 44157 258806,258858,258832
 1.4000e+001 258884 -5.5442e+005 -2.4345e+006 -2.1887e+005 44157 258780,258858,258806
 1.4000e+001 259010 -6.0512e+005 -1.7927e+006 -1.6876e+004 43705 258932,258984,258958
 1.4000e+001 259113 -2.3810e+005 -4.5702e+006  4.0549e+005 43284 259035,259087,259061
 1.4000e+001 259216 -5.2938e+005 -3.7158e+006 -2.1657e+005 42954 259138,259190,259164
 1.4000e+001 259319 -9.4287e+005 -2.1262e+006  9.1209e+003 42116 259241,259293,259267
 1.4000e+001 259422 -3.6779e+005 -3.5145e+006 -2.2582e+005 41804 259344,259396,259370
 1.4000e+001 259525 -6.0471e+005 -5.4200e+006  6.7822e+005 41219 259447,259499,259473
 1.4000e+001 259628 -8.4226e+005 -3.0394e+006 -3.1933e+005 385 259550,259602,259576
 1.6000e+001 190120 -1.2454e+006 -2.5998e+006  3.2910e+005 189630 189993,190045,190019
 1.6000e+001 190097 -4.5677e+005 -2.8141e+006  3.9357e+005 189630 189993,190071,190045
 1.6000e+001 190319 -7.7423e+005 -5.4369e+006  3.4200e+004 189312 190169,190221,190195
 1.6000e+001 190296 -6.2389e+005 -4.8310e+006 -5.2993e+005 189312 190169,190247,190221
 1.6000e+001 190273 -7.6556e+005 -4.5799e+006 -1.5465e+004 189312 190143,190247,190169
 1.6000e+001 190518 -3.1137e+005 -3.9896e+006 -5.7443e+005 189124 190368,190446,190420
 1.6000e+001 190495 -1.0202e+006 -2.7681e+006  3.5552e+005 189124 190342,190446,190368
 1.6000e+001 190472 -1.6273e+006 -4.0074e+006 -1.5689e+006 189124 190368,190420,190394
 1.6000e+001 190619 -4.8897e+005 -4.1494e+005 -2.5150e+004 188926 190541,190593,190567
 1.6000e+001 190771 -6.1787e+005 -4.7744e+006 -4.1322e+005 188614 190670,190722,190696
 1.6000e+001 190748 -2.0373e+005 -3.5911e+006  4.2292e+004 188614 190644,190722,190670
 1.6000e+001 190972 -9.0841e+004 -4.2529e+006 -2.6236e+005 188324 190848,190900,190874
 1.6000e+001 190949 -1.8323e+005 -3.6933e+006  4.6241e+004 188324 190796,190900,190848
 1.6000e+001 190926 -8.3927e+005 -4.8907e+006 -4.4139e+005 188324 190796,190848,190822
 1.6000e+001 191124 -3.1596e+005 -2.8550e+006 -1.3976e+005 188034 191023,191075,191049
 1.6000e+001 191101 -5.1290e+005 -2.6549e+006 -2.4821e+005 188034 190997,191075,191023
 1.6000e+001 191276 -1.8528e+005 -2.9745e+006 -1.2377e+005 187836 191149,191201,191175
 1.6000e+001 191253 -4.3989e+005 -2.3991e+006  1.7288e+005 187836 191149,191227,191201
 1.6000e+001 191379 -3.9908e+005 -1.7953e+006 -1.3759e+005 187546 191301,191353,191327
 1.6000e+001 191531 -6.1089e+002 -7.1842e+006 -1.9368e+006 187256 191430,191482,191456
 1.6000e+001 191508 -4.7675e+005 -5.8334e+006  6.8190e+003 187256 191404,191482,191430
 1.6000e+001 191634 -3.0460e+005 -4.0332e+006 -4.4148e+005 187058 191556,191608,191582
 1.6000e+001 191835 -1.0023e+005 -3.3183e+006  2.8639e+005 186860 191659,191711,191685
 1.6000e+001 191812 -2.4507e+005 -2.5132e+006  4.4618e+005 186860 191659,191737,191711
 1.6000e+001 191789 -1.8858e+004 -1.9719e+006  1.6893e+005 186860 191659,191763,191737
 1.6000e+001 191987 -4.4610e+005 -2.7180e+006 -5.3154e+005 186662 191886,191938,191912
 1.6000e+001 191964 -2.6022e+005 -3.0462e+006 -3.0041e+005 186662 191860,191938,191886
 1.6000e+001 192090 -8.1251e+005 -2.0876e+006 -1.4821e+005 186486 192012,192064,192038
 1.6000e+001 192242 -4.9643e+005 -6.8929e+006 -3.4173e+003 186288 192115,192167,192141
 1.6000e+001 192219 -4.8024e+005 -6.0181e+006  2.1521e+005 186288 192115,192193,192167
 1.6000e+001 192394 -8.3174e+004 -6.0481e+006 -2.9122e+005 185935 192293,192345,192319
 1.6000e+001 192371 -4.3669e+005 -5.0570e+006 -5.0764e+005 185935 192267,192345,192293
 1.6000e+001 192546 -6.2001e+005 -2.6487e+006 -1.3008e+005 185675 192419,192471,192445
 1.6000e+001 192523 -1.9112e+005 -3.1972e+006  2.8003e+004 185675 192419,192497,192471
 1.6000e+001 192649 -4.1440e+005 -1.8999e+006  3.9376e+004 185499 192571,192623,192597
 1.6000e+001 192801 -1.3078e+006 -2.1101e+006 -1.1992e+005 185301 192674,192726,192700
 1.6000e+001 192778 -6.6530e+005 -1.9571e+006 -1.2583e+005 185301 192674,192752,192726
 1.6000e+001 193002 -1.5217e+005 -3.0803e+006 -5.3628e+005 185046 192852,192930,192878
 1.6000e+001 192979 -4.5359e+005 -4.2266e+006 -4.3534e+005 185046 192826,192930,192852
 1.6000e+001 192956  3.9872e+005 -5.2439e+006  1.2579e+005 185046 192878,192930,192904
 1.6000e+001 193203 -1.7842e+006 -4.3368e+006 -4.9086e+005 184798 193079,193131,193105
 1.6000e+001 193180 -5.5925e+004 -6.4606e+006 -1.3619e+006 184798 193027,193131,193079
 1.6000e+001 193157 -2.5645e+005 -6.7029e+006  1.2247e+006 184798 193027,193079,193053
 1.6000e+001 193404 -2.6287e+005 -4.8591e+006 -8.7446e+005 184600 193254,193306,193280
 1.6000e+001 193381 -8.8085e+005 -3.7468e+006  1.5173e+005 184600 193254,193332,193306
 1.6000e+001 193358 -1.1396e+006 -3.0174e+006  1.3149e+004 184600 193228,193332,193254
 1.6000e+001 193556  2.6106e+005 -4.8936e+006  2.0936e+005 184402 193429,193481,193455
 1.6000e+001 193533 -7.3835e+005 -3.1663e+006 -1.0830e+006 184402 193429,193507,193481
 1.6000e+001 193708 -8.8009e+005 -4.8249e+006 -3.2840e+005 184204 193607,193659,193633
 1.6000e+001 193685 -1.0136e+006 -6.5292e+006 -7.9165e+005 184204 193581,193659,193607
 1.6000e+001 193860 -3.0913e+005 -3.2749e+006  2.2789e+005 183908 193759,193811,193785
 1.6000e+001 193837 -2.1561e+005 -3.0888e+006  3.0374e+005 183908 193733,193811,193759
 1.6000e+001 194061 -1.2868e+005 -1.6424e+006 -3.6056e+005 183710 193911,193989,193937
 1.6000e+001 194038 -6.5848e+005 -2.2768e+006  2.1581e+005 183710 193885,193989,193911
 1.6000e+001 194015 -5.3560e+004 -3.4339e+006 -3.9373e+004 183710 193937,193989,193963
 1.6000e+001 194262 -1.2847e+006 -4.5110e+006 -1.3811e+006 183420 194086,194164,194112
 1.6000e+001 194239 -1.2594e+006 -3.6538e+006  1.9362e+004 183420 194086,194190,194164
 1.6000e+001 194216 -1.1819e+006 -9.3444e+006  1.0197e+006 183420 194112,194164,194138
 1.6000e+001 194414 -8.8738e+004 -5.8561e+006  4.5495e+005 183222 194287,194339,194313
 1.6000e+001 194391 -5.0175e+005 -3.3222e+006 -2.0586e+005 183222 194287,194365,194339
 1.6000e+001 194517 -1.2456e+006 -3.7462e+006 -3.4684e+004 183024 194439,194491,194465
 1.6000e+001 194718  9.7409e+004 -1.3471e+007  8.8425e+005 182734 194568,194620,194594
 1.6000e+001 194695 -8.2235e+005 -5.2959e+006 -2.8170e+006 182734 194542,194620,194568
 1.6000e+001 194672 -2.5332e+006 -2.4412e+006 -1.5026e+006 182734 194542,194646,194620
 1.6000e+001 194870 -7.9559e+005 -3.8809e+006  1.5301e+004 182444 194769,194821,194795
 1.6000e+001 194847 -3.4889e+005 -1.7637e+006 -2.8213e+005 182444 194743,194821,194769
 1.6000e+001 195071 -1.9067e+006 -4.7795e+006 -4.1192e+005 182154 194895,194947,194921
 1.6000e+001 195048 -9.8474e+005 -2.5926e+006  7.1982e+005 182154 194895,194999,194947
 1.6000e+001 195025  1.1027e+005 -7.8914e+006  9.4112e+005 182154 194947,194999,194973
 1.6000e+001 195223 -8.9720e+005 -4.4037e+006  3.3293e+005 181814 195096,195148,195122
 1.6000e+001 195200 -5.5503e+005 -2.8267e+006  7.2565e+005 181814 195096,195174,195148
 1.6000e+001 195375 -7.6252e+004 -5.2738e+006  7.4997e+005 181524 195248,195300,195274
 1.6000e+001 195352 -7.9088e+004 -4.1198e+006  4.9046e+005 181524 195248,195326,195300
 1.6000e+001 195527 -7.6318e+004 -3.0292e+005 -2.0568e+004 181326 195426,195478,195452
 1.6000e+001 195504 -5.3279e+005 -6.0291e+005  2.7801e+005 181326 195400,195478,195426
 1.6000e+001 195679  5.6043e+005 -9.5996e+006  1.3415e+005 180936 195578,195630,195604
 1.6000e+001 195656 -6.1928e+005 -4.6839e+006 -3.2716e+004 180936 195552,195630,195578
 1.6000e+001 195831 -6.1693e+005 -3.9542e+005 -2.2259e+005 180646 195704,195756,195730
 1.6000e+001 195808 -5.3137e+005 -1.3292e+005 -5.5281e+004 180646 195704,195782,195756
 1.6000e+001 196032 -3.3787e+005 -2.8893e+006  1.3235e+006 180306 195882,195960,195934
 1.6000e+001 196009 -9.3903e+005 -2.6505e+006  5.4802e+004 180306 195856,195960,195882
 1.6000e+001 195986  4.9166e+005 -4.4713e+006 -4.3035e+005 180306 195882,195934,195908
 1.6000e+001 196233 -3.3548e+004 -1.5965e+006 -1.3005e+006 179944 196057,196109,196083
 1.6000e+001 196210 -1.7798e+006 -9.7138e+006  1.4721e+006 179944 196057,196135,196109
 1.6000e+001 196187 -3.8720e+006  7.4375e+006 -2.7178e+006 179944 196057,196161,196135
 1.6000e+001 196385 -4.2441e+004 -3.3463e+005 -8.8982e+004 179604 196258,196310,196284
 1.6000e+001 196362 -1.3145e+005 -5.5383e+005 -2.1417e+005 179604 196258,196336,196310
 1.6000e+001 196586  2.3124e+005 -2.6579e+006 -2.4942e+005 179114 196410,196488,196436
 1.6000e+001 196563 -4.6989e+004 -1.9753e+006 -1.6221e+005 179114 196410,196514,196488
 1.6000e+001 196540 -2.8515e+004 -2.7122e+006 -2.8060e+005 179114 196436,196488,196462
 1.6000e+001 196738 -7.7023e+005 -2.9261e+006 -4.5559e+005 178674 196611,196663,196637
 1.6000e+001 196715 -9.4510e+004 -4.3269e+006 -1.4260e+005 178674 196611,196689,196663
 1.6000e+001 196939  1.1326e+006 -8.7114e+006 -1.3034e+006 178334 196789,196867,196841
 1.6000e+001 196916 -7.5691e+005 -8.4443e+006  1.6764e+005 178334 196763,196867,196789
 1.6000e+001 196893 -1.1996e+006 -7.4169e+006 -3.4495e+006 178334 196789,196841,196815
 1.6000e+001 197091 -2.3603e+005 -4.1889e+006 -4.5801e+005 177930 196990,197042,197016
 1.6000e+001 197068 -2.3096e+005 -4.0530e+006 -2.9769e+005 177930 196964,197042,196990
 1.6000e+001 197194 -2.0350e+002 -1.3596e+006 -2.8332e+002 177732 197116,197168,197142
 1.6000e+001 197346 -5.2821e+005 -7.2328e+006 -1.8230e+005 177534 197219,197271,197245
 1.6000e+001 197323  3.5419e+004 -9.2421e+006  8.9673e+005 177534 197219,197297,197271
 1.6000e+001 197547 -1.0896e+006 -3.1752e+006 -2.1565e+006 177130 197397,197449,197423
 1.6000e+001 197524 -5.5600e+005 -3.3760e+006 -3.9073e+005 177130 197397,197475,197449
 1.6000e+001 197501 -1.1849e+006 -9.0800e+006 -1.3535e+006 177130 197371,197475,197397
 1.6000e+001 197748 -3.7727e+005 -7.4852e+006  3.9625e+005 176790 197598,197676,197624
 1.6000e+001 197725 -2.1808e+005 -6.1131e+006  5.8319e+005 176790 197572,197676,197598
 1.6000e+001 197702 -5.9750e+005 -5.9995e+006  8.9014e+005 176790 197624,197676,197650
 1.6000e+001 197900 -1.7205e+005 -4.3261e+006 -7.7693e+005 176300 197773,197825,197799
 1.6000e+001 197877  1.4648e+005 -4.7857e+006 -8.5021e+005 176300 197773,197851,197825
 1.6000e+001 198052 -6.7398e+004 -9.9625e+006 -1.8212e+006 176010 197925,197977,197951
 1.6000e+001 198029 -9.2130e+005 -5.6729e+006 -9.6093e+005 176010 197925,198003,197977
 1.6000e+001 198204 -2.6830e+006 -7.2236e+006  2.1935e+006 175670 198103,198155,198129
 1.6000e+001 198181 -1.5024e+006 -6.5782e+006  4.3713e+004 175670 198077,198155,198103
 1.6000e+001 198405 -8.5503e+005 -7.4424e+006 -7.0965e+005 175266 198255,198307,198281
 1.6000e+001 198382 -2.4328e+005 -6.7055e+006 -1.2662e+005 175266 198229,198307,198255
 1.6000e+001 198359 -1.3687e+005 -5.9280e+006 -7.1634e+005 175266 198229,198333,198307
 1.6000e+001 198606 -2.2149e+005 -3.8832e+006 -3.5999e+005 174876 198430,198508,198482
 1.6000e+001 198583 -5.3101e+005 -4.0246e+006  2.4108e+005 174876 198430,198534,198508
 1.6000e+001 198560 -2.4937e+005 -3.3312e+006 -5.5954e+005 174876 198430,198482,198456
 1.6000e+001 198758 -2.7504e+004 -1.1238e+005 -5.6480e+004 174536 198657,198709,198683
 1.6000e+001 198735 -2.7832e+004 -1.1186e+005 -5.5436e+004 174536 198631,198709,198657
 1.6000e+001 199008  1.9184e+004 -1.2136e+007  3.1343e+005 174132 198835,198913,198887
 1.6000e+001 198985 -1.4162e+005 -7.4838e+006  3.8648e+005 174132 198809,198913,198835
 1.6000e+001 198962 -4.8666e+004 -7.6929e+006 -1.2510e+006 174132 198783,198913,198809
 1.6000e+001 198939 -4.9198e+004 -1.0445e+007  8.6095e+005 174132 198835,198887,198861
 1.6000e+001 199160 -6.1070e+005 -7.3026e+006  5.5532e+005 173842 199059,199111,199085
 1.6000e+001 199137 -9.2804e+005 -4.9214e+006 -1.8142e+005 173842 199033,199111,199059
 1.6000e+001 199361 -6.6259e+005 -7.8345e+006  1.0479e+006 173438 199237,199289,199263
 1.6000e+001 199338 -7.4234e+005 -6.0310e+006  1.4201e+006 173438 199211,199289,199237
 1.6000e+001 199315 -7.8809e+005 -7.8420e+006 -1.0899e+005 173438 199185,199289,199211
 1.6000e+001 199513  3.1369e+005 -9.6321e+006  1.4366e+006 173190 199386,199438,199412
 1.6000e+001 199490 -2.4086e+005 -7.6074e+006  7.0830e+004 173190 199386,199464,199438
 1.6000e+001 199665 -2.4506e+005 -3.9227e+006  1.3209e+005 172750 199564,199616,199590
 1.6000e+001 199642 -7.2941e+005 -2.4626e+006 -1.5886e+005 172750 199538,199616,199564
 1.6000e+001 199817 -6.7174e+005 -7.7156e+006 -2.4043e+006 172524 199690,199742,199716
 1.6000e+001 199794 -2.9070e+006 -4.6125e+006 -1.5176e+006 172524 199690,199768,199742
 1.6000e+001 199969 -1.2570e+004 -6.7669e+006 -2.9558e+005 172348 199842,199894,199868
 1.6000e+001 199946  5.7647e+005 -6.6659e+006  1.1773e+005 172348 199842,199920,199894
 1.6000e+001 200121  3.7077e+005 -8.9853e+006 -6.8813e+005 172008 199994,200046,200020
 1.6000e+001 200098 -5.7412e+005 -4.5825e+006 -3.2703e+005 172008 199994,200072,200046
 1.6000e+001 200273 -9.3771e+005 -1.0912e+007  1.4518e+006 171668 200172,200224,200198
 1.6000e+001 200250 -3.4690e+005 -9.4375e+006  1.9734e+006 171668 200146,200224,200172
 1.6000e+001 200474 -5.5329e+005 -1.1298e+007 -6.9301e+005 171264 200350,200402,200376
 1.6000e+001 200451 -7.9522e+005 -8.7329e+006  8.9964e+004 171264 200324,200402,200350
 1.6000e+001 200428 -8.4838e+005 -8.6152e+006  2.4540e+005 171264 200298,200402,200324
 1.6000e+001 200626  3.7691e+005 -1.0984e+007  4.8686e+005 170832 200525,200577,200551
 1.6000e+001 200603 -1.6652e+005 -9.1549e+006  3.0310e+005 170832 200499,200577,200525
 1.6000e+001 200827  4.1170e+005 -1.0446e+007  2.0485e+006 170492 200677,200729,200703
 1.6000e+001 200804 -1.6084e+006 -4.1232e+006 -2.9492e+006 170492 200651,200729,200677
 1.6000e+001 200781 -2.6901e+006 -5.1955e+006 -2.1436e+006 170492 200651,200755,200729
 1.6000e+001 201077  6.8493e+005 -3.3607e+006  1.0567e+005 170088 200878,200956,200904
 1.6000e+001 201054 -5.2351e+005 -3.8328e+006 -1.2360e+006 170088 200852,200956,200878
 1.6000e+001 201031  2.3449e+005 -3.3579e+006  2.3381e+006 170088 200904,200956,200930
 1.6000e+001 201008  3.1124e+006 -8.4673e+006  1.9974e+006 170088 200852,200982,200956
 1.6000e+001 201278  7.4777e+005 -5.2181e+006  7.8684e+005 169798 201102,201154,201128
 1.6000e+001 201255 -1.5729e+006 -1.4330e+007 -2.3525e+005 169798 201102,201206,201154
 1.6000e+001 201232 -2.3964e+006 -4.4936e+006  1.6028e+006 169798 201154,201206,201180
 1.6000e+001 201430 -1.1813e+006 -1.4887e+007 -1.1268e+006 169337 201303,201355,201329
 1.6000e+001 201407 -6.4214e+005 -6.7180e+006 -4.4940e+005 169337 201303,201381,201355
 1.6000e+001 201631 -3.0405e+005 -6.5474e+006 -1.6688e+005 168883 201481,201559,201507
 1.6000e+001 201608  4.2047e+005 -6.4165e+006 -3.7465e+004 168883 201455,201559,201481
 1.6000e+001 201585 -9.9454e+005 -7.7272e+006 -6.7619e+005 168883 201507,201559,201533
 1.6000e+001 201832 -4.1732e+005 -1.2775e+007  2.2253e+005 168479 201682,201734,201708
 1.6000e+001 201809 -1.5966e+006 -1.1476e+007 -8.9594e+005 168479 201656,201734,201682
 1.6000e+001 201786 -1.1467e+006 -9.6971e+006 -2.2520e+005 168479 201656,201760,201734
 1.6000e+001 202033 -2.2050e+005 -7.3562e+006  1.2742e+006 167825 201883,201935,201909
 1.6000e+001 202010 -5.1270e+003 -8.0235e+006 -3.6478e+005 167825 201857,201935,201883
 1.6000e+001 201987  1.0690e+005 -1.1248e+007  3.6282e+005 167825 201857,201961,201935
 1.6000e+001 202234 -1.3418e+006 -1.0093e+007 -3.0310e+006 167435 202058,202136,202084
 1.6000e+001 202211 -2.0676e+006 -1.5535e+007  3.5800e+006 167435 202058,202162,202136
 1.6000e+001 202188 -9.3397e+005 -5.1558e+006  3.9961e+005 167435 202084,202136,202110
 1.6000e+001 202386  3.9327e+005 -8.6028e+006  3.9319e+005 167002 202285,202337,202311
 1.6000e+001 202363 -9.7437e+005 -2.1716e+006  6.6021e+005 167002 202259,202337,202285
 1.6000e+001 202538  6.8002e+004 -7.5804e+006 -3.6905e+005 166662 202411,202463,202437
 1.6000e+001 202515 -4.8976e+005 -4.2694e+006  5.8707e+003 166662 202411,202489,202463
 1.6000e+001 202690 -4.1061e+005 -7.6524e+006 -3.2870e+005 166322 202589,202641,202615
 1.6000e+001 202667  4.7217e+005 -8.3440e+006 -7.7154e+005 166322 202563,202641,202589
 1.6000e+001 202891 -1.5331e+006 -4.5568e+006  2.0589e+005 165918 202715,202767,202741
 1.6000e+001 202868 -1.6530e+006 -5.1904e+006 -2.0730e+005 165918 202715,202793,202767
 1.6000e+001 202845 -2.1141e+005 -5.0099e+006 -5.1511e+005 165918 202715,202819,202793
 1.6000e+001 203092 -1.7635e+006 -7.8825e+006 -6.4923e+005 165628 202916,202968,202942
 1.6000e+001 203069 -1.2208e+005 -1.3178e+007 -6.5430e+004 165628 202916,202994,202968
 1.6000e+001 203046 -1.0024e+006 -1.3846e+007  5.3433e+005 165628 202916,203020,202994
 1.6000e+001 203293 -2.3630e+006 -1.3755e+007  2.7761e+006 165266 203143,203195,203169
 1.6000e+001 203270 -3.6741e+006 -8.4801e+006 -6.3592e+005 165266 203143,203221,203195
 1.6000e+001 203247  2.6753e+005 -1.1707e+007 -4.3653e+006 165266 203117,203221,203143
 1.6000e+001 203445 -1.6150e+004 -6.2161e+006  1.1640e+006 164826 203318,203370,203344
 1.6000e+001 203422 -2.2330e+005 -3.9937e+006 -5.0287e+005 164826 203318,203396,203370
 1.6000e+001 203597 -1.0020e+006 -8.3958e+006 -3.8416e+005 164386 203470,203522,203496
 1.6000e+001 203574 -2.1317e+005 -5.8338e+006  1.5138e+005 164386 203470,203548,203522
 1.6000e+001 203798  7.7629e+004 -7.9767e+006  9.3206e+005 163996 203622,203674,203648
 1.6000e+001 203775 -6.6892e+005 -3.3505e+006 -1.0702e+005 163996 203622,203726,203674
 1.6000e+001 203752 -2.0586e+006 -7.7624e+006  2.1465e+006 163996 203674,203726,203700
 1.6000e+001 203901 -4.6436e+005 -4.3338e+006 -6.5551e+005 163770 203823,203875,203849
 1.6000e+001 204053 -1.0416e+006 -7.6281e+006  1.1790e+006 163474 203952,204004,203978
 1.6000e+001 204030 -5.5833e+005 -8.4521e+006 -5.4301e+005 163474 203926,204004,203952
 1.6000e+001 204205 -7.0236e+004 -5.5446e+006 -2.9804e+005 163034 204104,204156,204130
 1.6000e+001 204182 -6.6504e+005 -8.5670e+006 -3.0254e+006 163034 204078,204156,204104
 1.6000e+001 204357 -2.7028e+005 -7.5022e+006  7.7761e+005 162624 204256,204308,204282
 1.6000e+001 204334 -1.4630e+005 -3.8594e+006 -3.3809e+004 162624 204230,204308,204256
 1.6000e+001 204509 -5.8467e+001 -6.0484e+002 -5.4360e+001 162200 204382,204434,204408
 1.6000e+001 204486  1.9659e+002 -4.5328e+002  2.6932e+002 162200 204382,204460,204434
 1.6000e+001 204710 -1.7291e+005 -1.7150e+006  4.3608e+005 161810 204560,204638,204586
 1.6000e+001 204687 -2.1933e+004 -2.7847e+006 -6.2392e+005 161810 204534,204638,204560
 1.6000e+001 204664 -2.1788e+005 -7.4477e+005  3.5869e+004 161810 204586,204638,204612
 1.6000e+001 204862 -1.1980e+006 -6.0494e+006 -1.4817e+006 161406 204735,204787,204761
 1.6000e+001 204839 -1.7634e+006 -6.5405e+006 -1.1544e+006 161406 204735,204813,204787
 1.6000e+001 205014 -2.3364e+005 -3.2870e+006  9.2232e+005 161180 204887,204939,204913
 1.6000e+001 204991 -3.1952e+005 -1.5474e+006  2.7360e+004 161180 204887,204965,204939
 1.6000e+001 205215  6.7687e+005 -3.1325e+006 -2.2584e+005 160726 205039,205091,205065
 1.6000e+001 205192 -8.4344e+005 -9.0224e+006 -7.2342e+005 160726 205039,205143,205091
 1.6000e+001 205169 -2.6056e+005 -2.1446e+006 -9.1807e+004 160726 205091,205143,205117
 1.6000e+001 205416 -4.8376e+005 -4.2680e+006  9.6577e+005 160272 205292,205344,205318
 1.6000e+001 205393 -4.0436e+005 -4.4752e+006  1.0169e+006 160272 205240,205344,205292
 1.6000e+001 205370 -5.1795e+005 -5.0754e+006  8.0965e+005 160272 205240,205292,205266
 1.6000e+001 205568 -2.7151e+005 -4.3001e+006  9.4789e+005 159932 205441,205493,205467
 1.6000e+001 205545 -3.9875e+005 -4.2766e+006  1.0591e+006 159932 205441,205519,205493
 1.6000e+001 205720 -1.2250e+004 -1.8889e+006 -3.5777e+005 159542 205593,205645,205619
 1.6000e+001 205697 -1.3132e+005 -2.7459e+005 -9.7549e+004 159542 205593,205671,205645
 1.6000e+001 205872  3.0931e+005 -9.6037e+005  7.6339e+004 159252 205745,205797,205771
 1.6000e+001 205849 -3.7184e+005 -3.9925e+006 -1.1949e+005 159252 205745,205823,205797
 1.6000e+001 206024 -2.6398e+006 -2.7768e+006 -8.3057e+005 159004 205923,205975,205949
 1.6000e+001 206001 -9.4846e+005 -4.2134e+006  2.4008e+005 159004 205897,205975,205923
 1.6000e+001 206127 -2.0607e+002 -5.0759e+001 -3.1575e+001 158364 206049,206101,206075
 1.6000e+001 206328 -4.9242e+005 -3.1655e+006  3.0339e+005 157960 206178,206256,206204
 1.6000e+001 206305 -2.6412e+005 -2.8159e+006  6.8428e+005 157960 206152,206256,206178
 1.6000e+001 206282  1.3730e+005 -3.6499e+006  5.7941e+005 157960 206204,206256,206230
 1.6000e+001 206529 -8.4503e+004 -7.9414e+006  5.7449e+004 157648 206405,206457,206431
 1.6000e+001 206506 -2.1612e+006 -6.5100e+006 -8.4867e+005 157648 206379,206457,206405
 1.6000e+001 206483 -6.4026e+005 -5.5005e+006  9.8582e+004 157648 206353,206457,206379
 1.6000e+001 206730  1.1423e+006 -1.5310e+007  2.5873e+005 157208 206554,206606,206580
 1.6000e+001 206707  6.5602e+005 -1.8556e+007  2.7755e+005 157208 206554,206632,206606
 1.6000e+001 206684 -3.7498e+006 -6.1340e+006 -2.9783e+004 157208 206554,206658,206632
 1.6000e+001 206882 -1.3395e+005 -2.6987e+006  5.1781e+005 157010 206755,206807,206781
 1.6000e+001 206859 -9.5316e+004 -2.8740e+006  5.9284e+005 157010 206755,206833,206807
 1.6000e+001 207034 -1.2450e+005 -9.7506e+006 -7.9382e+004 156620 206907,206959,206933
 1.6000e+001 207011  5.5744e+004 -1.2164e+007  5.6159e+004 156620 206907,206985,206959
 1.6000e+001 207186 -6.6305e+004 -4.3350e+006  2.0155e+005 156330 207085,207137,207111
 1.6000e+001 207163 -1.4766e+005 -4.3971e+006 -4.5292e+005 156330 207059,207137,207085
 1.6000e+001 207387 -1.4263e+004 -7.9521e+006  6.7875e+004 155890 207211,207289,207237
 1.6000e+001 207364 -3.3336e+005 -8.0279e+006  2.0420e+005 155890 207211,207315,207289
 1.6000e+001 207341 -1.2050e+006 -4.9128e+006  1.9397e+006 155890 207237,207289,207263
 1.6000e+001 207588  1.1291e+006 -1.7967e+007  3.1179e+006 155436 207438,207490,207464
 1.6000e+001 207565 -2.9853e+005 -1.5961e+007  1.5498e+005 155436 207412,207490,207438
 1.6000e+001 207542 -5.4228e+005 -1.1379e+007 -2.2043e+005 155436 207412,207516,207490
 1.6000e+001 207789  1.8442e+005 -2.6709e+007 -1.7208e+006 155260 207639,207691,207665
 1.6000e+001 207766 -2.4344e+006 -1.2389e+007  3.2626e+006 155260 207613,207691,207639
 1.6000e+001 207743 -5.0555e+005 -1.0258e+007 -6.9816e+005 155260 207613,207717,207691
 1.6000e+001 207990 -5.6284e+004 -1.0929e+006  2.1192e+005 154920 207840,207918,207892
 1.6000e+001 207967 -5.3726e+005 -1.3501e+006 -2.0936e+005 154920 207814,207918,207840
 1.6000e+001 207944 -1.0161e+005 -6.1678e+005 -7.7817e+004 154920 207840,207892,207866
 1.6000e+001 208191  1.7595e+005 -1.3159e+007 -1.1373e+006 154630 208015,208093,208041
 1.6000e+001 208168 -6.3459e+005 -7.9396e+006 -9.1575e+005 154630 208015,208119,208093
 1.6000e+001 208145 -1.6234e+006 -1.0441e+007 -3.6313e+006 154630 208041,208093,208067
 1.6000e+001 208343 -6.5814e+004 -8.6262e+005  3.9264e+004 154240 208216,208268,208242
 1.6000e+001 208320 -3.3336e+004 -6.7846e+005  9.9938e+004 154240 208216,208294,208268
 1.6000e+001 208495  1.8643e+005 -2.0465e+007 -4.1098e+006 153950 208394,208446,208420
 1.6000e+001 208472 -1.6029e+006 -1.2095e+007  1.9652e+006 153950 208368,208446,208394
 1.6000e+001 208647 -5.3456e+005 -1.2788e+007  5.2088e+006 153603 208520,208572,208546
 1.6000e+001 208624 -4.4318e+006 -6.1540e+006 -9.4320e+005 153603 208520,208598,208572
 1.6000e+001 208848 -6.4332e+005 -8.3450e+006  1.4046e+006 153149 208698,208776,208724
 1.6000e+001 208825  3.2498e+005 -1.3223e+007 -1.0663e+006 153149 208672,208776,208698
 1.6000e+001 208802 -2.3671e+006 -8.9641e+006  3.8723e+005 153149 208724,208776,208750
 1.6000e+001 209000 -7.3144e+005 -1.1465e+007  1.1820e+005 152859 208873,208925,208899
 1.6000e+001 208977 -1.4931e+004 -1.4948e+007  5.8959e+005 152859 208873,208951,208925
 1.6000e+001 209152  1.4515e+005 -1.3180e+007 -1.5230e+005 152569 209051,209103,209077
 1.6000e+001 209129  2.9504e+004 -1.3282e+007 -2.2158e+005 152569 209025,209103,209051
 1.6000e+001 209304 -6.1313e+004 -8.4816e+005  8.4141e+004 152065 209177,209229,209203
 1.6000e+001 209281 -2.2580e+004 -1.4675e+006  3.3434e+005 152065 209177,209255,209229
 1.6000e+001 209456  5.6851e+005 -1.2568e+007  2.8405e+005 151775 209355,209407,209381
 1.6000e+001 209433  7.9360e+005 -1.5693e+007  1.1355e+005 151775 209329,209407,209355
 1.6000e+001 209608 -8.7335e+005 -1.5575e+007 -1.6946e+005 151371 209481,209533,209507
 1.6000e+001 209585  4.0073e+005 -1.7967e+007  3.6913e+005 151371 209481,209559,209533
 1.6000e+001 209760 -2.6578e+006 -9.5085e+006 -1.4608e+006 150981 209659,209711,209685
 1.6000e+001 209737 -8.0195e+005 -9.4347e+006 -1.5779e+006 150981 209633,209711,209659
 1.6000e+001 209912  1.4858e+006 -2.6711e+007 -1.8014e+006 150619 209811,209863,209837
 1.6000e+001 209889  5.4069e+005 -1.7981e+007  1.5175e+006 150619 209785,209863,209811
 1.6000e+001 210064  2.2936e+005 -1.3792e+007 -1.1980e+006 150279 209937,209989,209963
 1.6000e+001 210041 -4.3677e+005 -9.6253e+006 -1.4588e+006 150279 209937,210015,209989
 1.6000e+001 210265  2.2309e+005 -1.5657e+007 -2.8095e+006 149989 210115,210167,210141
 1.6000e+001 210242 -1.4045e+006 -1.2635e+007  9.1311e+005 149989 210115,210193,210167
 1.6000e+001 210219 -1.4192e+006 -1.7684e+007  6.4861e+005 149989 210089,210193,210115
 1.6000e+001 210417 -1.6353e+006 -1.2395e+007 -1.0499e+006 149599 210316,210368,210342
 1.6000e+001 210394 -1.3153e+006 -8.3584e+006  7.8353e+004 149599 210290,210368,210316
 1.6000e+001 210618 -2.4518e+006 -9.9586e+006 -2.9889e+005 149095 210468,210520,210494
 1.6000e+001 210595 -3.0851e+006 -1.0407e+007  1.7041e+006 149095 210442,210520,210468
 1.6000e+001 210572 -9.8969e+005 -2.1367e+007  2.5277e+006 149095 210442,210546,210520
 1.6000e+001 210819 -2.0410e+005 -2.4926e+006  5.6044e+005 148748 210695,210747,210721
 1.6000e+001 210796 -4.7607e+004 -4.6528e+006  1.0682e+006 148748 210669,210747,210695
 1.6000e+001 210773 -6.5731e+005 -4.1106e+006  1.6439e+006 148748 210643,210747,210669
 1.6000e+001 210971 -4.5238e+004 -6.8697e+005  2.4123e+004 148408 210870,210922,210896
 1.6000e+001 210948 -1.0255e+005 -5.4293e+005 -5.8534e+004 148408 210844,210922,210870
 1.6000e+001 211123  2.9112e+005 -9.6260e+006  1.8666e+006 148118 210996,211048,211022
 1.6000e+001 211100 -6.3390e+005 -1.1804e+007  3.7436e+006 148118 210996,211074,211048
 1.6000e+001 211275 -2.9333e+006 -1.1297e+007  7.7524e+005 147778 211148,211200,211174
 1.6000e+001 211252 -2.2430e+006 -1.8357e+007  5.1200e+006 147778 211148,211226,211200
 1.6000e+001 211427 -1.3226e+006 -1.1827e+007 -1.8059e+005 147324 211326,211378,211352
 1.6000e+001 211404  2.1096e+005 -1.1919e+007  9.2412e+004 147324 211300,211378,211326
 1.6000e+001 211628  2.4016e+004 -1.4380e+005  7.3985e+003 147012 211452,211504,211478
 1.6000e+001 211605 -1.5179e+003 -3.7419e+005 -6.5239e+003 147012 211452,211556,211504
 1.6000e+001 211582 -1.2255e+004 -4.6178e+005  3.0572e+003 147012 211504,211556,211530
 1.6000e+001 211829 -4.2370e+005 -9.0635e+006  2.2039e+006 146636 211679,211757,211731
 1.6000e+001 211806  1.7652e+006 -1.5855e+007 -2.0674e+005 146636 211653,211757,211679
 1.6000e+001 211783  3.9303e+005 -7.3655e+006  4.5083e+005 146636 211679,211731,211705
 1.6000e+001 211981  1.4259e+004 -3.5660e+005 -3.4371e+004 146246 211880,211932,211906
 1.6000e+001 211958  1.0645e+005 -2.0322e+005  3.4933e+004 146246 211854,211932,211880
 1.6000e+001 212133 -2.6984e+004 -1.0884e+006  7.4542e+004 145956 212006,212058,212032
 1.6000e+001 212110 -2.9984e+005 -4.7643e+005 -2.5562e+005 145956 212006,212084,212058
 1.6000e+001 212285 -9.9487e+003 -3.3881e+005  4.4540e+003 145544 212184,212236,212210
 1.6000e+001 212262 -1.1109e+004 -2.2671e+005 -5.0836e+003 145544 212158,212236,212184
 1.6000e+001 212486 -1.2145e+005 -7.4141e+006  1.0452e+006 144990 212362,212414,212388
 1.6000e+001 212463  7.1378e+004 -6.3403e+006  1.6673e+006 144990 212310,212414,212362
 1.6000e+001 212440 -9.2810e+005 -3.1244e+006  1.0622e+006 144990 212310,212362,212336
 1.6000e+001 212638 -1.3017e+006 -5.3327e+006  1.8766e+006 144600 212537,212589,212563
 1.6000e+001 212615 -4.3617e+005 -2.0117e+006 -6.7439e+004 144600 212511,212589,212537
 1.6000e+001 212839 -7.8833e+004 -8.1378e+005 -1.9339e+005 144210 212689,212741,212715
 1.6000e+001 212816  3.7983e+002 -1.0252e+006 -3.2563e+004 144210 212663,212741,212689
 1.6000e+001 212793  4.7826e+004 -6.8427e+005 -6.8607e+004 144210 212663,212767,212741
 1.6000e+001 212991 -1.2155e+006 -2.4936e+006  1.0389e+006 143920 212890,212942,212916
 1.6000e+001 212968 -4.0011e+005 -7.2371e+006  4.6449e+005 143920 212864,212942,212890
 1.6000e+001 213143 -2.8158e+004 -3.1852e+005 -7.8418e+004 143480 213016,213068,213042
 1.6000e+001 213120 -7.5712e+004 -3.9943e+005 -5.6083e+003 143480 213016,213094,213068
 1.6000e+001 213295 -9.2973e+005 -3.1858e+006  1.7969e+006 142990 213194,213246,213220
 1.6000e+001 213272 -1.4547e+006 -1.0101e+006  3.9559e+005 142990 213168,213246,213194
 1.6000e+001 213447 -1.4561e+006 -4.9605e+006  1.2951e+006 142600 213320,213372,213346
 1.6000e+001 213424 -2.2855e+006 -2.5633e+006 -3.8361e+005 142600 213320,213398,213372
 1.6000e+001 213599 -6.0088e+005 -5.1323e+006  3.8305e+005 142260 213472,213524,213498
 1.6000e+001 213576  1.4616e+005 -5.1249e+006  7.9377e+005 142260 213472,213550,213524
 1.6000e+001 213751 -1.4722e+006 -4.5912e+006  4.6494e+005 141870 213624,213676,213650
 1.6000e+001 213728 -1.1756e+006 -5.5822e+006  1.8517e+006 141870 213624,213702,213676
 1.6000e+001 213903 -1.4493e+006 -3.6970e+006 -2.0397e+006 141530 213776,213828,213802
 1.6000e+001 213880 -5.2955e+005 -4.1478e+006 -1.1664e+006 141530 213776,213854,213828
 1.6000e+001 214055 -3.9098e+004 -3.3349e+005 -3.9322e+004 141218 213928,213980,213954
 1.6000e+001 214032  1.6030e+005 -1.1933e+006  1.6077e+005 141218 213928,214006,213980
 1.6000e+001 214207  2.2079e+004 -6.3994e+005  5.7649e+004 140928 214080,214132,214106
 1.6000e+001 214184  9.2302e+004 -6.1707e+005 -5.1470e+003 140928 214080,214158,214132
 1.6000e+001 214359 -6.1791e+005 -3.7864e+006 -1.0640e+006 140538 214232,214284,214258
 1.6000e+001 214336  3.5892e+005 -7.9952e+006  1.8068e+006 140538 214232,214310,214284
 1.6000e+001 214560 -3.2374e+004 -1.3998e+006 -2.4416e+004 140248 214384,214462,214410
 1.6000e+001 214537  1.2231e+005 -2.1317e+005 -5.5834e+004 140248 214384,214488,214462
 1.6000e+001 214514 -1.7492e+005 -7.6282e+005 -2.2106e+005 140248 214410,214462,214436
 1.6000e+001 214712 -2.4311e+005 -7.9189e+006  3.9585e+005 140000 214611,214663,214637
 1.6000e+001 214689 -1.0314e+006 -3.8860e+006 -3.5290e+005 140000 214585,214663,214611
 1.6000e+001 214913 -5.5242e+005 -3.2004e+006 -1.1957e+006 139596 214737,214815,214763
 1.6000e+001 214890 -4.4226e+005 -1.3533e+006 -2.0397e+005 139596 214737,214841,214815
 1.6000e+001 214867  3.9612e+005 -4.8769e+006 -9.1669e+005 139596 214763,214815,214789
 1.6000e+001 215016  2.3353e+002 -1.0675e+004  4.9622e+002 139420 214938,214990,214964
 1.6000e+001 215168 -2.5552e+005 -5.6467e+006  9.5969e+005 139130 215067,215119,215093
 1.6000e+001 215145 -6.4649e+005 -5.6578e+006  2.0369e+006 139130 215041,215119,215067
 1.6000e+001 215320 -9.1391e+005 -1.2994e+006  7.1052e+005 138790 215219,215271,215245
 1.6000e+001 215297  2.9559e+005 -7.1637e+006  1.8021e+006 138790 215193,215271,215219
 1.6000e+001 215472 -1.8843e+005 -1.7420e+006  6.1581e+005 138514 215345,215397,215371
 1.6000e+001 215449 -1.7848e+005 -8.7343e+005 -5.9728e+004 138514 215345,215423,215397
 1.6000e+001 215624 -7.3389e+005 -6.6890e+006 -9.8942e+004 138174 215497,215549,215523
 1.6000e+001 215601 -3.5246e+005 -5.4895e+006 -4.4102e+005 138174 215497,215575,215549
 1.6000e+001 215776 -1.2657e+006 -4.9643e+006  1.1952e+006 137734 215649,215701,215675
 1.6000e+001 215753 -1.4931e+006 -5.2268e+006  1.5972e+006 137734 215649,215727,215701
 1.6000e+001 215977 -2.8727e+006 -1.1193e+007  2.2510e+006 137344 215801,215879,215827
 1.6000e+001 215954  7.8235e+005 -1.1318e+007  2.5128e+006 137344 215801,215905,215879
 1.6000e+001 215931  3.7784e+006 -1.9772e+007 -3.5460e+006 137344 215827,215879,215853
 1.6000e+001 216129 -6.6032e+005 -8.8171e+006 -4.6228e+005 136940 216028,216080,216054
 1.6000e+001 216106 -7.6728e+005 -7.4800e+006 -1.0015e+006 136940 216002,216080,216028
 1.6000e+001 216330 -4.5531e+005 -6.0675e+006 -3.2902e+005 136600 216180,216232,216206
 1.6000e+001 216307 -6.2240e+005 -6.4684e+006  9.3963e+005 136600 216154,216232,216180
 1.6000e+001 216284 -5.2703e+003 -5.6729e+006  4.6602e+005 136600 216154,216258,216232
 1.6000e+001 216482  2.9096e+005 -5.4742e+006 -4.5001e+005 136260 216381,216433,216407
 1.6000e+001 216459  1.5227e+005 -5.2140e+006 -4.5244e+005 136260 216355,216433,216381
 1.6000e+001 216634 -7.8052e+004 -6.3432e+006  8.2322e+005 135970 216533,216585,216559
 1.6000e+001 216611 -1.8025e+005 -7.4260e+006  7.1386e+005 135970 216507,216585,216533
 1.6000e+001 216835 -7.5028e+005 -5.2192e+006 -5.8861e+005 135608 216685,216763,216711
 1.6000e+001 216812 -1.5222e+005 -4.8454e+006 -2.0478e+005 135608 216659,216763,216685
 1.6000e+001 216789 -5.8205e+005 -8.5382e+006  1.9091e+005 135608 216711,216763,216737
 1.6000e+001 217036  8.8785e+003 -5.4693e+006  7.1844e+005 135312 216912,216964,216938
 1.6000e+001 217013 -8.7022e+004 -5.9163e+006  7.0165e+005 135312 216886,216964,216912
 1.6000e+001 216990 -5.9673e+005 -5.9446e+006  5.7341e+005 135312 216860,216964,216886
 1.6000e+001 217237  3.3841e+004 -9.2477e+005 -5.9404e+004 134908 217061,217139,217113
 1.6000e+001 217214 -1.0879e+005 -1.0740e+006  3.9786e+005 134908 217061,217165,217139
 1.6000e+001 217191 -2.1085e+005 -3.1639e+005 -2.5852e+005 134908 217061,217113,217087
 1.6000e+001 217438 -9.3354e+005 -1.5107e+007  1.7291e+006 134568 217288,217366,217314
 1.6000e+001 217415 -3.5910e+005 -1.4679e+007  2.0570e+006 134568 217262,217366,217288
 1.6000e+001 217392  3.8642e+005 -1.0900e+007  8.6691e+005 134568 217314,217366,217340
 1.6000e+001 217590  4.7675e+004 -2.1242e+006  3.7168e+005 134106 217463,217515,217489
 1.6000e+001 217567  6.0604e+004 -2.0369e+006  2.4264e+005 134106 217463,217541,217515
 1.6000e+001 217791 -3.9697e+006 -2.4838e+007 -1.3432e+007 133816 217641,217693,217667
 1.6000e+001 217768  1.6375e+006 -3.0653e+007  6.3536e+006 133816 217641,217719,217693
 1.6000e+001 217745 -6.4223e+006 -1.0301e+007  4.2145e+006 133816 217615,217719,217641
 1.6000e+001 217992 -1.2726e+006 -5.1234e+006  2.3272e+006 133355 217842,217920,217894
 1.6000e+001 217969 -2.8033e+005 -1.0565e+007 -6.8052e+005 133355 217816,217920,217842
 1.6000e+001 217946 -6.4246e+005 -3.2536e+006 -6.3272e+005 133355 217842,217894,217868
 1.6000e+001 218193 -3.7220e+005 -4.0431e+006 -3.5634e+006 132851 218017,218095,218069
 1.6000e+001 218170 -1.0882e+006 -7.4037e+006  4.5802e+006 132851 218017,218121,218095
 1.6000e+001 218147 -2.8131e+006 -5.6929e+006 -2.1945e+006 132851 218017,218069,218043
 1.6000e+001 218345 -7.2338e+005 -3.2774e+006  8.7188e+005 132511 218244,218296,218270
 1.6000e+001 218322 -1.3313e+006 -3.4457e+006  2.5873e+005 132511 218218,218296,218244
 1.6000e+001 218497 -2.9458e+006 -2.4804e+007 -1.8371e+006 132235 218396,218448,218422
 1.6000e+001 218474 -3.2562e+006 -9.0221e+006  1.1532e+006 132235 218370,218448,218396
 1.6000e+001 218698 -1.7230e+005 -9.8311e+006  6.8535e+005 131945 218574,218626,218600
 1.6000e+001 218675 -5.5671e+005 -1.1883e+007  9.6924e+005 131945 218522,218626,218574
 1.6000e+001 218652 -6.6975e+005 -9.2062e+006  2.3985e+005 131945 218522,218574,218548
 1.6000e+001 218850 -4.3222e+005 -1.6595e+007 -2.5816e+006 131655 218723,218775,218749
 1.6000e+001 218827 -1.4743e+006 -1.1517e+007 -6.4278e+005 131655 218723,218801,218775
 1.6000e+001 218953 -1.1704e+006 -6.2752e+006  3.5496e+004 131215 218875,218927,218901
 1.6000e+001 219105 -7.4366e+005 -9.9013e+006  2.4970e+005 130875 218978,219030,219004
 1.6000e+001 219082 -1.5851e+005 -5.1487e+006  4.5606e+005 130875 218978,219056,219030
 1.6000e+001 219306  1.0543e+005 -4.4561e+006  1.1326e+005 130429 219156,219234,219208
 1.6000e+001 219283  1.1298e+005 -4.3270e+006  1.4911e+005 130429 219130,219234,219156
 1.6000e+001 219260 -6.4895e+003 -4.4570e+006 -1.6986e+005 130429 219156,219208,219182
 1.6000e+001 219507  2.8058e+004 -2.6122e+006 -2.4784e+005 130025 219383,219435,219409
 1.6000e+001 219484 -5.8353e+004 -3.0314e+006 -2.6115e+005 130025 219331,219435,219383
 1.6000e+001 219461 -9.8172e+004 -3.0212e+006 -2.5858e+005 130025 219331,219383,219357
 1.6000e+001 219659 -1.0990e+006 -1.2198e+007 -1.6575e+006 129685 219558,219610,219584
 1.6000e+001 219636 -2.1688e+005 -1.3598e+007 -3.4917e+006 129685 219532,219610,219558
 1.6000e+001 219860  5.8341e+004 -3.5576e+006  2.6924e+005 129395 219710,219788,219762
 1.6000e+001 219837 -3.8328e+004 -4.6752e+006  1.1998e+005 129395 219684,219788,219710
 1.6000e+001 219814  3.1678e+005 -4.1499e+006 -1.7682e+005 129395 219710,219762,219736
 1.6000e+001 220061  8.6488e+004 -3.6144e+006  2.3881e+005 128991 219937,219989,219963
 1.6000e+001 220038 -7.8408e+004 -5.6587e+006 -2.6826e+005 128991 219885,219989,219937
 1.6000e+001 220015  2.7243e+005 -4.6079e+006  9.7354e+004 128991 219885,219937,219911
 1.6000e+001 220262 -3.3163e+005 -3.2945e+006 -2.6442e+005 128701 220086,220164,220112
 1.6000e+001 220239  2.9025e+005 -4.5247e+006  1.4234e+005 128701 220086,220190,220164
 1.6000e+001 220216 -1.3810e+005 -2.7558e+006  6.1680e+005 128701 220112,220164,220138
 1.6000e+001 220463 -1.9018e+006 -1.1850e+007  1.4329e+006 128297 220339,220391,220365
 1.6000e+001 220440  1.0185e+006 -1.3928e+007  1.3078e+006 128297 220313,220391,220339
 1.6000e+001 220417 -1.4747e+005 -1.5839e+007 -1.8608e+006 128297 220287,220391,220313
 1.6000e+001 220615 -6.1291e+005 -1.0768e+007 -1.3550e+006 128007 220488,220540,220514
 1.6000e+001 220592  1.9815e+005 -1.2788e+007 -1.1317e+006 128007 220488,220566,220540
 1.6000e+001 220767  9.8740e+004 -4.0967e+006 -3.7889e+005 127567 220640,220692,220666
 1.6000e+001 220744 -3.0682e+005 -2.2172e+006 -2.4410e+005 127567 220640,220718,220692
 1.6000e+001 220919  6.8719e+005 -1.5214e+007  4.6560e+005 127163 220792,220844,220818
 1.6000e+001 220896  1.1434e+006 -1.5346e+007  6.2831e+005 127163 220792,220870,220844
 1.6000e+001 221071 -7.8274e+005 -4.2387e+006  9.3154e+005 126915 220970,221022,220996
 1.6000e+001 221048 -8.0534e+005 -4.3588e+006  8.7811e+005 126915 220944,221022,220970
 1.6000e+001 221272 -1.0214e+006 -1.0202e+007  8.7818e+005 126461 221122,221174,221148
 1.6000e+001 221249 -2.4526e+006 -1.0661e+007  4.8449e+005 126461 221122,221200,221174
 1.6000e+001 221226 -2.7111e+005 -1.4970e+007 -1.5162e+006 126461 221096,221200,221122
 1.6000e+001 221375 -2.2139e+000 -2.3056e+005 -4.3528e+001 126213 221297,221349,221323
 1.6000e+001 221478 -1.5874e+002 -8.0968e+005 -2.9083e+002 125766 221400,221452,221426
 1.6000e+001 221679 -9.1681e+004 -1.8417e+006  1.7472e+005 125212 221503,221555,221529
 1.6000e+001 221656 -1.3376e+005 -2.4275e+006 -1.3306e+004 125212 221503,221581,221555
 1.6000e+001 221633  2.1797e+005 -4.2840e+006  8.5105e+005 125212 221503,221607,221581
 1.6000e+001 221929 -3.6405e+005 -7.0696e+005  1.8630e+005 124872 221782,221834,221808
 1.6000e+001 221906 -7.5229e+005 -1.0665e+006  6.1833e+005 124872 221756,221834,221782
 1.6000e+001 221883 -4.2335e+005 -3.6283e+006  1.3754e+006 124872 221704,221834,221756
 1.6000e+001 221860 -8.3736e+005 -4.2700e+006  1.9398e+006 124872 221704,221756,221730
 1.6000e+001 222130 -6.6432e+005 -9.6814e+006 -1.6332e+006 124582 221980,222058,222006
 1.6000e+001 222107 -1.3506e+006 -1.0337e+007 -2.2254e+006 124582 221954,222058,221980
 1.6000e+001 222084 -1.6146e+006 -1.1313e+007 -2.3834e+006 124582 222006,222058,222032
 1.6000e+001 222282 -2.8708e+006 -1.3491e+007 -3.3770e+006 124192 222181,222233,222207
 1.6000e+001 222259 -1.1178e+006 -1.3530e+007 -3.7756e+006 124192 222155,222233,222181
 1.6000e+001 222483 -3.7037e+005 -5.2246e+006  5.1553e+004 123702 222333,222385,222359
 1.6000e+001 222460 -3.0331e+005 -5.4135e+006 -2.6873e+005 123702 222333,222411,222385
 1.6000e+001 222437 -1.3551e+004 -2.7780e+006 -3.2945e+005 123702 222307,222411,222333
 1.6000e+001 222635 -4.6886e+005 -3.0085e+006 -3.5181e+005 123312 222508,222560,222534
 1.6000e+001 222612  4.5769e+005 -7.4565e+006 -2.4841e+005 123312 222508,222586,222560
 1.6000e+001 222787 -1.9441e+005 -5.5749e+006 -1.1124e+005 122858 222686,222738,222712
 1.6000e+001 222764 -1.8494e+005 -5.4404e+006 -1.9178e+005 122858 222660,222738,222686
 1.6000e+001 222939 -3.1030e+005 -5.1436e+006 -3.5206e+004 122568 222812,222864,222838
 1.6000e+001 222916 -8.2873e+004 -3.7617e+006  3.2132e+005 122568 222812,222890,222864
 1.6000e+001 223091 -4.1053e+005 -4.3562e+006 -6.3516e+005 122392 222964,223016,222990
 1.6000e+001 223068  4.4249e+005 -5.4070e+006  2.8724e+005 122392 222964,223042,223016
 1.6000e+001 223292 -2.6318e+005 -1.3390e+007 -1.7249e+006 121852 223142,223220,223194
 1.6000e+001 223269 -1.3629e+006 -1.2384e+007 -1.1092e+006 121852 223116,223220,223142
 1.6000e+001 223246 -4.6239e+005 -1.3337e+007 -1.9429e+006 121852 223142,223194,223168
 1.6000e+001 223493 -4.2492e+005 -1.4891e+007  1.2833e+006 121406 223343,223395,223369
 1.6000e+001 223470 -6.9324e+005 -9.2370e+006 -3.3061e+006 121406 223343,223421,223395
 1.6000e+001 223447 -2.7708e+005 -6.7642e+006  1.3284e+006 121406 223317,223421,223343
 1.6000e+001 223645  5.3009e+004 -1.1249e+007  6.4876e+005 121002 223544,223596,223570
 1.6000e+001 223622 -1.0914e+006 -6.7388e+006  1.0449e+006 121002 223518,223596,223544
 1.6000e+001 223846  5.4445e+004 -1.3965e+007  1.0893e+006 120662 223670,223748,223696
 1.6000e+001 223823  1.3329e+006 -9.5454e+006  2.0221e+004 120662 223670,223774,223748
 1.6000e+001 223800 -8.8556e+005 -6.8670e+006 -8.9934e+005 120662 223696,223748,223722
 1.6000e+001 224047 -6.8762e+005 -7.1416e+006  2.1847e+006 120222 223897,223949,223923
 1.6000e+001 224024 -3.9744e+005 -9.1804e+006 -3.4313e+005 120222 223871,223949,223897
 1.6000e+001 224001  1.8763e+005 -1.3476e+007  9.2181e+005 120222 223871,223975,223949
 1.6000e+001 224248  8.2156e+005 -8.4501e+006  4.7178e+005 119875 224124,224176,224150
 1.6000e+001 224225 -1.1823e+006 -1.7417e+007 -4.6849e+005 119875 224098,224176,224124
 1.6000e+001 224202 -1.0732e+006 -3.9708e+006  1.9938e+005 119875 224072,224176,224098
 1.6000e+001 224449 -7.9707e+004 -6.2207e+006 -4.5259e+004 119677 224325,224377,224351
 1.6000e+001 224426 -8.1663e+005 -9.1945e+006  3.5587e+005 119677 224299,224377,224325
 1.6000e+001 224403 -3.9574e+005 -1.0852e+007  7.1461e+005 119677 224273,224377,224299
 1.6000e+001 224552 -1.1736e+006 -8.7465e+006 -5.5828e+005 119273 224474,224526,224500
 1.6000e+001 224704 -2.3957e+006 -1.5390e+007 -3.2677e+006 118983 224603,224655,224629
 1.6000e+001 224681 -2.4136e+006 -1.3750e+007 -2.2002e+006 118983 224577,224655,224603
 1.6000e+001 224856 -2.9687e+005 -1.5192e+007 -1.6620e+006 118529 224755,224807,224781
 1.6000e+001 224833 -1.2504e+005 -1.5433e+007 -1.6884e+006 118529 224729,224807,224755
 1.6000e+001 225008  1.9736e+005 -7.7000e+006 -1.1954e+004 118353 224881,224933,224907
 1.6000e+001 224985 -2.7002e+004 -8.8019e+006  1.4055e+005 118353 224881,224959,224933
 1.6000e+001 225209 -1.2048e+006 -7.2877e+006 -6.4618e+005 117949 225059,225137,225111
 1.6000e+001 225186 -6.7951e+005 -7.4411e+006 -1.3892e+006 117949 225033,225137,225059
 1.6000e+001 225163  3.1932e+005 -1.1076e+007  6.6277e+005 117949 225059,225111,225085
 1.6000e+001 225410  1.3331e+005 -7.1848e+006 -7.7279e+005 117559 225260,225338,225312
 1.6000e+001 225387 -1.0749e+006 -7.0959e+006  4.1009e+005 117559 225234,225338,225260
 1.6000e+001 225364 -7.4308e+005 -6.0811e+006 -2.1255e+006 117559 225260,225312,225286
 1.6000e+001 225611 -2.0644e+006 -1.4017e+007 -7.3689e+006 117361 225461,225513,225487
 1.6000e+001 225588  3.3419e+006 -1.4092e+007  8.1515e+005 117361 225461,225539,225513
 1.6000e+001 225565 -3.6032e+006 -5.0992e+006  6.4615e+006 117361 225435,225539,225461
 1.6000e+001 225812  4.9138e+005 -8.2824e+006 -3.3315e+005 116900 225636,225714,225662
 1.6000e+001 225789  8.1553e+005 -7.8763e+006 -5.4868e+005 116900 225636,225740,225714
 1.6000e+001 225766 -7.8527e+004 -8.3039e+006 -8.0819e+005 116900 225662,225714,225688
 1.6000e+001 225964  1.7778e+004 -7.6382e+006  1.0545e+005 116560 225837,225889,225863
 1.6000e+001 225941  7.6603e+004 -7.1493e+006 -1.8452e+004 116560 225837,225915,225889
 1.6000e+001 226165  8.6936e+004 -1.1367e+007  1.2731e+006 116106 226015,226093,226041
 1.6000e+001 226142  1.5733e+006 -1.5748e+007 -2.5578e+006 116106 225989,226093,226015
 1.6000e+001 226119 -2.7923e+006 -6.3330e+006  8.1458e+005 116106 226041,226093,226067
 1.6000e+001 226268 -1.8385e+006 -1.0956e+007  5.3817e+005 115716 226190,226242,226216
 1.6000e+001 226420 -4.0267e+005 -8.4870e+006  2.1864e+006 115376 226293,226345,226319
 1.6000e+001 226397 -5.6663e+005 -7.8789e+006  1.0802e+006 115376 226293,226371,226345
 1.6000e+001 226621  1.2546e+005 -6.0872e+006  2.0225e+005 114972 226497,226549,226523
 1.6000e+001 226598 -4.8770e+005 -1.0440e+007 -7.0768e+005 114972 226445,226549,226497
 1.6000e+001 226575 -5.4054e+004 -7.0830e+006  3.0036e+005 114972 226445,226497,226471
 1.6000e+001 226773 -7.6680e+005 -6.0938e+006 -6.4737e+005 114670 226646,226698,226672
 1.6000e+001 226750  7.0977e+004 -8.3052e+006  1.1341e+005 114670 226646,226724,226698
 1.6000e+001 226974  2.3098e+005 -4.9478e+006 -2.4225e+005 114082 226798,226850,226824
 1.6000e+001 226951 -6.0519e+004 -3.9930e+006 -5.3364e+005 114082 226798,226902,226850
 1.6000e+001 226928 -1.9524e+005 -4.7960e+006 -6.0738e+005 114082 226850,226902,226876
 1.6000e+001 227175 -1.0018e+006 -8.7109e+006 -3.4614e+005 113678 226999,227051,227025
 1.6000e+001 227152 -1.8593e+006 -1.0902e+007 -1.1504e+006 113678 226999,227077,227051
 1.6000e+001 227129 -7.7232e+005 -1.1936e+007 -2.1663e+006 113678 226999,227103,227077
 1.6000e+001 227425 -3.3430e+004 -1.1986e+007 -1.8554e+004 113274 227226,227278,227252
 1.6000e+001 227402  2.9213e+005 -1.1760e+007 -2.5294e+006 113274 227226,227330,227278
 1.6000e+001 227379 -7.9591e+004 -1.0590e+007 -2.3183e+006 113274 227200,227330,227226
 1.6000e+001 227356 -4.5577e+006 -6.1855e+006 -8.0581e+004 113274 227278,227330,227304
 1.6000e+001 227626  2.7842e+005 -4.4750e+006 -3.8275e+005 112934 227502,227554,227528
 1.6000e+001 227603  1.6822e+004 -4.5439e+006 -4.5515e+005 112934 227450,227554,227502
 1.6000e+001 227580 -5.4438e+005 -7.6895e+006 -7.6574e+005 112934 227450,227502,227476
 1.6000e+001 227876 -4.4384e+004 -4.8026e+006 -5.9945e+005 112437 227677,227755,227703
 1.6000e+001 227853 -8.0180e+005 -5.1628e+006  5.7807e+005 112437 227677,227781,227755
 1.6000e+001 227830 -6.3771e+005 -2.4378e+006  7.9748e+005 112437 227703,227755,227729
 1.6000e+001 227807 -6.1053e+005 -7.0855e+006 -1.4481e+005 112437 227651,227781,227677
 1.6000e+001 228126 -9.3699e+005 -4.7484e+006  6.8567e+005 112041 227927,228005,227953
 1.6000e+001 228103 -2.0479e+005 -8.7362e+006 -1.6678e+006 112041 227927,228031,228005
 1.6000e+001 228080 -1.4711e+006 -6.0977e+006  2.7642e+005 112041 227953,228005,227979
 1.6000e+001 228057  3.8808e+005 -7.2161e+006 -1.2131e+006 112041 227901,228031,227927
 1.6000e+001 228327 -7.8091e+005 -8.3909e+006 -1.2419e+006 111693 228151,228203,228177
 1.6000e+001 228304 -7.8130e+005 -5.1773e+006 -1.4741e+006 111693 228151,228229,228203
 1.6000e+001 228281  4.7087e+005 -7.6264e+006  3.1124e+005 111693 228151,228255,228229
 1.6000e+001 228479 -2.3915e+006 -1.4577e+007 -4.8580e+006 111253 228352,228404,228378
 1.6000e+001 228456 -2.9634e+006 -9.2187e+006 -8.8213e+005 111253 228352,228430,228404
 1.6000e+001 228582 -1.5389e+001 -5.8449e+004  3.1923e+002 110906 228504,228556,228530
 1.6000e+001 228783 -7.2702e+005 -7.1025e+006  1.3998e+006 110416 228633,228711,228659
 1.6000e+001 228760 -5.5064e+005 -2.5850e+006  9.3611e+004 110416 228607,228711,228633
 1.6000e+001 228737 -1.3999e+005 -4.3131e+006  1.0859e+006 110416 228659,228711,228685
 1.6000e+001 228935 -3.3548e+005 -3.7955e+006 -1.1491e+005 110012 228808,228860,228834
 1.6000e+001 228912 -3.6036e+005 -8.8461e+006 -8.0003e+005 110012 228808,228886,228860
 1.6000e+001 229087 -1.0641e+006 -3.5453e+006 -1.3783e+006 109672 228960,229012,228986
 1.6000e+001 229064 -2.1291e+005 -7.7920e+006  9.3467e+003 109672 228960,229038,229012
 1.6000e+001 229190 -4.6845e+004 -2.0605e+005 -5.8230e+003 109332 229112,229164,229138
 1.6000e+001 229391 -1.0098e+005 -1.2964e+006 -2.6869e+005 109156 229267,229319,229293
 1.6000e+001 229368 -3.5829e+005 -2.6663e+006 -3.8198e+005 109156 229215,229319,229267
 1.6000e+001 229345 -7.9413e+004 -1.1861e+006 -2.3560e+003 109156 229215,229267,229241
 1.6000e+001 229543  2.0825e+005 -1.0276e+007  5.9176e+005 108752 229416,229468,229442
 1.6000e+001 229520 -4.5961e+005 -1.0455e+007  8.0811e+005 108752 229416,229494,229468
 1.6000e+001 229744 -1.0851e+005 -8.1026e+006  1.6051e+004 108198 229594,229646,229620
 1.6000e+001 229721 -1.0887e+006 -8.4241e+006  8.9754e+005 108198 229594,229672,229646
 1.6000e+001 229698  4.9070e+005 -1.1806e+007 -9.4786e+005 108198 229568,229672,229594
 1.6000e+001 229847 -1.0902e+005 -2.5604e+006 -2.0953e+005 107758 229769,229821,229795
 1.6000e+001 230048 -1.1040e+006 -4.9426e+006 -1.3208e+006 107468 229898,229950,229924
 1.6000e+001 230025 -4.9705e+005 -4.2774e+006 -2.2024e+005 107468 229872,229950,229898
 1.6000e+001 230002 -7.1769e+005 -4.8067e+006  2.3568e+005 107468 229872,229976,229950
 1.6000e+001 230298  2.3879e+005 -4.9393e+006  6.4966e+005 107121 230099,230203,230177
 1.6000e+001 230275 -6.4770e+005 -3.1163e+006  2.6993e+005 107121 230073,230203,230099
 1.6000e+001 230252 -9.7536e+005 -5.4545e+006 -9.3124e+004 107121 230099,230177,230151
 1.6000e+001 230229 -3.5502e+005 -6.3990e+006  7.0954e+005 107121 230099,230151,230125
 1.6000e+001 230450  5.6574e+005 -6.3965e+006 -6.8623e+005 106823 230349,230401,230375
 1.6000e+001 230427 -4.0901e+005 -1.4317e+006  3.9302e+005 106823 230323,230401,230349
 1.6000e+001 230602 -8.5768e+005 -9.4975e+006 -2.1530e+006 106533 230501,230553,230527
 1.6000e+001 230579 -1.0709e+006 -9.5560e+006 -2.1839e+006 106533 230475,230553,230501
 1.6000e+001 230803 -5.0997e+005 -2.6414e+006  5.9821e+005 106029 230679,230731,230705
 1.6000e+001 230780 -1.2009e+006 -5.7840e+006  1.1890e+006 106029 230653,230731,230679
 1.6000e+001 230757 -1.2436e+005 -6.7411e+006  1.4319e+006 106029 230627,230731,230653
 1.6000e+001 231004  5.7006e+002 -5.2485e+006 -5.7063e+004 105689 230854,230906,230880
 1.6000e+001 230981  2.3577e+005 -5.6067e+006 -4.6906e+005 105689 230828,230906,230854
 1.6000e+001 230958 -8.4777e+005 -4.3624e+006 -1.4581e+006 105689 230828,230932,230906
 1.6000e+001 231156 -9.4481e+005 -4.9369e+006  1.0199e+006 105377 231055,231107,231081
 1.6000e+001 231133  1.2932e+006 -1.3959e+007 -1.4519e+006 105377 231029,231107,231055
 1.6000e+001 231406  1.5123e+004 -8.5959e+006 -5.2011e+005 104858 231207,231259,231233
 1.6000e+001 231383 -9.7093e+005 -8.5398e+006 -8.5739e+005 104858 231207,231311,231259
 1.6000e+001 231360 -6.7497e+005 -1.3114e+007 -1.2995e+006 104858 231259,231311,231285
 1.6000e+001 231337 -5.1526e+005 -1.1035e+007 -1.5529e+006 104858 231181,231311,231207
 1.6000e+001 231558 -1.1781e+006 -5.1806e+006  3.2661e+006 104418 231457,231509,231483
 1.6000e+001 231535 -2.7933e+005 -5.0269e+006 -6.2960e+004 104418 231431,231509,231457
 1.6000e+001 231710 -4.8377e+005 -4.5574e+006 -3.7877e+005 103978 231583,231635,231609
 1.6000e+001 231687 -5.4125e+005 -3.1714e+006 -4.7399e+005 103978 231583,231661,231635
 1.6000e+001 231862 -2.5093e+004 -8.8389e+005 -1.0253e+005 103588 231761,231813,231787
 1.6000e+001 231839 -2.8512e+004 -8.9627e+005 -1.0409e+005 103588 231735,231813,231761
 1.6000e+001 232014 -1.6919e+006 -9.7311e+006 -2.5296e+006 103248 231887,231939,231913
 1.6000e+001 231991  7.4971e+005 -1.7579e+007 -3.5958e+006 103248 231887,231965,231939
 1.6000e+001 232215 -2.2523e+005 -3.3314e+006  5.7144e+005 102844 232039,232117,232065
 1.6000e+001 232192  3.4876e+003 -4.1669e+006 -2.0885e+005 102844 232039,232143,232117
 1.6000e+001 232169 -2.2651e+005 -2.3279e+006 -1.2414e+005 102844 232065,232117,232091
 1.6000e+001 232416 -2.6003e+006 -1.0949e+007 -2.6788e+006 102554 232240,232318,232292
 1.6000e+001 232393  1.1968e+006 -1.4963e+007 -2.3172e+005 102554 232240,232344,232318
 1.6000e+001 232370 -2.6655e+006 -8.3464e+006 -1.9751e+006 102554 232240,232292,232266
 1.6000e+001 232568 -2.3341e+005 -6.1288e+006  1.3181e+006 102100 232441,232493,232467
 1.6000e+001 232545 -4.0910e+005 -5.6825e+006  3.3911e+005 102100 232441,232519,232493
 1.6000e+001 232769 -2.3674e+005 -1.7388e+006 -1.9872e+005 101596 232645,232697,232671
 1.6000e+001 232746 -4.8287e+005 -2.7108e+006 -2.5093e+005 101596 232593,232697,232645
 1.6000e+001 232723  7.5218e+004 -6.3087e+006 -4.3149e+005 101596 232593,232645,232619
 1.6000e+001 232921 -1.8405e+003 -4.7564e+005 -5.3450e+002 101420 232794,232846,232820
 1.6000e+001 232898  1.2962e+003 -4.4798e+005  6.2821e+002 101420 232794,232872,232846
 1.6000e+001 233073 -1.4254e+006 -5.3756e+006 -6.7395e+005 101023 232946,232998,232972
 1.6000e+001 233050 -4.2776e+005 -8.0068e+006  1.2882e+006 101023 232946,233024,232998
 1.6000e+001 233225 -3.7050e+005 -3.5494e+006  3.3542e+003 100661 233098,233150,233124
 1.6000e+001 233202  3.2604e+005 -7.1109e+006  2.4009e+005 100661 233098,233176,233150
 1.6000e+001 233426 -1.2517e+006 -7.1968e+006 -2.0178e+006 100265 233276,233328,233302
 1.6000e+001 233403 -1.1134e+006 -6.4847e+006 -2.5052e+005 100265 233276,233354,233328
 1.6000e+001 233380 -1.1438e+006 -1.0260e+007 -1.0239e+006 100265 233250,233354,233276
 1.6000e+001 233578 -4.3708e+005 -9.0584e+005 -9.0942e+005 100032 233451,233503,233477
 1.6000e+001 233555 -4.1544e+004 -9.1362e+005  2.0123e+005 100032 233451,233529,233503
 1.6000e+001 233681 -2.8069e+004 -6.8692e+005  1.7467e+004 99742 233603,233655,233629
 1.6000e+001 233784 -3.0305e+005 -5.5772e+006  1.0592e+005 99402 233706,233758,233732
 1.6000e+001 233936 -8.1667e+005 -3.9955e+006  1.4752e+005 99062 233835,233887,233861
 1.6000e+001 233913 -4.6489e+005 -2.4482e+006 -3.7753e+005 99062 233809,233887,233835
 1.6000e+001 234088 -4.2212e+005 -4.4745e+006  7.3306e+005 98772 233987,234039,234013
 1.6000e+001 234065 -1.0304e+006 -4.6180e+006  2.2577e+006 98772 233961,234039,233987
 1.6000e+001 234240 -1.0661e+005 -1.3883e+006  2.6763e+005 98160 234139,234191,234165
 1.6000e+001 234217 -3.7558e+004 -8.7090e+005  8.0447e+004 98160 234113,234191,234139
 1.6000e+001 234441 -9.3150e+004 -3.7471e+006  3.1822e+005 97820 234317,234369,234343
 1.6000e+001 234418 -1.1822e+005 -3.8365e+006  2.5862e+005 97820 234291,234369,234317
 1.6000e+001 234395 -9.4976e+003 -4.6959e+006  1.4151e+005 97820 234265,234369,234291
 1.6000e+001 234593 -9.0136e+005 -3.2676e+006  1.6626e+005 97366 234466,234518,234492
 1.6000e+001 234570 -2.1919e+005 -7.2440e+006  1.6197e+005 97366 234466,234544,234518
 1.6000e+001 234794 -1.1038e+006 -2.0188e+006 -6.9363e+005 96976 234618,234670,234644
 1.6000e+001 234771 -1.6552e+005 -6.6232e+006  2.4660e+005 96976 234618,234722,234670
 1.6000e+001 234748 -7.0437e+005 -3.9851e+006 -1.4094e+006 96976 234670,234722,234696
 1.6000e+001 234946 -6.2763e+005 -2.5546e+006  9.3421e+005 96568 234845,234897,234871
 1.6000e+001 234923 -5.4463e+005 -1.3980e+006  2.4600e+005 96568 234819,234897,234845
 1.6000e+001 235196 -1.1491e+005 -2.5766e+006 -4.9217e+003 96216 234997,235075,235049
 1.6000e+001 235173 -1.3106e+005 -5.8428e+006  1.2638e+006 96216 234997,235101,235075
 1.6000e+001 235150 -8.7852e+005 -4.7211e+006  6.3980e+005 96216 234997,235049,235023
 1.6000e+001 235127 -1.5009e+005 -6.7024e+006 -9.0829e+005 96216 234971,235101,234997
 1.6000e+001 235348 -1.0907e+006 -2.5095e+006 -1.4888e+006 95863 235247,235299,235273
 1.6000e+001 235325 -6.9413e+005 -1.7305e+006 -1.0953e+006 95863 235221,235299,235247
 1.6000e+001 235500 -1.6896e+006 -5.4470e+006 -2.0775e+006 95339 235373,235425,235399
 1.6000e+001 235477 -9.5770e+005 -8.4765e+006  2.3307e+006 95339 235373,235451,235425
 1.6000e+001 235701 -1.5731e+005 -5.1212e+006  1.5465e+006 95023 235525,235577,235551
 1.6000e+001 235678 -6.9151e+004 -2.9131e+006 -1.7259e+005 95023 235525,235629,235577
 1.6000e+001 235655 -8.1693e+005 -3.0520e+006  1.6417e+005 95023 235577,235629,235603
 1.6000e+001 235853  9.8643e+005 -9.5473e+006  1.2272e+006 94671 235726,235778,235752
 1.6000e+001 235830 -3.4074e+005 -7.0036e+006 -6.8219e+005 94671 235726,235804,235778
 1.6000e+001 236005 -8.8485e+005 -6.8996e+006 -8.0226e+005 94261 235904,235956,235930
 1.6000e+001 235982 -1.4467e+006 -8.0625e+006 -1.8525e+006 94261 235878,235956,235904
 1.6000e+001 236206 -9.3538e+005 -2.2403e+006  1.4655e+006 93853 236056,236134,236082
 1.6000e+001 236183 -1.6093e+005 -2.1185e+006 -5.3056e+004 93853 236030,236134,236056
 1.6000e+001 236160 -4.1661e+005 -4.4854e+006  1.0900e+006 93853 236082,236134,236108
 1.6000e+001 236407 -7.9581e+005 -6.1803e+006  3.7263e+004 93557 236257,236309,236283
 1.6000e+001 236384 -1.9693e+006 -6.7991e+006 -1.4817e+006 93557 236231,236309,236257
 1.6000e+001 236361 -6.5816e+005 -1.0637e+007 -2.7006e+005 93557 236231,236335,236309
 1.6000e+001 236559 -2.8823e+005 -1.8783e+006 -1.2468e+005 93149 236432,236484,236458
 1.6000e+001 236536 -1.2934e+005 -1.4363e+006 -1.2373e+004 93149 236432,236510,236484
 1.6000e+001 236711 -1.1864e+003 -2.6806e+006  6.5455e+005 92853 236584,236636,236610
 1.6000e+001 236688  2.6321e+004 -2.9033e+006  6.9214e+005 92853 236584,236662,236636
 1.6000e+001 236912 -4.7848e+004 -4.5943e+006  8.5255e+005 92501 236736,236788,236762
 1.6000e+001 236889 -9.5220e+004 -3.1918e+006  4.5429e+004 92501 236736,236840,236788
 1.6000e+001 236866 -4.0820e+005 -3.6832e+006  5.7666e+005 92501 236788,236840,236814
 1.6000e+001 237113 -6.1490e+004 -4.2791e+006  3.0444e+005 92291 236963,237041,237015
 1.6000e+001 237090  4.2403e+004 -2.6307e+006  6.3321e+004 92291 236937,237041,236963
 1.6000e+001 237067 -2.1011e+005 -3.9558e+006  9.0991e+005 92291 236963,237015,236989
 1.6000e+001 237265 -6.0060e+005 -2.6016e+006  3.7834e+004 91871 237138,237190,237164
 1.6000e+001 237242 -1.3065e+006 -3.0551e+006 -6.6964e+005 91871 237138,237216,237190
 1.6000e+001 237368 -4.7540e+002 -3.8319e+006  3.0562e+002 91581 237290,237342,237316
 1.6000e+001 237520 -3.4370e+005 -1.8701e+006  6.7650e+005 91184 237419,237471,237445
 1.6000e+001 237497 -4.1754e+005 -2.5878e+006  4.4942e+004 91184 237393,237471,237419
 1.6000e+001 237672 -7.3103e+005 -3.4449e+006  4.6952e+005 90894 237545,237597,237571
 1.6000e+001 237649 -5.6227e+005 -3.8556e+006  6.2819e+005 90894 237545,237623,237597
 1.6000e+001 237873 -7.2633e+005 -5.1354e+006  2.7532e+005 90490 237749,237801,237775
 1.6000e+001 237850 -2.4041e+005 -4.3456e+006  6.6212e+005 90490 237723,237801,237749
 1.6000e+001 237827 -1.6120e+005 -4.3358e+006 -1.6805e+006 90490 237697,237801,237723
 1.6000e+001 238074 -8.7239e+005 -6.6274e+006 -3.0533e+003 90100 237898,237976,237950
 1.6000e+001 238051 -1.7918e+006 -6.7098e+006 -1.4447e+005 90100 237898,238002,237976
 1.6000e+001 238028 -5.0916e+005 -6.8082e+006 -2.8677e+005 90100 237898,237950,237924
 1.6000e+001 238275 -9.3622e+005 -4.5286e+006  1.5611e+005 89696 238125,238177,238151
 1.6000e+001 238252 -8.4140e+005 -3.8410e+006 -1.1132e+006 89696 238099,238177,238125
 1.6000e+001 238229 -1.3840e+006 -5.3127e+006 -6.7484e+005 89696 238099,238203,238177
 1.6000e+001 238427 -1.1176e+005 -1.8602e+006 -2.9920e+004 89206 238326,238378,238352
 1.6000e+001 238404  1.8992e+005 -3.0079e+006  1.1106e+005 89206 238300,238378,238326
 1.6000e+001 238579 -8.6778e+005 -5.1402e+006  4.1062e+005 88908 238452,238504,238478
 1.6000e+001 238556 -1.1997e+005 -5.1338e+006  7.5940e+005 88908 238452,238530,238504
 1.6000e+001 238682  4.5640e+000 -4.4581e+005  1.0055e+001 88568 238604,238656,238630
 1.6000e+001 238883  1.3829e+005 -4.1802e+006  4.5039e+005 88278 238733,238811,238785
 1.6000e+001 238860 -1.3262e+005 -3.6884e+006  3.5880e+005 88278 238707,238811,238733
 1.6000e+001 238837 -1.4357e+005 -4.0922e+006  7.6611e+005 88278 238733,238785,238759
 1.6000e+001 239035 -5.8870e+005 -6.7510e+006 -1.7279e+005 87988 238908,238960,238934
 1.6000e+001 239012 -1.2202e+006 -5.6033e+006  9.2496e+005 87988 238908,238986,238960
 1.6000e+001 239138  2.8918e+004 -2.9876e+006  1.2230e+005 87648 239060,239112,239086
 1.6000e+001 239339 -8.1351e+005 -3.9914e+006 -1.6812e+006 87358 239163,239215,239189
 1.6000e+001 239316 -1.2600e+006 -4.5900e+006 -1.5084e+005 87358 239163,239241,239215
 1.6000e+001 239293 -1.0724e+006 -2.1098e+006 -1.1523e+006 87358 239163,239267,239241
 1.6000e+001 239589  3.7218e+003 -2.2652e+006  1.9566e+005 86961 239390,239468,239416
 1.6000e+001 239566  7.7040e+004 -2.2502e+006  1.9658e+005 86961 239390,239494,239468
 1.6000e+001 239543 -6.9009e+004 -6.8053e+005  9.5139e+004 86961 239416,239468,239442
 1.6000e+001 239520 -2.9103e+005 -1.1711e+006  4.0588e+005 86961 239364,239494,239390
 1.6000e+001 239741 -1.1828e+006 -5.0288e+006 -9.1037e+005 86621 239640,239692,239666
 1.6000e+001 239718 -4.4491e+005 -5.9514e+006 -1.5386e+006 86621 239614,239692,239640
 1.6000e+001 239893 -3.3479e+004 -5.0359e+006  4.7718e+005 86217 239792,239844,239818
 1.6000e+001 239870 -1.9979e+005 -3.9589e+006 -1.3126e+005 86217 239766,239844,239792
 1.6000e+001 240045 -7.3888e+005 -4.6990e+006  1.9464e+005 85827 239918,239970,239944
 1.6000e+001 240022 -1.5768e+005 -4.5536e+006  1.9048e+005 85827 239918,239996,239970
 1.6000e+001 240197 -3.9877e+004 -5.5530e+006  6.5801e+005 85437 240096,240148,240122
 1.6000e+001 240174 -8.4936e+005 -3.8496e+006 -3.0374e+005 85437 240070,240148,240096
 1.6000e+001 240349 -1.9022e+005 -2.2929e+006  8.2565e+005 85147 240222,240274,240248
 1.6000e+001 240326 -1.5517e+005 -1.2067e+006 -1.7816e+005 85147 240222,240300,240274
 1.6000e+001 240501 -9.3665e+005 -3.1595e+006  5.6732e+005 84807 240374,240426,240400
 1.6000e+001 240478 -1.3320e+006 -3.2566e+006  6.2178e+005 84807 240374,240452,240426
 1.6000e+001 240653 -1.1452e+004 -3.7372e+005 -6.3817e+004 84303 240552,240604,240578
 1.6000e+001 240630 -1.0379e+004 -3.6929e+005 -6.3519e+004 84303 240526,240604,240552
 1.6000e+001 240854 -9.9310e+004 -8.7190e+006 -2.3722e+006 83929 240704,240756,240730
 1.6000e+001 240831  7.9593e+005 -7.7459e+006  9.6737e+005 83929 240704,240782,240756
 1.6000e+001 240808 -1.6227e+006 -1.3826e+006  1.3460e+006 83929 240678,240782,240704
 1.6000e+001 241055 -1.4389e+004 -1.4057e+006 -1.3017e+005 83539 240879,240957,240931
 1.6000e+001 241032 -5.2447e+005 -1.6535e+006  1.0878e+005 83539 240879,240983,240957
 1.6000e+001 241009 -2.6238e+005 -7.6275e+005 -1.3967e+005 83539 240879,240931,240905
 1.6000e+001 241207  1.6374e+005 -2.9142e+006  1.7774e+005 83079 241106,241158,241132
 1.6000e+001 241184 -2.2000e+005 -1.2554e+006  2.6989e+005 83079 241080,241158,241106
 1.6000e+001 241408  1.0739e+006 -4.9047e+006  2.8088e+005 82665 241232,241284,241258
 1.6000e+001 241385 -1.4760e+006 -1.3015e+007 -3.6556e+006 82665 241232,241336,241284
 1.6000e+001 241362 -3.8662e+006  3.8980e+006  6.4567e+006 82665 241284,241336,241310
 1.6000e+001 241658 -1.3305e+005 -4.0878e+006  3.1946e+005 82375 241485,241563,241511
 1.6000e+001 241635  1.2733e+005 -2.8089e+006  2.7691e+005 82375 241433,241563,241485
 1.6000e+001 241612 -1.0106e+004 -3.2706e+006  3.7483e+005 82375 241433,241485,241459
 1.6000e+001 241589 -4.8875e+005 -4.6611e+006  5.8934e+005 82375 241511,241563,241537
 1.6000e+001 241810 -8.9734e+005 -4.1399e+006  1.7663e+005 82035 241683,241735,241709
 1.6000e+001 241787 -1.0860e+006 -4.3965e+006  4.8012e+005 82035 241683,241761,241735
 1.6000e+001 241962 -7.9551e+005 -4.5494e+006  4.7673e+004 81695 241861,241913,241887
 1.6000e+001 241939 -6.6804e+005 -4.7251e+006 -2.8719e+005 81695 241835,241913,241861
 1.6000e+001 242114 -1.2086e+006 -4.9029e+006  2.1696e+005 81355 242013,242065,242039
 1.6000e+001 242091 -9.2553e+005 -3.7309e+006  2.5450e+005 81355 241987,242065,242013
 1.6000e+001 242266 -3.1438e+005 -1.6165e+006 -3.9819e+005 80951 242139,242191,242165
 1.6000e+001 242243 -4.4059e+005 -2.2204e+006 -1.4209e+005 80951 242139,242217,242191
 1.6000e+001 242467 -1.3970e+005 -4.3984e+006  4.1682e+005 80311 242291,242369,242343
 1.6000e+001 242444  1.2038e+005 -3.4508e+006  2.9793e+005 80311 242291,242395,242369
 1.6000e+001 242421 -1.5798e+005 -3.7889e+006  2.8604e+005 80311 242291,242343,242317
 1.6000e+001 242619 -1.4274e+006 -3.5050e+006 -2.8529e+005 80021 242492,242544,242518
 1.6000e+001 242596 -1.2990e+006 -3.0424e+006  5.6313e+004 80021 242492,242570,242544
 1.6000e+001 242869 -1.9582e+005 -2.3943e+006  2.3487e+004 79631 242644,242722,242696
 1.6000e+001 242846 -1.3809e+005 -2.6034e+006  6.0790e+004 79631 242644,242774,242722
 1.6000e+001 242823 -1.6691e+005 -2.5791e+006  2.1771e+005 79631 242722,242774,242748
 1.6000e+001 242800 -2.3364e+005 -2.3924e+006 -1.1805e+005 79631 242644,242696,242670
 1.6000e+001 243070 -2.9809e+004 -1.1538e+007  1.7841e+006 79341 242920,242972,242946
 1.6000e+001 243047 -7.3012e+005 -6.6112e+006 -6.2701e+005 79341 242920,242998,242972
 1.6000e+001 243024 -7.0886e+005 -4.1884e+006  1.5680e+006 79341 242894,242998,242920
 1.6000e+001 243222  4.7563e+004 -1.9949e+006  5.1853e+005 78801 243121,243173,243147
 1.6000e+001 243199 -4.4617e+005 -3.7143e+006  9.3807e+005 78801 243095,243173,243121
 1.6000e+001 243423 -3.0874e+005 -7.5184e+006 -2.0908e+005 78511 243273,243325,243299
 1.6000e+001 243400 -3.9733e+005 -9.2130e+006  7.3968e+005 78511 243273,243351,243325
 1.6000e+001 243377 -5.5207e+003 -9.1465e+006  2.2035e+005 78511 243247,243351,243273
 1.6000e+001 243624 -3.7263e+005 -3.6862e+006 -4.6926e+005 78107 243474,243552,243526
 1.6000e+001 243601 -3.8656e+005 -3.0150e+006 -6.4606e+005 78107 243448,243552,243474
 1.6000e+001 243578 -8.9340e+005 -4.5414e+006 -1.2559e+006 78107 243474,243526,243500
 1.6000e+001 243776 -8.6302e+005 -4.5780e+006 -1.3009e+006 77653 243649,243701,243675
 1.6000e+001 243753 -1.9523e+006 -7.1455e+006 -3.8237e+005 77653 243649,243727,243701
 1.6000e+001 243977 -4.9890e+005 -5.4863e+006 -2.3076e+005 77093 243801,243853,243827
 1.6000e+001 243954 -1.5423e+005 -4.4206e+006  3.3169e+005 77093 243801,243879,243853
 1.6000e+001 243931 -1.5606e+003 -4.4694e+006  3.0467e+005 77093 243801,243905,243879
 1.6000e+001 244080 -1.4835e+006 -5.2273e+006  2.4290e+005 76791 244002,244054,244028
 1.6000e+001 244232 -2.9267e+005 -5.5951e+006  2.9847e+005 76311 244131,244183,244157
 1.6000e+001 244209 -1.0035e+004 -8.2991e+006  8.0760e+005 76311 244105,244183,244131
 1.6000e+001 244433 -8.9077e+005 -1.1170e+007  1.1883e+006 75903 244283,244335,244309
 1.6000e+001 244410 -3.1954e+005 -9.6579e+006  9.1406e+004 75903 244283,244361,244335
 1.6000e+001 244387 -1.5876e+006 -7.8529e+006  1.4460e+006 75903 244257,244361,244283
 1.6000e+001 244585 -1.9428e+004 -1.1795e+007  6.2805e+005 75419 244458,244510,244484
 1.6000e+001 244562 -4.2097e+005 -8.3308e+006 -1.4050e+005 75419 244458,244536,244510
 1.6000e+001 244737 -3.7674e+005 -2.2088e+006 -1.4929e+005 75215 244636,244688,244662
 1.6000e+001 244714 -2.6333e+005 -5.2983e+006 -1.6387e+005 75215 244610,244688,244636
 1.6000e+001 244889 -1.1119e+006 -4.8585e+006 -3.5867e+005 74857 244788,244840,244814
 1.6000e+001 244866 -6.6759e+005 -3.2241e+006 -1.0826e+005 74857 244762,244840,244788
 1.6000e+001 245041  3.7113e+004 -3.6733e+005 -9.4786e+004 74653 244940,244992,244966
 1.6000e+001 245018 -1.2871e+004 -2.6887e+005  4.2128e+004 74653 244914,244992,244940
 1.6000e+001 245144  3.8156e+004 -6.0403e+006 -3.9444e+005 74359 245066,245118,245092
 1.6000e+001 245296 -5.3263e+005 -3.1125e+006 -8.6167e+005 74007 245169,245221,245195
 1.6000e+001 245273 -5.8576e+005 -3.6939e+006 -8.3624e+005 74007 245169,245247,245221
 1.6000e+001 245448 -1.2953e+006 -6.7556e+006  2.5584e+006 73711 245321,245373,245347
 1.6000e+001 245425 -3.1854e+005 -6.5045e+006 -2.1931e+006 73711 245321,245399,245373
 1.6000e+001 245600  7.8041e+005 -1.0145e+007 -1.3564e+006 73301 245499,245551,245525
 1.6000e+001 245577 -1.3500e+006 -6.8666e+006  1.2921e+006 73301 245473,245551,245499
 1.6000e+001 245752 -5.2388e+005 -3.2246e+006 -1.1226e+006 72995 245625,245677,245651
 1.6000e+001 245729  8.2010e+005 -7.6738e+006 -1.1181e+006 72995 245625,245703,245677
 1.6000e+001 245953 -2.1687e+006 -9.7369e+006  5.5940e+005 72585 245777,245829,245803
 1.6000e+001 245930 -1.2059e+006 -9.9394e+006  1.7241e+006 72585 245777,245855,245829
 1.6000e+001 245907 -8.2551e+005 -9.1149e+006  1.3651e+006 72585 245777,245881,245855
 1.6000e+001 246154 -2.7681e+005 -5.1429e+006  1.0821e+006 72127 246030,246082,246056
 1.6000e+001 246131 -9.9192e+005 -7.2924e+006  5.6640e+005 72127 245978,246082,246030
 1.6000e+001 246108 -1.1434e+005 -7.3721e+006  9.1548e+004 72127 245978,246030,246004
 1.6000e+001 246257 -1.0615e+006 -3.1445e+006 -1.7663e+005 71737 246179,246231,246205
 1.6000e+001 246360 -1.5783e+005 -2.8534e+006  2.6524e+005 71447 246282,246334,246308
 1.6000e+001 246512 -3.3159e+005 -3.0565e+006  8.1879e+005 71157 246385,246437,246411
 1.6000e+001 246489 -9.2190e+004 -2.7888e+006  4.0619e+005 71157 246385,246463,246437
 1.6000e+001 246664 -2.0054e+005 -3.1763e+006 -3.0083e+005 70753 246537,246589,246563
 1.6000e+001 246641 -6.0107e+005 -2.3200e+006 -1.1321e+005 70753 246537,246615,246589
 1.6000e+001 246865 -1.2246e+006 -7.5266e+006  3.2929e+006 70249 246715,246767,246741
 1.6000e+001 246842 -1.6495e+006 -6.9551e+006  2.2563e+005 70249 246715,246793,246767
 1.6000e+001 246819 -8.6604e+005 -9.3045e+006 -1.3271e+006 70249 246689,246793,246715
 1.6000e+001 247066 -1.5185e+005 -2.4422e+006  4.4241e+005 70023 246916,246994,246942
 1.6000e+001 247043  1.4599e+005 -3.2015e+006  1.2736e+005 70023 246890,246994,246916
 1.6000e+001 247020 -1.5892e+005 -2.2268e+006  2.1950e+005 70023 246942,246994,246968
 1.6000e+001 247267 -3.1080e+005 -4.6252e+006 -3.8770e+005 69633 247091,247143,247117
 1.6000e+001 247244 -1.0213e+005 -3.7177e+006 -2.6002e+005 69633 247091,247169,247143
 1.6000e+001 247221 -2.6348e+004 -2.9870e+006 -2.1581e+005 69633 247091,247195,247169
 1.6000e+001 247419 -7.6200e+005 -5.7494e+006  6.4293e+005 69457 247318,247370,247344
 1.6000e+001 247396 -1.0299e+006 -4.1253e+006  7.1363e+005 69457 247292,247370,247318
 1.6000e+001 247522 -1.4898e+001 -3.1316e+004  2.7928e+002 69209 247444,247496,247470
 1.6000e+001 247625 -1.9186e+006 -2.2213e+006 -3.6201e+005 68919 247547,247599,247573
 1.6000e+001 247777  5.2738e+005 -5.9732e+006 -7.1428e+005 68579 247650,247702,247676
 1.6000e+001 247754 -3.5574e+005 -2.9802e+006 -1.6167e+005 68579 247650,247728,247702
 1.6000e+001 247929 -5.4442e+005 -3.7059e+006  1.6384e+006 68289 247802,247854,247828
 1.6000e+001 247906 -4.1590e+005 -2.8916e+006  9.2135e+005 68289 247802,247880,247854
 1.6000e+001 248081 -3.5819e+005 -4.6638e+006  1.0869e+006 67949 247980,248032,248006
 1.6000e+001 248058 -6.3875e+005 -1.6773e+006 -3.4445e+004 67949 247954,248032,247980
 1.6000e+001 248233 -1.5966e+006 -6.0479e+006 -7.0764e+005 67616 248132,248184,248158
 1.6000e+001 248210 -6.4860e+005 -6.3301e+006 -4.3816e+005 67616 248106,248184,248132
 1.6000e+001 248434 -1.4707e+005 -3.9604e+006 -3.1422e+005 67212 248284,248336,248310
 1.6000e+001 248411 -1.8810e+004 -4.0455e+006 -7.1617e+005 67212 248258,248336,248284
 1.6000e+001 248388 -1.4643e+006 -3.2548e+006 -5.9644e+005 67212 248258,248362,248336
 1.6000e+001 248586  1.6191e+004 -4.7572e+006  4.6347e+005 66872 248485,248537,248511
 1.6000e+001 248563 -8.6905e+005 -2.1222e+006 -3.1724e+005 66872 248459,248537,248485
 1.6000e+001 248738 -2.4940e+005 -5.4160e+006  1.0811e+005 66510 248637,248689,248663
 1.6000e+001 248715 -3.6399e+005 -8.5668e+006  1.8362e+005 66510 248611,248689,248637
 1.6000e+001 248890 -3.8337e+004 -9.0511e+005  1.8591e+005 66220 248789,248841,248815
 1.6000e+001 248867 -3.6291e+005 -1.2475e+006 -3.4290e+005 66220 248763,248841,248789
 1.6000e+001 249091 -6.1875e+005 -5.9265e+006  1.8141e+006 65759 248915,248967,248941
 1.6000e+001 249068 -4.0201e+005 -5.0842e+006  1.7283e+006 65759 248915,248993,248967
 1.6000e+001 249045  2.3655e+004 -4.1279e+006  1.0914e+006 65759 248915,249019,248993
 1.6000e+001 249243 -1.8014e+005 -8.1911e+006  1.7138e+006 65419 249142,249194,249168
 1.6000e+001 249220 -3.9231e+005 -4.6308e+006  3.5083e+005 65419 249116,249194,249142
 1.6000e+001 249395 -4.1646e+005 -2.9607e+006 -3.4034e+005 65079 249268,249320,249294
 1.6000e+001 249372 -4.0937e+005 -3.6389e+006 -5.5834e+005 65079 249268,249346,249320
 1.6000e+001 249547 -5.2923e+004 -1.0253e+006 -3.6622e+004 64739 249420,249472,249446
 1.6000e+001 249524 -5.1034e+005 -1.1935e+006  1.2413e+005 64739 249420,249498,249472
 1.6000e+001 249650 -1.0449e+006 -5.0101e+006 -1.8473e+006 64342 249572,249624,249598
 1.6000e+001 249851 -1.4847e+006 -7.1767e+006 -1.3517e+006 63938 249701,249779,249753
 1.6000e+001 249828 -1.0033e+006 -7.7165e+006  2.5703e+006 63938 249675,249779,249701
 1.6000e+001 249805 -1.1511e+006 -2.0706e+007 -6.7651e+005 63938 249701,249753,249727
 1.6000e+001 250052 -8.5256e+005 -5.5810e+006 -3.8154e+005 63341 249876,249954,249902
 1.6000e+001 250029 -9.8879e+005 -5.8032e+006 -2.6251e+005 63341 249876,249980,249954
 1.6000e+001 250006  6.9537e+005 -6.6083e+006  4.7567e+005 63341 249902,249954,249928
 1.6000e+001 250253 -3.2713e+005 -1.2283e+007 -1.5906e+006 63058 250077,250129,250103
 1.6000e+001 250230 -1.1644e+006 -6.8834e+006 -4.3538e+005 63058 250077,250155,250129
 1.6000e+001 250207 -4.9696e+005 -6.6486e+006 -6.0769e+005 63058 250077,250181,250155
 1.6000e+001 250454 -1.0513e+006 -7.5753e+006  1.4750e+006 62832 250304,250382,250330
 1.6000e+001 250431  2.4152e+005 -9.4862e+006 -2.4441e+006 62832 250278,250382,250304
 1.6000e+001 250408 -2.4672e+006 -4.7427e+006  4.1887e+005 62832 250330,250382,250356
 1.6000e+001 250606  1.7910e+005 -1.0757e+007 -2.6928e+005 62428 250479,250531,250505
 1.6000e+001 250583 -4.5363e+003 -9.2368e+006 -5.8519e+005 62428 250479,250557,250531
 1.6000e+001 250758 -1.9226e+005 -7.3242e+006  7.4355e+005 62202 250631,250683,250657
 1.6000e+001 250735 -9.3160e+004 -8.2245e+006  2.0927e+006 62202 250631,250709,250683
 1.6000e+001 250861 -1.5284e+006 -2.9018e+006  4.2220e+004 61954 250783,250835,250809
 1.6000e+001 251062 -1.6678e+006 -8.4128e+006 -6.0720e+005 61557 250912,250990,250938
 1.6000e+001 251039 -2.1971e+005 -9.2890e+006 -4.3051e+005 61557 250886,250990,250912
 1.6000e+001 251016 -1.3245e+006 -9.4118e+006 -1.3474e+006 61557 250938,250990,250964
 1.6000e+001 251263 -1.0929e+006 -7.8816e+006 -4.2021e+004 61167 251113,251165,251139
 1.6000e+001 251240 -4.9076e+005 -7.5821e+006 -3.7584e+005 61167 251113,251191,251165
 1.6000e+001 251217 -1.1556e+006 -7.3064e+006  2.1735e+006 61167 251087,251191,251113
 1.6000e+001 251415 -9.5828e+005 -3.6094e+006  8.5208e+005 60827 251288,251340,251314
 1.6000e+001 251392 -6.0930e+005 -1.7059e+006 -1.5143e+005 60827 251288,251366,251340
 1.6000e+001 251567  1.0247e+005 -5.3398e+006  5.7819e+005 60487 251466,251518,251492
 1.6000e+001 251544 -8.6307e+004 -3.6810e+006 -3.2034e+005 60487 251440,251518,251466
 1.6000e+001 251719  2.4516e+004 -1.0115e+007 -1.5181e+005 59983 251592,251644,251618
 1.6000e+001 251696 -8.2002e+005 -8.3181e+006  5.6183e+004 59983 251592,251670,251644
 1.6000e+001 251920  4.8047e+004 -2.1486e+006  2.2635e+004 59807 251770,251848,251796
 1.6000e+001 251897  4.1409e+004 -1.9849e+006 -2.9655e+004 59807 251744,251848,251770
 1.6000e+001 251874  2.7869e+004 -2.4296e+006 -9.7353e+004 59807 251796,251848,251822
 1.6000e+001 252023 -2.0395e+005 -4.8567e+006  5.1249e+004 59517 251945,251997,251971
 1.6000e+001 252175  6.4076e+005 -7.8391e+006 -5.6895e+005 59269 252074,252126,252100
 1.6000e+001 252152 -1.0219e+006  1.6748e+006  8.6186e+005 59269 252048,252126,252074
 1.6000e+001 252278 -4.1595e+005 -2.4038e+006  1.0731e+006 58979 252200,252252,252226
 1.6000e+001 252381 -2.2275e+006 -2.7376e+006  1.0710e+006 58689 252303,252355,252329
 1.6000e+001 252533 -9.1348e+005 -4.9164e+006 -5.8660e+004 58249 252432,252484,252458
 1.6000e+001 252510 -8.2766e+005 -5.4142e+006 -7.3243e+005 58249 252406,252484,252432
 1.6000e+001 252734 -3.9783e+005 -4.4258e+006  2.1837e+005 57902 252584,252662,252610
 1.6000e+001 252711  8.3201e+005 -5.4459e+006 -1.5513e+005 57902 252558,252662,252584
 1.6000e+001 252688 -3.3773e+005 -3.2125e+006 -3.8664e+005 57902 252610,252662,252636
 1.6000e+001 252886 -1.1685e+005 -4.4852e+006 -1.8491e+005 57540 252785,252837,252811
 1.6000e+001 252863  1.6056e+005 -4.5900e+006 -1.3237e+005 57540 252759,252837,252785
 1.6000e+001 253038 -5.3640e+005 -5.7656e+006  1.2882e+006 57086 252937,252989,252963
 1.6000e+001 253015 -2.6506e+005 -2.6840e+006  1.8884e+005 57086 252911,252989,252937
 1.6000e+001 253239 -4.6204e+005 -5.1317e+006 -1.1198e+006 56796 253063,253141,253115
 1.6000e+001 253216  3.0597e+005 -6.0036e+006 -3.7424e+004 56796 253063,253167,253141
 1.6000e+001 253193 -1.1240e+006 -3.3570e+006 -7.4333e+005 56796 253063,253115,253089
 1.6000e+001 253342 -5.5076e+005 -5.0725e+006  4.4405e+005 56349 253264,253316,253290
 1.6000e+001 253543 -8.6314e+005 -8.0856e+006 -6.2071e+005 56009 253367,253419,253393
 1.6000e+001 253520 -6.3465e+005 -5.2556e+006 -3.5201e+005 56009 253367,253445,253419
 1.6000e+001 253497 -3.3738e+005 -6.2733e+006  1.0864e+005 56009 253367,253471,253445
 1.6000e+001 253695 -2.2753e+004 -3.9964e+006  3.1308e+004 55733 253594,253646,253620
 1.6000e+001 253672 -1.8451e+005 -3.1005e+006  4.7220e+004 55733 253568,253646,253594
 1.6000e+001 253798 -4.7835e+005 -2.4049e+006 -1.5333e+005 55557 253720,253772,253746
 1.6000e+001 253950 -5.6994e+005 -4.2830e+006  3.5572e+005 55153 253849,253901,253875
 1.6000e+001 253927  2.9735e+005 -4.9287e+006 -4.5529e+005 55153 253823,253901,253849
 1.6000e+001 254151 -1.2243e+006 -4.8002e+006  7.5520e+005 54863 253975,254053,254001
 1.6000e+001 254128 -6.1322e+005 -4.9064e+006 -4.3432e+003 54863 253975,254079,254053
 1.6000e+001 254105 -4.4159e+005 -3.7806e+006  1.5923e+005 54863 254001,254053,254027
 1.6000e+001 254303  1.2071e+005 -5.3484e+006  1.3015e+005 54373 254176,254228,254202
 1.6000e+001 254280 -8.4360e+005 -4.2067e+006  2.1137e+005 54373 254176,254254,254228
 1.6000e+001 254455 -2.4994e+005 -5.4104e+006 -3.8122e+005 53975 254354,254406,254380
 1.6000e+001 254432 -8.1312e+005 -1.7486e+006  9.5766e+004 53975 254328,254406,254354
 1.6000e+001 254607 -3.7777e+005 -4.9350e+006 -4.8392e+005 53585 254480,254532,254506
 1.6000e+001 254584 -3.5807e+005 -4.8293e+006 -5.1275e+005 53585 254480,254558,254532
 1.6000e+001 254808 -8.9128e+005 -3.6772e+006 -1.8111e+004 53245 254658,254736,254684
 1.6000e+001 254785 -1.0370e+006 -2.1950e+006 -3.5843e+005 53245 254632,254736,254658
 1.6000e+001 254762 -4.7788e+005 -2.6530e+006 -3.7465e+005 53245 254684,254736,254710
 1.6000e+001 254911 -3.4623e+005 -5.5291e+006 -9.3847e+004 52955 254833,254885,254859
 1.6000e+001 255063 -7.2132e+005 -5.8743e+006 -1.3416e+005 52551 254962,255014,254988
 1.6000e+001 255040 -6.7145e+005 -6.4019e+006 -3.5345e+005 52551 254936,255014,254962
 1.6000e+001 255264 -1.0116e+006 -1.8152e+006  1.0824e+005 52261 255114,255166,255140
 1.6000e+001 255241 -1.1728e+006 -4.2883e+006  8.6882e+005 52261 255114,255192,255166
 1.6000e+001 255218  3.0937e+004 -7.3228e+006 -1.9041e+006 52261 255088,255192,255114
 1.6000e+001 255416 -3.3795e+005 -4.9251e+006  1.4326e+006 51971 255289,255341,255315
 1.6000e+001 255393 -2.7155e+005 -4.5545e+006 -2.0141e+005 51971 255289,255367,255341
 1.6000e+001 255568 -8.6053e+005 -2.3099e+006 -2.8796e+005 51681 255441,255493,255467
 1.6000e+001 255545  1.2236e+005 -7.9495e+006  6.6446e+005 51681 255441,255519,255493
 1.6000e+001 255769 -2.4935e+005 -3.7384e+006 -7.3595e+004 51291 255619,255697,255671
 1.6000e+001 255746 -2.1662e+005 -3.3455e+006 -3.5562e+005 51291 255593,255697,255619
 1.6000e+001 255723 -1.2944e+005 -5.0603e+006 -3.5757e+005 51291 255619,255671,255645
 1.6000e+001 255921 -4.3188e+005 -3.0804e+006  7.2951e+005 50951 255820,255872,255846
 1.6000e+001 255898 -2.8916e+005 -2.6807e+006  2.0895e+005 50951 255794,255872,255820
 1.6000e+001 256171 -1.2179e+006 -4.3204e+006 -2.0526e+004 50547 256024,256076,256050
 1.6000e+001 256148 -9.1448e+005 -4.5217e+006  4.6830e+005 50547 255972,256076,256024
 1.6000e+001 256125 -2.7392e+005 -5.2903e+006 -1.0283e+005 50547 255946,256076,255972
 1.6000e+001 256102 -8.5388e+005 -3.8727e+006  2.4449e+005 50547 255972,256024,255998
 1.6000e+001 256323  2.4876e+005 -5.4010e+006  9.2760e+005 50093 256196,256248,256222
 1.6000e+001 256300 -8.6750e+005 -2.9113e+006 -1.0305e+006 50093 256196,256274,256248
 1.6000e+001 256426 -3.0609e+002 -1.5448e+005  2.8355e+002 49845 256348,256400,256374
 1.6000e+001 256627 -2.0571e+005 -5.0243e+006  2.1583e+005 49555 256477,256555,256503
 1.6000e+001 256604 -3.6474e+005 -4.3486e+006  1.7615e+005 49555 256451,256555,256477
 1.6000e+001 256581 -4.2738e+005 -4.2532e+006  3.3826e+005 49555 256503,256555,256529
 1.6000e+001 256828 -4.1860e+005 -3.5769e+006 -1.3663e+005 49056 256652,256730,256678
 1.6000e+001 256805 -5.0123e+005 -3.2997e+006 -7.9049e+004 49056 256652,256756,256730
 1.6000e+001 256782 -5.5934e+005 -3.3473e+006 -2.8495e+005 49056 256678,256730,256704
 1.6000e+001 256931 -9.8739e+005 -1.8639e+006 -7.5788e+005 48766 256853,256905,256879
 1.6000e+001 257083 -7.2009e+005 -4.6858e+006 -5.0126e+005 48568 256982,257034,257008
 1.6000e+001 257060 -5.6021e+005 -4.0307e+006 -5.9903e+005 48568 256956,257034,256982
 1.6000e+001 257186 -5.5924e+002 -1.4127e+006  8.2804e+002 48228 257108,257160,257134
 1.6000e+001 257338 -4.0762e+005 -2.0558e+006  5.8650e+005 47888 257237,257289,257263
 1.6000e+001 257315 -4.5639e+005 -2.0381e+006  4.9552e+005 47888 257211,257289,257237
 1.6000e+001 257539 -2.9671e+005 -4.4069e+006  1.4719e+005 47548 257363,257441,257415
 1.6000e+001 257516 -5.7765e+005 -4.2233e+006 -2.1516e+005 47548 257363,257467,257441
 1.6000e+001 257493 -5.4551e+005 -3.2633e+006 -1.4470e+005 47548 257363,257415,257389
 1.6000e+001 257740 -2.5833e+005 -4.4910e+006  4.2755e+005 46994 257564,257642,257616
 1.6000e+001 257717 -4.3611e+005 -3.8071e+006  1.7779e+005 46994 257564,257668,257642
 1.6000e+001 257694 -7.1409e+005 -4.7715e+006  6.7953e+004 46994 257564,257616,257590
 1.6000e+001 257843 -1.0550e+006 -3.3802e+006  1.1279e+005 46654 257765,257817,257791
 1.6000e+001 257995 -7.5410e+005 -3.5701e+006  3.0492e+005 46364 257894,257946,257920
 1.6000e+001 257972 -6.8519e+005 -4.4312e+006 -1.7818e+005 46364 257868,257946,257894
 1.6000e+001 258147 -1.9548e+005 -3.5850e+006  2.5810e+005 46024 258046,258098,258072
 1.6000e+001 258124 -3.6664e+005 -3.4147e+006  2.9118e+005 46024 258020,258098,258046
 1.6000e+001 258250 -7.2220e+005 -2.9573e+006  9.1979e+005 45741 258172,258224,258198
 1.6000e+001 258402 -1.5056e+005 -3.1283e+006  2.6381e+005 45401 258301,258353,258327
 1.6000e+001 258379 -5.0931e+005 -2.4077e+006  1.8281e+005 45401 258275,258353,258301
 1.6000e+001 258603 -6.5464e+005 -2.2362e+006  3.8810e+004 45071 258427,258505,258479
 1.6000e+001 258580 -2.4951e+005 -5.0828e+006  3.5909e+005 45071 258427,258531,258505
 1.6000e+001 258557 -2.0573e+005 -2.8690e+006  2.6185e+005 45071 258427,258479,258453
 1.6000e+001 258755 -1.5641e+005 -4.0035e+006 -2.6772e+005 44681 258654,258706,258680
 1.6000e+001 258732 -1.9268e+005 -4.1672e+006 -3.0356e+005 44681 258628,258706,258654
 1.6000e+001 258907 -4.6374e+005 -2.5257e+006 -2.2043e+005 44157 258806,258858,258832
 1.6000e+001 258884 -5.2694e+005 -2.4418e+006 -2.0983e+005 44157 258780,258858,258806
 1.6000e+001 259010 -6.2105e+005 -1.7531e+006 -1.1433e+004 43705 258932,258984,258958
 1.6000e+001 259113 -2.4648e+005 -4.5222e+006  3.9751e+005 43284 259035,259087,259061
 1.6000e+001 259216 -5.3224e+005 -3.6908e+006 -2.1273e+005 42954 259138,259190,259164
 1.6000e+001 259319 -9.4213e+005 -2.1287e+006  1.2382e+004 42116 259241,259293,259267
 1.6000e+001 259422 -3.7150e+005 -3.5162e+006 -2.3160e+005 41804 259344,259396,259370
 1.6000e+001 259525 -6.1191e+005 -5.6260e+006  7.2877e+005 41219 259447,259499,259473
 1.6000e+001 259628 -8.4214e+005 -3.0953e+006 -3.3532e+005 385 259550,259602,259576
 1.8000e+001 190120 -1.1947e+006 -2.2645e+006  3.3758e+005 189630 189993,190045,190019
 1.8000e+001 190097 -4.1587e+005 -2.5046e+006  3.8982e+005 189630 189993,190071,190045
 1.8000e+001 190319 -8.2198e+005 -5.3888e+006 -2.1311e+004 189312 190169,190221,190195
 1.8000e+001 190296 -5.7535e+005 -4.8616e+006 -5.0211e+005 189312 190169,190247,190221
 1.8000e+001 190273 -7.7802e+005 -4.6222e+006  1.3805e+004 189312 190143,190247,190169
 1.8000e+001 190518 -3.0777e+005 -3.6819e+006 -5.9056e+005 189124 190368,190446,190420
 1.8000e+001 190495 -9.6098e+005 -2.1961e+006  5.3930e+005 189124 190342,190446,190368
 1.8000e+001 190472 -1.7826e+006 -3.7406e+006 -1.5754e+006 189124 190368,190420,190394
 1.8000e+001 190619 -4.9121e+005 -3.3786e+005 -1.9461e+004 188926 190541,190593,190567
 1.8000e+001 190771 -4.3917e+005 -4.4635e+006 -4.2623e+005 188614 190670,190722,190696
 1.8000e+001 190748 -6.9455e+004 -2.8721e+006  1.2405e+005 188614 190644,190722,190670
 1.8000e+001 190972 -1.4257e+004 -4.1583e+006 -3.7938e+005 188324 190848,190900,190874
 1.8000e+001 190949 -1.2014e+005 -3.3268e+006  8.1546e+004 188324 190796,190900,190848
 1.8000e+001 190926 -9.0656e+005 -4.5591e+006 -4.8248e+005 188324 190796,190848,190822
 1.8000e+001 191124 -4.0499e+005 -2.5485e+006 -1.4739e+005 188034 191023,191075,191049
 1.8000e+001 191101 -4.3690e+005 -2.4187e+006 -2.2460e+005 188034 190997,191075,191023
 1.8000e+001 191276 -1.7751e+005 -2.9802e+006 -1.3196e+005 187836 191149,191201,191175
 1.8000e+001 191253 -4.4276e+005 -2.3772e+006  1.7913e+005 187836 191149,191227,191201
 1.8000e+001 191379 -3.8696e+005 -1.8759e+006 -1.4233e+005 187546 191301,191353,191327
 1.8000e+001 191531  7.4532e+003 -7.2905e+006 -1.9741e+006 187256 191430,191482,191456
 1.8000e+001 191508 -4.6584e+005 -5.9461e+006 -3.9570e+004 187256 191404,191482,191430
 1.8000e+001 191634 -2.9060e+005 -3.9310e+006 -4.0121e+005 187058 191556,191608,191582
 1.8000e+001 191835 -7.1723e+004 -3.1727e+006  2.5785e+005 186860 191659,191711,191685
 1.8000e+001 191812 -2.8635e+005 -2.1722e+006  4.4427e+005 186860 191659,191737,191711
 1.8000e+001 191789 -6.9315e+004 -1.7151e+006  1.3980e+005 186860 191659,191763,191737
 1.8000e+001 191987 -4.7209e+005 -2.6526e+006 -4.6834e+005 186662 191886,191938,191912
 1.8000e+001 191964 -2.5058e+005 -2.9397e+006 -2.6647e+005 186662 191860,191938,191886
 1.8000e+001 192090 -8.1183e+005 -2.0629e+006 -1.3440e+005 186486 192012,192064,192038
 1.8000e+001 192242 -4.9109e+005 -7.1218e+006 -8.5911e+003 186288 192115,192167,192141
 1.8000e+001 192219 -4.8806e+005 -6.1890e+006  2.1940e+005 186288 192115,192193,192167
 1.8000e+001 192394 -6.8011e+004 -6.2472e+006 -2.8922e+005 185935 192293,192345,192319
 1.8000e+001 192371 -4.4413e+005 -5.1975e+006 -5.1803e+005 185935 192267,192345,192293
 1.8000e+001 192546 -6.6688e+005 -2.4185e+006 -1.5269e+005 185675 192419,192471,192445
 1.8000e+001 192523 -2.3640e+005 -3.0575e+006 -4.0919e+003 185675 192419,192497,192471
 1.8000e+001 192649 -4.1740e+005 -1.8183e+006  7.2015e+004 185499 192571,192623,192597
 1.8000e+001 192801 -1.2819e+006 -2.1149e+006 -4.3528e+004 185301 192674,192726,192700
 1.8000e+001 192778 -6.9060e+005 -1.9269e+006 -1.9922e+005 185301 192674,192752,192726
 1.8000e+001 193002 -1.5188e+005 -3.1274e+006 -5.4450e+005 185046 192852,192930,192878
 1.8000e+001 192979 -4.6216e+005 -4.3032e+006 -4.3706e+005 185046 192826,192930,192852
 1.8000e+001 192956  4.0954e+005 -5.3530e+006  1.3770e+005 185046 192878,192930,192904
 1.8000e+001 193203 -1.8320e+006 -4.4586e+006 -5.1883e+005 184798 193079,193131,193105
 1.8000e+001 193180 -1.4819e+004 -6.6677e+006 -1.4359e+006 184798 193027,193131,193079
 1.8000e+001 193157 -2.1311e+005 -6.9225e+006  1.3373e+006 184798 193027,193079,193053
 1.8000e+001 193404 -2.8468e+005 -4.9340e+006 -9.7254e+005 184600 193254,193306,193280
 1.8000e+001 193381 -9.3475e+005 -3.5448e+006  1.5193e+005 184600 193254,193332,193306
 1.8000e+001 193358 -1.1326e+006 -2.8964e+006  1.8906e+004 184600 193228,193332,193254
 1.8000e+001 193556  2.3459e+005 -4.8370e+006  2.3326e+005 184402 193429,193481,193455
 1.8000e+001 193533 -1.0390e+006 -2.6876e+006 -1.3768e+006 184402 193429,193507,193481
 1.8000e+001 193708 -8.7931e+005 -4.8822e+006 -3.6331e+005 184204 193607,193659,193633
 1.8000e+001 193685 -1.0151e+006 -6.6529e+006 -8.4356e+005 184204 193581,193659,193607
 1.8000e+001 193860 -2.6920e+005 -3.0641e+006  1.6070e+005 183908 193759,193811,193785
 1.8000e+001 193837 -2.0817e+005 -2.8081e+006  2.3694e+005 183908 193733,193811,193759
 1.8000e+001 194061 -1.6752e+005 -1.6861e+006 -3.2756e+005 183710 193911,193989,193937
 1.8000e+001 194038 -6.4092e+005 -2.1551e+006  2.0894e+005 183710 193885,193989,193911
 1.8000e+001 194015 -8.5012e+004 -3.2972e+006 -4.3601e+004 183710 193937,193989,193963
 1.8000e+001 194262 -1.2157e+006 -4.7306e+006 -1.3241e+006 183420 194086,194164,194112
 1.8000e+001 194239 -1.1690e+006 -3.8172e+006  2.1551e+004 183420 194086,194190,194164
 1.8000e+001 194216 -1.5392e+006 -9.1288e+006  9.1778e+005 183420 194112,194164,194138
 1.8000e+001 194414 -7.3061e+004 -5.8343e+006  3.8885e+005 183222 194287,194339,194313
 1.8000e+001 194391 -4.7235e+005 -3.3680e+006 -2.5230e+005 183222 194287,194365,194339
 1.8000e+001 194517 -1.2925e+006 -3.6839e+006 -7.9068e+004 183024 194439,194491,194465
 1.8000e+001 194718  1.9804e+005 -1.4292e+007  9.3176e+005 182734 194568,194620,194594
 1.8000e+001 194695 -8.1100e+005 -5.5520e+006 -3.0162e+006 182734 194542,194620,194568
 1.8000e+001 194672 -2.6732e+006 -2.5557e+006 -1.5834e+006 182734 194542,194646,194620
 1.8000e+001 194870 -7.6586e+005 -3.8900e+006  2.6560e+004 182444 194769,194821,194795
 1.8000e+001 194847 -3.3078e+005 -1.7966e+006 -3.0091e+005 182444 194743,194821,194769
 1.8000e+001 195071 -1.8793e+006 -4.2115e+006 -6.1363e+005 182154 194895,194947,194921
 1.8000e+001 195048 -1.0173e+006 -2.4920e+006  6.5093e+005 182154 194895,194999,194947
 1.8000e+001 195025  1.1614e+005 -7.9159e+006  8.8996e+005 182154 194947,194999,194973
 1.8000e+001 195223 -8.5668e+005 -4.2745e+006  2.5260e+005 181814 195096,195148,195122
 1.8000e+001 195200 -5.3982e+005 -2.7859e+006  6.6696e+005 181814 195096,195174,195148
 1.8000e+001 195375 -6.9165e+004 -5.3531e+006  7.1823e+005 181524 195248,195300,195274
 1.8000e+001 195352 -1.2315e+005 -4.0861e+006  4.5181e+005 181524 195248,195326,195300
 1.8000e+001 195527 -5.7905e+004 -2.3097e+005  7.6475e+004 181326 195426,195478,195452
 1.8000e+001 195504 -5.0037e+005 -6.2849e+005  3.7064e+005 181326 195400,195478,195426
 1.8000e+001 195679  5.4823e+005 -1.0139e+007  8.4470e+004 180936 195578,195630,195604
 1.8000e+001 195656 -6.6400e+005 -4.8421e+006 -6.1259e+004 180936 195552,195630,195578
 1.8000e+001 195831 -6.0218e+005 -3.4239e+005 -1.9250e+005 180646 195704,195756,195730
 1.8000e+001 195808 -5.2205e+005 -1.1360e+005 -4.6457e+004 180646 195704,195782,195756
 1.8000e+001 196032 -3.2902e+005 -2.8952e+006  1.2589e+006 180306 195882,195960,195934
 1.8000e+001 196009 -8.7028e+005 -2.4659e+006  2.9213e+004 180306 195856,195960,195882
 1.8000e+001 195986  4.5279e+005 -4.4261e+006 -4.3629e+005 180306 195882,195934,195908
 1.8000e+001 196233  5.7357e+004 -1.6394e+006 -1.4691e+006 179944 196057,196109,196083
 1.8000e+001 196210 -1.7595e+006 -1.0098e+007  1.4513e+006 179944 196057,196135,196109
 1.8000e+001 196187 -3.9673e+006  7.9979e+006 -2.9695e+006 179944 196057,196161,196135
 1.8000e+001 196385 -7.9586e+004 -3.8807e+005 -1.1504e+005 179604 196258,196310,196284
 1.8000e+001 196362 -2.2157e+005 -7.0832e+005 -3.3890e+005 179604 196258,196336,196310
 1.8000e+001 196586  2.2522e+005 -2.6335e+006 -2.4544e+005 179114 196410,196488,196436
 1.8000e+001 196563 -4.5100e+004 -1.9789e+006 -1.6048e+005 179114 196410,196514,196488
 1.8000e+001 196540 -2.8024e+004 -2.6864e+006 -2.7585e+005 179114 196436,196488,196462
 1.8000e+001 196738 -7.5526e+005 -2.9482e+006 -4.8768e+005 178674 196611,196663,196637
 1.8000e+001 196715 -8.5088e+004 -4.3695e+006 -1.6612e+005 178674 196611,196689,196663
 1.8000e+001 196939  1.2461e+006 -9.1523e+006 -1.4251e+006 178334 196789,196867,196841
 1.8000e+001 196916 -8.8258e+005 -8.8696e+006  2.6237e+005 178334 196763,196867,196789
 1.8000e+001 196893 -1.3724e+006 -7.6831e+006 -3.7862e+006 178334 196789,196841,196815
 1.8000e+001 197091 -2.4144e+005 -4.0941e+006 -4.3569e+005 177930 196990,197042,197016
 1.8000e+001 197068 -2.4277e+005 -3.9941e+006 -2.9073e+005 177930 196964,197042,196990
 1.8000e+001 197194 -4.3228e+002 -1.3841e+006 -6.2546e+002 177732 197116,197168,197142
 1.8000e+001 197346 -5.0214e+005 -7.2655e+006 -2.3248e+005 177534 197219,197271,197245
 1.8000e+001 197323  1.0016e+005 -9.3745e+006  8.9910e+005 177534 197219,197297,197271
 1.8000e+001 197547 -1.1171e+006 -3.3509e+006 -2.2222e+006 177130 197397,197449,197423
 1.8000e+001 197524 -5.9988e+005 -3.5486e+006 -4.7669e+005 177130 197397,197475,197449
 1.8000e+001 197501 -1.2576e+006 -9.3840e+006 -1.4663e+006 177130 197371,197475,197397
 1.8000e+001 197748 -3.4988e+005 -7.6174e+006  3.3427e+005 176790 197598,197676,197624
 1.8000e+001 197725 -2.0352e+005 -6.1420e+006  5.1977e+005 176790 197572,197676,197598
 1.8000e+001 197702 -5.6886e+005 -6.1505e+006  8.2358e+005 176790 197624,197676,197650
 1.8000e+001 197900 -1.8042e+005 -4.4504e+006 -7.7856e+005 176300 197773,197825,197799
 1.8000e+001 197877  1.8917e+005 -5.0019e+006 -8.6059e+005 176300 197773,197851,197825
 1.8000e+001 198052 -5.4646e+004 -1.0456e+007 -1.8993e+006 176010 197925,197977,197951
 1.8000e+001 198029 -9.4214e+005 -5.6761e+006 -9.9970e+005 176010 197925,198003,197977
 1.8000e+001 198204 -2.5626e+006 -7.2953e+006  2.2664e+006 175670 198103,198155,198129
 1.8000e+001 198181 -1.2278e+006 -6.1027e+006  5.3240e+004 175670 198077,198155,198103
 1.8000e+001 198405 -9.4714e+005 -7.7846e+006 -7.7086e+005 175266 198255,198307,198281
 1.8000e+001 198382 -2.5097e+005 -6.9061e+006 -7.5708e+004 175266 198229,198307,198255
 1.8000e+001 198359 -2.3248e+005 -5.8571e+006 -8.7336e+005 175266 198229,198333,198307
 1.8000e+001 198606 -1.8749e+005 -3.8535e+006 -3.4569e+005 174876 198430,198508,198482
 1.8000e+001 198583 -5.0823e+005 -3.9895e+006  1.8763e+005 174876 198430,198534,198508
 1.8000e+001 198560 -3.0743e+005 -3.0984e+006 -6.0017e+005 174876 198430,198482,198456
 1.8000e+001 198758 -2.5634e+004 -1.1042e+005 -5.4063e+004 174536 198657,198709,198683
 1.8000e+001 198735 -2.6133e+004 -1.1089e+005 -5.3182e+004 174536 198631,198709,198657
 1.8000e+001 199008  9.6221e+004 -1.2694e+007  3.7432e+005 174132 198835,198913,198887
 1.8000e+001 198985 -1.8109e+005 -7.7092e+006  3.7891e+005 174132 198809,198913,198835
 1.8000e+001 198962 -4.7895e+004 -7.9083e+006 -1.2405e+006 174132 198783,198913,198809
 1.8000e+001 198939  6.8216e+004 -1.1150e+007  8.8249e+005 174132 198835,198887,198861
 1.8000e+001 199160 -7.2677e+005 -7.4570e+006  4.5084e+005 173842 199059,199111,199085
 1.8000e+001 199137 -9.8516e+005 -4.9361e+006 -2.4232e+005 173842 199033,199111,199059
 1.8000e+001 199361 -6.6995e+005 -8.0952e+006  1.0293e+006 173438 199237,199289,199263
 1.8000e+001 199338 -7.0709e+005 -6.2054e+006  1.4369e+006 173438 199211,199289,199237
 1.8000e+001 199315 -7.9827e+005 -8.1110e+006 -1.6947e+005 173438 199185,199289,199211
 1.8000e+001 199513  3.6852e+005 -1.0033e+007  1.4943e+006 173190 199386,199438,199412
 1.8000e+001 199490 -1.8111e+005 -7.8367e+006  1.0984e+004 173190 199386,199464,199438
 1.8000e+001 199665 -2.6587e+005 -4.1627e+006  1.4323e+005 172750 199564,199616,199590
 1.8000e+001 199642 -7.8454e+005 -2.6045e+006 -1.6849e+005 172750 199538,199616,199564
 1.8000e+001 199817 -6.5243e+005 -7.5254e+006 -2.3968e+006 172524 199690,199742,199716
 1.8000e+001 199794 -2.9583e+006 -4.4146e+006 -1.4720e+006 172524 199690,199768,199742
 1.8000e+001 199969 -1.2950e+004 -7.0928e+006 -3.1153e+005 172348 199842,199894,199868
 1.8000e+001 199946  6.3298e+005 -6.9759e+006  8.4585e+004 172348 199842,199920,199894
 1.8000e+001 200121  3.8785e+005 -8.9735e+006 -6.5818e+005 172008 199994,200046,200020
 1.8000e+001 200098 -5.7264e+005 -4.4840e+006 -2.7827e+005 172008 199994,200072,200046
 1.8000e+001 200273 -9.9228e+005 -1.1465e+007  1.2335e+006 171668 200172,200224,200198
 1.8000e+001 200250 -3.2740e+005 -9.5009e+006  1.7095e+006 171668 200146,200224,200172
 1.8000e+001 200474 -5.2246e+005 -1.1983e+007 -7.1049e+005 171264 200350,200402,200376
 1.8000e+001 200451 -8.2747e+005 -9.1416e+006  1.4439e+005 171264 200324,200402,200350
 1.8000e+001 200428 -8.9404e+005 -9.0238e+006  3.0216e+005 171264 200298,200402,200324
 1.8000e+001 200626  4.1339e+005 -1.1565e+007  5.1731e+005 170832 200525,200577,200551
 1.8000e+001 200603 -1.8019e+005 -9.5766e+006  3.1402e+005 170832 200499,200577,200525
 1.8000e+001 200827  3.3288e+005 -1.0543e+007  1.9868e+006 170492 200677,200729,200703
 1.8000e+001 200804 -1.4698e+006 -4.3412e+006 -2.8897e+006 170492 200651,200729,200677
 1.8000e+001 200781 -2.6280e+006 -4.6691e+006 -2.0279e+006 170492 200651,200755,200729
 1.8000e+001 201077  6.6856e+005 -3.5267e+006  1.1337e+005 170088 200878,200956,200904
 1.8000e+001 201054 -4.7665e+005 -3.7749e+006 -1.1920e+006 170088 200852,200956,200878
 1.8000e+001 201031  2.2618e+005 -3.4432e+006  2.4035e+006 170088 200904,200956,200930
 1.8000e+001 201008  3.0848e+006 -8.2388e+006  1.9212e+006 170088 200852,200982,200956
 1.8000e+001 201278  8.4191e+005 -5.3213e+006  7.5163e+005 169798 201102,201154,201128
 1.8000e+001 201255 -1.5720e+006 -1.4751e+007 -4.8743e+005 169798 201102,201206,201154
 1.8000e+001 201232 -2.4538e+006 -4.1326e+006  1.5164e+006 169798 201154,201206,201180
 1.8000e+001 201430 -1.2335e+006 -1.5102e+007 -1.0970e+006 169337 201303,201355,201329
 1.8000e+001 201407 -6.5768e+005 -6.4632e+006 -3.6461e+005 169337 201303,201381,201355
 1.8000e+001 201631 -3.1247e+005 -6.4469e+006 -1.0491e+005 168883 201481,201559,201507
 1.8000e+001 201608  4.4957e+005 -6.2735e+006  5.3242e+004 168883 201455,201559,201481
 1.8000e+001 201585 -9.1577e+005 -7.3208e+006 -5.4394e+005 168883 201507,201559,201533
 1.8000e+001 201832 -4.6789e+005 -1.3555e+007  3.1860e+005 168479 201682,201734,201708
 1.8000e+001 201809 -1.7009e+006 -1.2100e+007 -9.3234e+005 168479 201656,201734,201682
 1.8000e+001 201786 -1.2283e+006 -1.0230e+007 -1.8697e+005 168479 201656,201760,201734
 1.8000e+001 202033 -2.3752e+005 -7.8585e+006  1.3663e+006 167825 201883,201935,201909
 1.8000e+001 202010 -1.6594e+004 -8.5828e+006 -3.9877e+005 167825 201857,201935,201883
 1.8000e+001 201987  1.2162e+005 -1.2071e+007  3.8446e+005 167825 201857,201961,201935
 1.8000e+001 202234 -1.3336e+006 -1.0443e+007 -3.1257e+006 167435 202058,202136,202084
 1.8000e+001 202211 -2.0087e+006 -1.5754e+007  3.3682e+006 167435 202058,202162,202136
 1.8000e+001 202188 -9.6439e+005 -5.3063e+006  4.2726e+005 167435 202084,202136,202110
 1.8000e+001 202386  4.3489e+005 -8.6354e+006  4.2538e+005 167002 202285,202337,202311
 1.8000e+001 202363 -8.6959e+005 -1.9298e+006  7.7403e+005 167002 202259,202337,202285
 1.8000e+001 202538  5.8662e+004 -7.7960e+006 -4.0423e+005 166662 202411,202463,202437
 1.8000e+001 202515 -4.9752e+005 -4.3840e+006 -4.0986e+004 166662 202411,202489,202463
 1.8000e+001 202690 -3.3028e+005 -7.5372e+006 -2.6788e+005 166322 202589,202641,202615
 1.8000e+001 202667  5.1203e+005 -8.2755e+006 -7.4906e+005 166322 202563,202641,202589
 1.8000e+001 202891 -1.5545e+006 -4.4252e+006  1.5881e+005 165918 202715,202767,202741
 1.8000e+001 202868 -1.7249e+006 -5.2773e+006 -2.7106e+005 165918 202715,202793,202767
 1.8000e+001 202845 -1.6608e+005 -5.2445e+006 -5.2356e+005 165918 202715,202819,202793
 1.8000e+001 203092 -1.7871e+006 -7.4923e+006 -7.4033e+005 165628 202916,202968,202942
 1.8000e+001 203069 -1.3055e+005 -1.2801e+007 -1.7355e+005 165628 202916,202994,202968
 1.8000e+001 203046 -9.3384e+005 -1.3689e+007  6.6962e+005 165628 202916,203020,202994
 1.8000e+001 203293 -2.7218e+006 -1.3226e+007  2.4209e+006 165266 203143,203195,203169
 1.8000e+001 203270 -3.6326e+006 -8.9252e+006 -3.6843e+005 165266 203143,203221,203195
 1.8000e+001 203247  2.9275e+005 -1.2563e+007 -4.5145e+006 165266 203117,203221,203143
 1.8000e+001 203445 -2.7447e+004 -6.2597e+006  1.3097e+006 164826 203318,203370,203344
 1.8000e+001 203422 -4.4277e+005 -3.7121e+006 -6.2319e+005 164826 203318,203396,203370
 1.8000e+001 203597 -1.0086e+006 -8.4297e+006 -3.7791e+005 164386 203470,203522,203496
 1.8000e+001 203574 -2.1584e+005 -5.8489e+006  1.6033e+005 164386 203470,203548,203522
 1.8000e+001 203798  7.6768e+004 -7.9253e+006  9.1074e+005 163996 203622,203674,203648
 1.8000e+001 203775 -7.4274e+005 -3.1621e+006 -1.5441e+005 163996 203622,203726,203674
 1.8000e+001 203752 -2.1095e+006 -7.3693e+006  2.2196e+006 163996 203674,203726,203700
 1.8000e+001 203901 -4.3776e+005 -4.3983e+006 -6.5129e+005 163770 203823,203875,203849
 1.8000e+001 204053 -1.2002e+006 -7.7657e+006  1.3134e+006 163474 203952,204004,203978
 1.8000e+001 204030 -5.9736e+005 -8.6488e+006 -5.4444e+005 163474 203926,204004,203952
 1.8000e+001 204205 -8.8750e+004 -5.4179e+006 -1.6577e+005 163034 204104,204156,204130
 1.8000e+001 204182 -5.1863e+005 -8.5141e+006 -2.9534e+006 163034 204078,204156,204104
 1.8000e+001 204357 -2.5403e+005 -7.4193e+006  7.5411e+005 162624 204256,204308,204282
 1.8000e+001 204334 -1.0059e+005 -3.7214e+006 -4.2149e+004 162624 204230,204308,204256
 1.8000e+001 204509 -1.9826e+002 -7.9501e+003  1.4087e+003 162200 204382,204434,204408
 1.8000e+001 204486 -1.2813e+002 -6.4550e+003  1.1429e+003 162200 204382,204460,204434
 1.8000e+001 204710 -1.9125e+005 -1.8168e+006  4.7358e+005 161810 204560,204638,204586
 1.8000e+001 204687 -2.6509e+004 -2.9797e+006 -6.7884e+005 161810 204534,204638,204560
 1.8000e+001 204664 -2.4360e+005 -7.8809e+005  4.1393e+004 161810 204586,204638,204612
 1.8000e+001 204862 -1.1356e+006 -5.9853e+006 -1.3935e+006 161406 204735,204787,204761
 1.8000e+001 204839 -1.7204e+006 -6.2831e+006 -1.1664e+006 161406 204735,204813,204787
 1.8000e+001 205014 -1.3884e+005 -3.1492e+006  8.6659e+005 161180 204887,204939,204913
 1.8000e+001 204991 -2.7366e+005 -1.4365e+006 -3.3620e+003 161180 204887,204965,204939
 1.8000e+001 205215  6.8369e+005 -3.1124e+006 -2.1624e+005 160726 205039,205091,205065
 1.8000e+001 205192 -8.4555e+005 -9.0470e+006 -7.0804e+005 160726 205039,205143,205091
 1.8000e+001 205169 -2.5064e+005 -2.1071e+006 -7.7713e+004 160726 205091,205143,205117
 1.8000e+001 205416 -4.8581e+005 -4.4597e+006  1.1316e+006 160272 205292,205344,205318
 1.8000e+001 205393 -5.3761e+005 -4.2877e+006  1.0985e+006 160272 205240,205344,205292
 1.8000e+001 205370 -6.1943e+005 -4.9118e+006  6.7732e+005 160272 205240,205292,205266
 1.8000e+001 205568 -2.9618e+005 -4.1932e+006  8.7199e+005 159932 205441,205493,205467
 1.8000e+001 205545 -3.7017e+005 -4.0040e+006  9.4639e+005 159932 205441,205519,205493
 1.8000e+001 205720 -9.8792e+003 -1.6420e+006 -3.2344e+005 159542 205593,205645,205619
 1.8000e+001 205697 -1.2181e+005 -2.2973e+005 -8.9596e+004 159542 205593,205671,205645
 1.8000e+001 205872  3.1599e+005 -1.0265e+006  6.8599e+004 159252 205745,205797,205771
 1.8000e+001 205849 -3.6175e+005 -3.9601e+006 -5.2300e+004 159252 205745,205823,205797
 1.8000e+001 206024 -2.4709e+006 -2.9080e+006 -7.8333e+005 159004 205923,205975,205949
 1.8000e+001 206001 -8.9778e+005 -4.4007e+006  2.2277e+005 159004 205897,205975,205923
 1.8000e+001 206127 -4.1116e+002 -9.9338e+001 -6.2818e+001 158364 206049,206101,206075
 1.8000e+001 206328 -4.0664e+005 -2.9358e+006  3.2945e+005 157960 206178,206256,206204
 1.8000e+001 206305 -2.5474e+005 -2.6341e+006  6.6857e+005 157960 206152,206256,206178
 1.8000e+001 206282  9.7495e+004 -3.1971e+006  5.6351e+005 157960 206204,206256,206230
 1.8000e+001 206529 -9.4871e+004 -8.3689e+006  6.4599e+004 157648 206405,206457,206431
 1.8000e+001 206506 -2.3787e+006 -6.7950e+006 -9.3199e+005 157648 206379,206457,206405
 1.8000e+001 206483 -6.9589e+005 -5.6941e+006  9.6550e+004 157648 206353,206457,206379
 1.8000e+001 206730  1.3586e+006 -1.7019e+007  1.7354e+005 157208 206554,206606,206580
 1.8000e+001 206707  8.6430e+005 -1.9559e+007  5.9242e+004 157208 206554,206632,206606
 1.8000e+001 206684 -3.9295e+006 -6.4497e+006 -3.2681e+005 157208 206554,206658,206632
 1.8000e+001 206882 -1.5689e+005 -2.3274e+006  4.4144e+005 157010 206755,206807,206781
 1.8000e+001 206859 -1.0241e+005 -2.6781e+006  5.9426e+005 157010 206755,206833,206807
 1.8000e+001 207034 -1.9667e+005 -9.1357e+006 -1.2555e+005 156620 206907,206959,206933
 1.8000e+001 207011  1.4250e+005 -1.3242e+007  8.6709e+004 156620 206907,206985,206959
 1.8000e+001 207186 -6.8934e+004 -4.2858e+006  2.1172e+005 156330 207085,207137,207111
 1.8000e+001 207163 -1.6811e+005 -4.3558e+006 -4.4071e+005 156330 207059,207137,207085
 1.8000e+001 207387 -5.8656e+004 -7.7463e+006  1.9444e+005 155890 207211,207289,207237
 1.8000e+001 207364 -3.3634e+005 -7.8201e+006  6.5583e+004 155890 207211,207315,207289
 1.8000e+001 207341 -1.2064e+006 -4.8977e+006  1.9338e+006 155890 207237,207289,207263
 1.8000e+001 207588  1.2506e+006 -1.9536e+007  3.5971e+006 155436 207438,207490,207464
 1.8000e+001 207565 -2.1697e+005 -1.7131e+007  4.4613e+004 155436 207412,207490,207438
 1.8000e+001 207542 -6.4331e+005 -1.1595e+007 -3.5752e+005 155436 207412,207516,207490
 1.8000e+001 207789  6.5016e+005 -2.9313e+007 -2.0733e+006 155260 207639,207691,207665
 1.8000e+001 207766 -2.8004e+006 -1.2700e+007  3.5583e+006 155260 207613,207691,207639
 1.8000e+001 207743 -5.3055e+005 -1.0413e+007 -6.5371e+005 155260 207613,207717,207691
 1.8000e+001 207990 -5.5772e+004 -7.0492e+005  1.2124e+005 154920 207840,207918,207892
 1.8000e+001 207967 -5.3061e+005 -9.6318e+005 -3.1094e+005 154920 207814,207918,207840
 1.8000e+001 207944 -7.1981e+004 -3.8561e+005 -7.3346e+004 154920 207840,207892,207866
 1.8000e+001 208191  1.3803e+005 -1.3994e+007 -1.1661e+006 154630 208015,208093,208041
 1.8000e+001 208168 -4.0073e+005 -8.6293e+006 -1.1093e+006 154630 208015,208119,208093
 1.8000e+001 208145 -1.8890e+006 -1.0438e+007 -4.3775e+006 154630 208041,208093,208067
 1.8000e+001 208343 -4.4582e+004 -4.2501e+005 -1.5411e+003 154240 208216,208268,208242
 1.8000e+001 208320 -3.3245e+004 -3.2446e+005  6.4814e+004 154240 208216,208294,208268
 1.8000e+001 208495  5.8864e+005 -2.3002e+007 -4.8275e+006 153950 208394,208446,208420
 1.8000e+001 208472 -1.5237e+006 -1.2414e+007  2.8023e+006 153950 208368,208446,208394
 1.8000e+001 208647 -5.8157e+005 -1.4085e+007  5.9621e+006 153603 208520,208572,208546
 1.8000e+001 208624 -4.8410e+006 -6.1636e+006 -1.4541e+006 153603 208520,208598,208572
 1.8000e+001 208848 -7.0782e+005 -8.0506e+006  1.7635e+006 153149 208698,208776,208724
 1.8000e+001 208825  4.4138e+005 -1.4156e+007 -1.3340e+006 153149 208672,208776,208698
 1.8000e+001 208802 -2.8166e+006 -7.9073e+006  6.1236e+005 153149 208724,208776,208750
 1.8000e+001 209000 -8.2342e+005 -1.1643e+007  7.8739e+004 152859 208873,208925,208899
 1.8000e+001 208977 -3.8574e+004 -1.5629e+007  6.3329e+005 152859 208873,208951,208925
 1.8000e+001 209152  3.2071e+005 -1.3938e+007 -2.0363e+005 152569 209051,209103,209077
 1.8000e+001 209129  9.4112e+004 -1.3708e+007 -8.7810e+004 152569 209025,209103,209051
 1.8000e+001 209304 -2.0008e+004 -5.8925e+005  8.8936e+004 152065 209177,209229,209203
 1.8000e+001 209281 -6.8536e+003 -8.0714e+005  1.7641e+005 152065 209177,209255,209229
 1.8000e+001 209456  6.2138e+005 -1.2773e+007  2.7198e+005 151775 209355,209407,209381
 1.8000e+001 209433  9.2113e+005 -1.6391e+007  9.9073e+004 151775 209329,209407,209355
 1.8000e+001 209608 -9.4573e+005 -1.5913e+007 -2.2402e+005 151371 209481,209533,209507
 1.8000e+001 209585  4.8469e+005 -1.8842e+007  4.7028e+005 151371 209481,209559,209533
 1.8000e+001 209760 -2.7049e+006 -9.7023e+006 -1.4460e+006 150981 209659,209711,209685
 1.8000e+001 209737 -1.0242e+006 -1.0045e+007 -1.9666e+006 150981 209633,209711,209659
 1.8000e+001 209912  1.7512e+006 -2.9604e+007 -2.1229e+006 150619 209811,209863,209837
 1.8000e+001 209889 -1.0069e+005 -1.8353e+007  2.0220e+006 150619 209785,209863,209811
 1.8000e+001 210064  9.9322e+004 -1.4133e+007 -1.3367e+006 150279 209937,209989,209963
 1.8000e+001 210041 -2.3715e+005 -1.0867e+007 -1.6255e+006 150279 209937,210015,209989
 1.8000e+001 210265  1.2896e+005 -1.6182e+007 -2.3643e+006 149989 210115,210167,210141
 1.8000e+001 210242 -1.2608e+006 -1.3759e+007  6.0424e+005 149989 210115,210193,210167
 1.8000e+001 210219 -1.1092e+006 -1.8463e+007  4.7705e+005 149989 210089,210193,210115
 1.8000e+001 210417 -2.0339e+006 -1.3019e+007 -1.2064e+006 149599 210316,210368,210342
 1.8000e+001 210394 -1.4745e+006 -9.3220e+006 -7.3736e+004 149599 210290,210368,210316
 1.8000e+001 210618 -2.4758e+006 -1.0559e+007  2.6424e+005 149095 210468,210520,210494
 1.8000e+001 210595 -3.1999e+006 -1.0909e+007  1.5063e+006 149095 210442,210520,210468
 1.8000e+001 210572 -1.1826e+006 -2.2992e+007  2.5939e+006 149095 210442,210546,210520
 1.8000e+001 210819 -1.8914e+005 -2.0881e+006  4.1971e+005 148748 210695,210747,210721
 1.8000e+001 210796 -5.3863e+004 -4.4056e+006  9.2825e+005 148748 210669,210747,210695
 1.8000e+001 210773 -6.1305e+005 -3.8286e+006  1.5324e+006 148748 210643,210747,210669
 1.8000e+001 210971  2.9584e+004 -1.8845e+005 -1.8371e+004 148408 210870,210922,210896
 1.8000e+001 210948  1.0153e+005 -1.3491e+005  5.2915e+004 148408 210844,210922,210870
 1.8000e+001 211123  8.5218e+004 -1.0619e+007  1.7503e+006 148118 210996,211048,211022
 1.8000e+001 211100 -4.2767e+005 -1.3458e+007  4.2658e+006 148118 210996,211074,211048
 1.8000e+001 211275 -3.3005e+006 -1.2030e+007  7.7158e+005 147778 211148,211200,211174
 1.8000e+001 211252 -1.9036e+006 -2.1041e+007  6.2794e+006 147778 211148,211226,211200
 1.8000e+001 211427 -1.6069e+006 -1.2225e+007  2.7234e+004 147324 211326,211378,211352
 1.8000e+001 211404  3.6499e+005 -1.3155e+007  4.0017e+004 147324 211300,211378,211326
 1.8000e+001 211628  1.1133e+004 -6.9182e+004  3.4666e+003 147012 211452,211504,211478
 1.8000e+001 211605 -8.1564e+002 -1.7643e+005 -2.9351e+003 147012 211452,211556,211504
 1.8000e+001 211582 -5.7218e+003 -2.1698e+005  1.6037e+003 147012 211504,211556,211530
 1.8000e+001 211829 -5.8925e+005 -9.5379e+006  2.6080e+006 146636 211679,211757,211731
 1.8000e+001 211806  2.2219e+006 -1.7932e+007 -3.6100e+005 146636 211653,211757,211679
 1.8000e+001 211783  4.7577e+005 -7.8678e+006  9.2509e+005 146636 211679,211731,211705
 1.8000e+001 211981  3.4107e+003 -2.3744e+005 -4.8672e+004 146246 211880,211932,211906
 1.8000e+001 211958  9.6601e+004 -4.3272e+004  2.1238e+004 146246 211854,211932,211880
 1.8000e+001 212133  7.0790e+003 -2.1230e+005 -1.6991e+004 145956 212006,212058,212032
 1.8000e+001 212110 -1.1773e+005 -1.6408e+005 -3.4042e+004 145956 212006,212084,212058
 1.8000e+001 212285 -1.4265e+004 -2.1297e+005  6.0277e+003 145544 212184,212236,212210
 1.8000e+001 212262 -1.5726e+004 -4.7927e+004 -7.7865e+003 145544 212158,212236,212184
 1.8000e+001 212486 -4.0411e+004 -8.2207e+006  1.1221e+006 144990 212362,212414,212388
 1.8000e+001 212463  6.8424e+004 -6.8938e+006  1.8713e+006 144990 212310,212414,212362
 1.8000e+001 212440 -1.0543e+006 -3.3360e+006  1.1706e+006 144990 212310,212362,212336
 1.8000e+001 212638 -1.2484e+006 -5.3908e+006  1.9022e+006 144600 212537,212589,212563
 1.8000e+001 212615 -3.5155e+005 -2.0151e+006  4.7358e+004 144600 212511,212589,212537
 1.8000e+001 212839 -8.3508e+004 -8.9092e+005 -2.0967e+005 144210 212689,212741,212715
 1.8000e+001 212816 -3.3719e+003 -1.1105e+006 -4.0480e+004 144210 212663,212741,212689
 1.8000e+001 212793  5.5392e+004 -7.2261e+005 -7.5048e+004 144210 212663,212767,212741
 1.8000e+001 212991 -1.1192e+006 -1.8978e+006  9.2705e+005 143920 212890,212942,212916
 1.8000e+001 212968 -2.3097e+005 -6.9214e+006  3.2997e+005 143920 212864,212942,212890
 1.8000e+001 213143 -1.5624e+004 -1.9643e+005 -5.2986e+004 143480 213016,213068,213042
 1.8000e+001 213120 -7.9502e+004 -2.0142e+005 -5.3760e+004 143480 213016,213094,213068
 1.8000e+001 213295 -9.3288e+005 -3.3917e+006  2.2652e+006 142990 213194,213246,213220
 1.8000e+001 213272 -1.6418e+006 -9.6013e+005  4.9375e+005 142990 213168,213246,213194
 1.8000e+001 213447 -1.5452e+006 -5.0517e+006  1.4868e+006 142600 213320,213372,213346
 1.8000e+001 213424 -2.5152e+006 -2.4223e+006 -3.5187e+005 142600 213320,213398,213372
 1.8000e+001 213599 -6.1013e+005 -4.7657e+006  6.4078e+005 142260 213472,213524,213498
 1.8000e+001 213576  9.7635e+004 -4.7021e+006  8.9554e+005 142260 213472,213550,213524
 1.8000e+001 213751 -1.4330e+006 -3.9079e+006  2.7520e+005 141870 213624,213676,213650
 1.8000e+001 213728 -1.0922e+006 -5.0863e+006  1.9198e+006 141870 213624,213702,213676
 1.8000e+001 213903 -1.4007e+006 -3.4768e+006 -1.9570e+006 141530 213776,213828,213802
 1.8000e+001 213880 -5.4127e+005 -3.8178e+006 -1.2555e+006 141530 213776,213854,213828
 1.8000e+001 214055 -4.1213e+003 -3.7131e+004 -4.4595e+003 141218 213928,213980,213954
 1.8000e+001 214032  1.8243e+004 -1.2927e+005  1.6684e+004 141218 213928,214006,213980
 1.8000e+001 214207  7.4107e+002 -8.5827e+004  1.2229e+004 140928 214080,214132,214106
 1.8000e+001 214184 -1.5795e+004 -8.7670e+004 -1.5038e+004 140928 214080,214158,214132
 1.8000e+001 214359 -6.5436e+005 -4.1309e+006 -1.1667e+006 140538 214232,214284,214258
 1.8000e+001 214336  4.5180e+005 -8.4197e+006  1.7951e+006 140538 214232,214310,214284
 1.8000e+001 214560 -3.8593e+004 -1.4654e+006 -9.9937e+003 140248 214384,214462,214410
 1.8000e+001 214537  1.1316e+005 -2.2878e+005 -5.4805e+004 140248 214384,214488,214462
 1.8000e+001 214514 -1.7993e+005 -7.8635e+005 -2.2259e+005 140248 214410,214462,214436
 1.8000e+001 214712 -2.2852e+005 -8.0978e+006  7.0263e+005 140000 214611,214663,214637
 1.8000e+001 214689 -1.1788e+006 -3.5138e+006 -2.1496e+005 140000 214585,214663,214611
 1.8000e+001 214913 -5.5772e+005 -3.0202e+006 -1.2364e+006 139596 214737,214815,214763
 1.8000e+001 214890 -4.5408e+005 -1.1758e+006 -2.2671e+005 139596 214737,214841,214815
 1.8000e+001 214867  3.9630e+005 -4.6369e+006 -9.7817e+005 139596 214763,214815,214789
 1.8000e+001 215016 -2.5246e+002 -3.6413e+001 -5.7316e+001 139420 214938,214990,214964
 1.8000e+001 215168 -2.8587e+005 -6.1979e+006  1.0752e+006 139130 215067,215119,215093
 1.8000e+001 215145 -7.1325e+005 -6.2025e+006  2.2095e+006 139130 215041,215119,215067
 1.8000e+001 215320 -1.0053e+006 -1.4157e+006  7.7895e+005 138790 215219,215271,215245
 1.8000e+001 215297  3.2015e+005 -7.8388e+006  1.9821e+006 138790 215193,215271,215219
 1.8000e+001 215472 -1.7404e+005 -1.4387e+006  4.9166e+005 138514 215345,215397,215371
 1.8000e+001 215449 -1.2201e+005 -6.8710e+005 -9.1976e+004 138514 215345,215423,215397
 1.8000e+001 215624 -5.9076e+005 -6.9029e+006  7.9139e+002 138174 215497,215549,215523
 1.8000e+001 215601 -2.6072e+005 -5.6845e+006 -3.1569e+005 138174 215497,215575,215549
 1.8000e+001 215776 -1.2273e+006 -4.6537e+006  1.1615e+006 137734 215649,215701,215675
 1.8000e+001 215753 -1.4552e+006 -4.8349e+006  1.4110e+006 137734 215649,215727,215701
 1.8000e+001 215977 -2.8168e+006 -1.2060e+007  2.2965e+006 137344 215801,215879,215827
 1.8000e+001 215954  9.0565e+005 -1.2204e+007  2.5783e+006 137344 215801,215905,215879
 1.8000e+001 215931  3.7824e+006 -2.0689e+007 -3.5353e+006 137344 215827,215879,215853
 1.8000e+001 216129 -7.5085e+005 -8.9761e+006 -4.1006e+005 136940 216028,216080,216054
 1.8000e+001 216106 -7.5580e+005 -7.1296e+006 -9.3739e+005 136940 216002,216080,216028
 1.8000e+001 216330 -4.1302e+005 -6.1872e+006 -2.9403e+005 136600 216180,216232,216206
 1.8000e+001 216307 -6.7133e+005 -6.6101e+006  9.7277e+005 136600 216154,216232,216180
 1.8000e+001 216284 -7.1499e+003 -5.8947e+006  5.3007e+005 136600 216154,216258,216232
 1.8000e+001 216482  4.3249e+005 -5.3926e+006 -2.6771e+005 136260 216381,216433,216407
 1.8000e+001 216459  2.0142e+005 -5.5642e+006 -3.9675e+005 136260 216355,216433,216381
 1.8000e+001 216634  1.5110e+005 -7.0458e+006  9.5269e+005 135970 216533,216585,216559
 1.8000e+001 216611 -1.6442e+005 -8.0470e+006  7.0409e+005 135970 216507,216585,216533
 1.8000e+001 216835 -7.8044e+005 -5.2277e+006 -7.2778e+005 135608 216685,216763,216711
 1.8000e+001 216812 -2.3101e+005 -4.6815e+006 -8.3415e+004 135608 216659,216763,216685
 1.8000e+001 216789 -5.7450e+005 -9.0711e+006  1.8817e+005 135608 216711,216763,216737
 1.8000e+001 217036  7.0438e+004 -5.9885e+006  7.5886e+005 135312 216912,216964,216938
 1.8000e+001 217013 -5.7401e+004 -6.3281e+006  6.5923e+005 135312 216886,216964,216912
 1.8000e+001 216990 -8.0105e+005 -5.8480e+006  6.6728e+005 135312 216860,216964,216886
 1.8000e+001 217237  3.0128e+004 -7.7657e+005 -5.0134e+004 134908 217061,217139,217113
 1.8000e+001 217214 -9.5194e+004 -9.0504e+005  3.4075e+005 134908 217061,217165,217139
 1.8000e+001 217191 -1.7675e+005 -2.6586e+005 -2.1690e+005 134908 217061,217113,217087
 1.8000e+001 217438 -1.0003e+006 -1.5969e+007  1.8503e+006 134568 217288,217366,217314
 1.8000e+001 217415 -2.4744e+005 -1.6061e+007  2.1604e+006 134568 217262,217366,217288
 1.8000e+001 217392  4.0214e+005 -1.1575e+007  9.2336e+005 134568 217314,217366,217340
 1.8000e+001 217590  2.4392e+004 -1.7889e+006  1.7104e+005 134106 217463,217515,217489
 1.8000e+001 217567  9.5953e+004 -1.7756e+006  1.7100e+005 134106 217463,217541,217515
 1.8000e+001 217791 -4.2268e+006 -2.6457e+007 -1.4588e+007 133816 217641,217693,217667
 1.8000e+001 217768  1.7110e+006 -3.2797e+007  6.8667e+006 133816 217641,217719,217693
 1.8000e+001 217745 -6.8940e+006 -1.1614e+007  4.5231e+006 133816 217615,217719,217641
 1.8000e+001 217992 -1.5239e+006 -5.1601e+006  2.6137e+006 133355 217842,217920,217894
 1.8000e+001 217969 -1.8817e+005 -1.1322e+007 -7.7152e+005 133355 217816,217920,217842
 1.8000e+001 217946 -4.3044e+005 -3.2748e+006 -2.1721e+005 133355 217842,217894,217868
 1.8000e+001 218193 -2.5492e+005 -4.3467e+006 -3.7514e+006 132851 218017,218095,218069
 1.8000e+001 218170 -1.1983e+006 -7.9986e+006  5.0387e+006 132851 218017,218121,218095
 1.8000e+001 218147 -3.1404e+006 -5.7594e+006 -2.2319e+006 132851 218017,218069,218043
 1.8000e+001 218345 -7.4588e+005 -3.3595e+006  9.0086e+005 132511 218244,218296,218270
 1.8000e+001 218322 -1.3497e+006 -3.6565e+006  3.0759e+005 132511 218218,218296,218244
 1.8000e+001 218497 -2.7476e+006 -2.7301e+007 -2.2485e+006 132235 218396,218448,218422
 1.8000e+001 218474 -3.2211e+006 -8.9058e+006  1.1518e+006 132235 218370,218448,218396
 1.8000e+001 218698 -2.1162e+005 -1.0830e+007  7.8743e+005 131945 218574,218626,218600
 1.8000e+001 218675 -5.3612e+005 -1.2557e+007  1.0308e+006 131945 218522,218626,218574
 1.8000e+001 218652 -7.0910e+005 -9.7059e+006  2.6364e+005 131945 218522,218574,218548
 1.8000e+001 218850 -5.3180e+005 -1.8252e+007 -2.7593e+006 131655 218723,218775,218749
 1.8000e+001 218827 -1.5001e+006 -1.1932e+007 -7.1263e+005 131655 218723,218801,218775
 1.8000e+001 218953 -1.0756e+006 -6.0972e+006 -8.2931e+004 131215 218875,218927,218901
 1.8000e+001 219105 -7.2449e+005 -9.7399e+006  1.4466e+004 130875 218978,219030,219004
 1.8000e+001 219082 -2.9666e+005 -4.9613e+006  4.2616e+005 130875 218978,219056,219030
 1.8000e+001 219306  2.1162e+005 -4.5880e+006  4.7674e+004 130429 219156,219234,219208
 1.8000e+001 219283  2.9913e+005 -4.2929e+006  1.5393e+005 130429 219130,219234,219156
 1.8000e+001 219260 -6.9340e+003 -4.6206e+006 -1.7812e+005 130429 219156,219208,219182
 1.8000e+001 219507  2.9350e+004 -2.7646e+006 -2.6510e+005 130025 219383,219435,219409
 1.8000e+001 219484 -5.0380e+004 -3.1956e+006 -2.6510e+005 130025 219331,219435,219383
 1.8000e+001 219461 -1.3725e+005 -3.0560e+006 -3.1135e+005 130025 219331,219383,219357
 1.8000e+001 219659 -9.9947e+005 -1.3208e+007 -1.6609e+006 129685 219558,219610,219584
 1.8000e+001 219636 -1.2908e+005 -1.4835e+007 -3.7687e+006 129685 219532,219610,219558
 1.8000e+001 219860  7.1475e+004 -3.6810e+006  3.1143e+005 129395 219710,219788,219762
 1.8000e+001 219837 -3.9385e+004 -4.8932e+006  1.4557e+005 129395 219684,219788,219710
 1.8000e+001 219814  3.2259e+005 -4.3185e+006 -1.6937e+005 129395 219710,219762,219736
 1.8000e+001 220061  9.4062e+004 -3.6813e+006  2.8844e+005 128991 219937,219989,219963
 1.8000e+001 220038 -7.8698e+004 -5.9892e+006 -2.7892e+005 128991 219885,219989,219937
 1.8000e+001 220015  3.1132e+005 -4.8353e+006  1.3969e+005 128991 219885,219937,219911
 1.8000e+001 220262 -3.9436e+005 -3.3374e+006 -2.8184e+005 128701 220086,220164,220112
 1.8000e+001 220239  3.2943e+005 -4.8011e+006  2.0525e+005 128701 220086,220190,220164
 1.8000e+001 220216 -1.3899e+005 -2.7738e+006  6.2103e+005 128701 220112,220164,220138
 1.8000e+001 220463 -2.1076e+006 -1.2529e+007  1.3928e+006 128297 220339,220391,220365
 1.8000e+001 220440  1.2576e+006 -1.4803e+007  1.3086e+006 128297 220313,220391,220339
 1.8000e+001 220417 -1.3780e+005 -1.6934e+007 -2.1463e+006 128297 220287,220391,220313
 1.8000e+001 220615 -8.0767e+005 -1.1104e+007 -1.5012e+006 128007 220488,220540,220514
 1.8000e+001 220592  3.8694e+005 -1.4052e+007 -1.1795e+006 128007 220488,220566,220540
 1.8000e+001 220767  8.9209e+004 -4.0759e+006 -2.6358e+005 127567 220640,220692,220666
 1.8000e+001 220744 -2.5009e+005 -2.1833e+006 -1.7028e+005 127567 220640,220718,220692
 1.8000e+001 220919  8.7911e+005 -1.6502e+007  5.1597e+005 127163 220792,220844,220818
 1.8000e+001 220896  9.6438e+005 -1.6266e+007  2.9861e+005 127163 220792,220870,220844
 1.8000e+001 221071 -9.2509e+005 -4.0978e+006  1.1211e+006 126915 220970,221022,220996
 1.8000e+001 221048 -8.3397e+005 -4.4963e+006  9.7793e+005 126915 220944,221022,220970
 1.8000e+001 221272 -9.5514e+005 -1.0413e+007  9.3737e+005 126461 221122,221174,221148
 1.8000e+001 221249 -2.7825e+006 -1.0967e+007  5.4219e+005 126461 221122,221200,221174
 1.8000e+001 221226 -2.3201e+005 -1.6195e+007 -1.8930e+006 126461 221096,221200,221122
 1.8000e+001 221375 -5.5952e+000 -2.3084e+005 -1.7476e+001 126213 221297,221349,221323
 1.8000e+001 221478  7.5000e+001 -8.7547e+005  1.3689e+002 125766 221400,221452,221426
 1.8000e+001 221679 -9.2697e+004 -1.9003e+006  1.8234e+005 125212 221503,221555,221529
 1.8000e+001 221656 -1.3581e+005 -2.4910e+006 -6.3764e+003 125212 221503,221581,221555
 1.8000e+001 221633  2.2836e+005 -4.5593e+006  9.5927e+005 125212 221503,221607,221581
 1.8000e+001 221929 -3.0535e+005 -7.5177e+005  3.4243e+005 124872 221782,221834,221808
 1.8000e+001 221906 -5.4019e+005 -8.9526e+005  6.1983e+005 124872 221756,221834,221782
 1.8000e+001 221883 -3.2955e+005 -3.1134e+006  1.1919e+006 124872 221704,221834,221756
 1.8000e+001 221860 -7.0783e+005 -3.6580e+006  1.7259e+006 124872 221704,221756,221730
 1.8000e+001 222130 -7.5737e+005 -1.0180e+007 -1.8538e+006 124582 221980,222058,222006
 1.8000e+001 222107 -1.4510e+006 -1.0748e+007 -2.3557e+006 124582 221954,222058,221980
 1.8000e+001 222084 -1.8046e+006 -1.2129e+007 -2.7202e+006 124582 222006,222058,222032
 1.8000e+001 222282 -3.0240e+006 -1.4380e+007 -3.9156e+006 124192 222181,222233,222207
 1.8000e+001 222259 -1.2373e+006 -1.4020e+007 -3.8188e+006 124192 222155,222233,222181
 1.8000e+001 222483 -3.4473e+005 -5.1448e+006 -2.9555e+004 123702 222333,222385,222359
 1.8000e+001 222460 -3.0453e+005 -5.3031e+006 -2.9204e+005 123702 222333,222411,222385
 1.8000e+001 222437 -2.1253e+004 -2.7337e+006 -3.5227e+005 123702 222307,222411,222333
 1.8000e+001 222635 -5.1120e+005 -2.7948e+006 -3.9416e+005 123312 222508,222560,222534
 1.8000e+001 222612  4.4939e+005 -7.4849e+006 -2.7311e+005 123312 222508,222586,222560
 1.8000e+001 222787 -2.0216e+005 -5.5401e+006 -1.0819e+005 122858 222686,222738,222712
 1.8000e+001 222764 -1.9843e+005 -5.4413e+006 -1.7879e+005 122858 222660,222738,222686
 1.8000e+001 222939 -2.8405e+005 -4.7534e+006 -3.2396e+004 122568 222812,222864,222838
 1.8000e+001 222916 -7.6984e+004 -3.4939e+006  2.9096e+005 122568 222812,222890,222864
 1.8000e+001 223091 -4.0395e+005 -4.2286e+006 -7.0291e+005 122392 222964,223016,222990
 1.8000e+001 223068  4.6480e+005 -5.3516e+006  2.8386e+005 122392 222964,223042,223016
 1.8000e+001 223292 -2.5636e+005 -1.4180e+007 -2.2259e+006 121852 223142,223220,223194
 1.8000e+001 223269 -1.5985e+006 -1.2368e+007 -1.0805e+006 121852 223116,223220,223142
 1.8000e+001 223246 -4.4877e+005 -1.4092e+007 -2.5152e+006 121852 223142,223194,223168
 1.8000e+001 223493 -4.8984e+005 -1.5256e+007  1.6355e+006 121406 223343,223395,223369
 1.8000e+001 223470 -1.0813e+006 -8.9057e+006 -3.4598e+006 121406 223343,223421,223395
 1.8000e+001 223447 -2.5227e+005 -6.3525e+006  1.2661e+006 121406 223317,223421,223343
 1.8000e+001 223645  5.7218e+004 -1.1444e+007  6.5712e+005 121002 223544,223596,223570
 1.8000e+001 223622 -1.1433e+006 -6.7164e+006  1.0690e+006 121002 223518,223596,223544
 1.8000e+001 223846  2.5910e+004 -1.4281e+007  1.1226e+006 120662 223670,223748,223696
 1.8000e+001 223823  1.3132e+006 -9.8039e+006  6.8985e+004 120662 223670,223774,223748
 1.8000e+001 223800 -1.2043e+006 -6.4941e+006 -9.9257e+005 120662 223696,223748,223722
 1.8000e+001 224047 -7.2033e+005 -7.0345e+006  2.2508e+006 120222 223897,223949,223923
 1.8000e+001 224024 -3.7802e+005 -9.1511e+006 -3.9070e+005 120222 223871,223949,223897
 1.8000e+001 224001  2.8702e+005 -1.3984e+007  1.0250e+006 120222 223871,223975,223949
 1.8000e+001 224248  1.0347e+006 -8.3520e+006  4.6386e+005 119875 224124,224176,224150
 1.8000e+001 224225 -1.0572e+006 -1.7513e+007 -3.6129e+005 119875 224098,224176,224124
 1.8000e+001 224202 -9.0512e+005 -3.6082e+006  4.2295e+005 119875 224072,224176,224098
 1.8000e+001 224449 -8.9810e+004 -6.1200e+006 -3.7455e+004 119677 224325,224377,224351
 1.8000e+001 224426 -8.5669e+005 -9.2134e+006  3.5350e+005 119677 224299,224377,224325
 1.8000e+001 224403 -4.2442e+005 -1.1317e+007  7.2831e+005 119677 224273,224377,224299
 1.8000e+001 224552 -1.1820e+006 -8.8839e+006 -5.4926e+005 119273 224474,224526,224500
 1.8000e+001 224704 -2.2944e+006 -1.6598e+007 -3.9386e+006 118983 224603,224655,224629
 1.8000e+001 224681 -2.3081e+006 -1.3521e+007 -1.9203e+006 118983 224577,224655,224603
 1.8000e+001 224856 -1.4361e+005 -1.6389e+007 -1.9670e+006 118529 224755,224807,224781
 1.8000e+001 224833 -2.0798e+005 -1.4894e+007 -1.5105e+006 118529 224729,224807,224755
 1.8000e+001 225008  2.1811e+005 -7.6644e+006 -1.3856e+004 118353 224881,224933,224907
 1.8000e+001 224985 -1.8541e+004 -8.9945e+006  1.4267e+005 118353 224881,224959,224933
 1.8000e+001 225209 -1.2380e+006 -7.7334e+006 -7.0831e+005 117949 225059,225137,225111
 1.8000e+001 225186 -5.9258e+005 -7.9113e+006 -1.5851e+006 117949 225033,225137,225059
 1.8000e+001 225163  4.2053e+005 -1.1674e+007  6.4596e+005 117949 225059,225111,225085
 1.8000e+001 225410  1.6365e+005 -7.2629e+006 -8.3811e+005 117559 225260,225338,225312
 1.8000e+001 225387 -1.0714e+006 -7.1389e+006  4.7222e+005 117559 225234,225338,225260
 1.8000e+001 225364 -7.5515e+005 -6.1917e+006 -2.1629e+006 117559 225260,225312,225286
 1.8000e+001 225611 -2.0258e+006 -1.4101e+007 -7.4355e+006 117361 225461,225513,225487
 1.8000e+001 225588  3.2463e+006 -1.4233e+007  8.8741e+005 117361 225461,225539,225513
 1.8000e+001 225565 -3.5728e+006 -5.4398e+006  6.4071e+006 117361 225435,225539,225461
 1.8000e+001 225812  5.1412e+005 -8.7736e+006 -3.7604e+005 116900 225636,225714,225662
 1.8000e+001 225789  8.7504e+005 -8.3674e+006 -6.0739e+005 116900 225636,225740,225714
 1.8000e+001 225766 -8.1559e+004 -8.8037e+006 -8.4765e+005 116900 225662,225714,225688
 1.8000e+001 225964 -8.3158e+003 -7.9495e+006  4.0458e+002 116560 225837,225889,225863
 1.8000e+001 225941  1.0593e+005 -7.6748e+006 -1.0246e+005 116560 225837,225915,225889
 1.8000e+001 226165  1.8935e+005 -1.1388e+007  1.4592e+006 116106 226015,226093,226041
 1.8000e+001 226142  1.5142e+006 -1.5851e+007 -2.5016e+006 116106 225989,226093,226015
 1.8000e+001 226119 -2.6524e+006 -5.8684e+006  1.1452e+006 116106 226041,226093,226067
 1.8000e+001 226268 -1.9902e+006 -1.1498e+007  5.5236e+005 115716 226190,226242,226216
 1.8000e+001 226420 -3.0059e+005 -8.6445e+006  2.1739e+006 115376 226293,226345,226319
 1.8000e+001 226397 -4.9515e+005 -8.0846e+006  1.1373e+006 115376 226293,226371,226345
 1.8000e+001 226621  1.7024e+005 -6.3833e+006  3.0497e+005 114972 226497,226549,226523
 1.8000e+001 226598 -4.4127e+005 -1.1073e+007 -6.4866e+005 114972 226445,226549,226497
 1.8000e+001 226575  4.1923e+004 -7.5310e+006  3.3359e+005 114972 226445,226497,226471
 1.8000e+001 226773 -8.5151e+005 -6.3050e+006 -6.6091e+005 114670 226646,226698,226672
 1.8000e+001 226750  2.4729e+005 -8.8652e+006  1.9871e+005 114670 226646,226724,226698
 1.8000e+001 226974  2.3025e+005 -5.0344e+006 -2.2860e+005 114082 226798,226850,226824
 1.8000e+001 226951 -3.7939e+004 -4.1087e+006 -5.1444e+005 114082 226798,226902,226850
 1.8000e+001 226928 -1.6873e+005 -4.9903e+006 -6.2986e+005 114082 226850,226902,226876
 1.8000e+001 227175 -1.0223e+006 -8.8139e+006 -5.6584e+005 113678 226999,227051,227025
 1.8000e+001 227152 -1.9679e+006 -1.1585e+007 -1.2938e+006 113678 226999,227077,227051
 1.8000e+001 227129 -7.0667e+005 -1.2008e+007 -2.4240e+006 113678 226999,227103,227077
 1.8000e+001 227425 -6.1986e+004 -1.2878e+007 -7.9700e+004 113274 227226,227278,227252
 1.8000e+001 227402  3.4829e+005 -1.2622e+007 -2.7035e+006 113274 227226,227330,227278
 1.8000e+001 227379 -1.8656e+005 -1.0945e+007 -2.4009e+006 113274 227200,227330,227226
 1.8000e+001 227356 -4.7394e+006 -6.1353e+006 -1.7972e+005 113274 227278,227330,227304
 1.8000e+001 227626  3.1028e+005 -5.0359e+006 -4.6224e+005 112934 227502,227554,227528
 1.8000e+001 227603  5.1647e+003 -5.0934e+006 -5.3440e+005 112934 227450,227554,227502
 1.8000e+001 227580 -6.3690e+005 -8.5745e+006 -9.1071e+005 112934 227450,227502,227476
 1.8000e+001 227876 -3.8987e+004 -4.8815e+006 -5.6819e+005 112437 227677,227755,227703
 1.8000e+001 227853 -7.8235e+005 -5.2629e+006  7.8671e+005 112437 227677,227781,227755
 1.8000e+001 227830 -6.3873e+005 -2.4602e+006  8.6063e+005 112437 227703,227755,227729
 1.8000e+001 227807 -7.0743e+005 -7.4654e+006 -7.0891e+004 112437 227651,227781,227677
 1.8000e+001 228126 -9.0065e+005 -5.0022e+006  7.4694e+005 112041 227927,228005,227953
 1.8000e+001 228103 -1.8402e+005 -9.2836e+006 -1.7952e+006 112041 227927,228031,228005
 1.8000e+001 228080 -1.6011e+006 -5.9591e+006  2.3829e+005 112041 227953,228005,227979
 1.8000e+001 228057  5.2422e+005 -7.6763e+006 -1.2586e+006 112041 227901,228031,227927
 1.8000e+001 228327 -8.1018e+005 -8.4274e+006 -1.2047e+006 111693 228151,228203,228177
 1.8000e+001 228304 -7.6663e+005 -5.1911e+006 -1.4652e+006 111693 228151,228229,228203
 1.8000e+001 228281  4.8860e+005 -7.7135e+006  3.7378e+005 111693 228151,228255,228229
 1.8000e+001 228479 -2.5753e+006 -1.5587e+007 -5.0223e+006 111253 228352,228404,228378
 1.8000e+001 228456 -3.1065e+006 -1.0028e+007 -8.4038e+005 111253 228352,228430,228404
 1.8000e+001 228582  1.9802e+001 -6.0456e+004 -4.1811e+002 110906 228504,228556,228530
 1.8000e+001 228783 -7.2907e+005 -6.8235e+006  1.5880e+006 110416 228633,228711,228659
 1.8000e+001 228760 -6.0819e+005 -2.2899e+006  1.7340e+005 110416 228607,228711,228633
 1.8000e+001 228737 -9.9309e+004 -4.1613e+006  1.2214e+006 110416 228659,228711,228685
 1.8000e+001 228935 -3.7856e+005 -4.2650e+006 -1.4850e+005 110012 228808,228860,228834
 1.8000e+001 228912 -4.2004e+005 -9.9328e+006 -9.5143e+005 110012 228808,228886,228860
 1.8000e+001 229087 -1.1702e+006 -3.9295e+006 -1.5255e+006 109672 228960,229012,228986
 1.8000e+001 229064 -2.9440e+004 -8.7315e+006 -6.3330e+003 109672 228960,229038,229012
 1.8000e+001 229190  5.3791e+001  7.3097e+001 -2.5363e+001 109332 229112,229164,229138
 1.8000e+001 229391 -2.4612e+003 -8.7510e+005 -2.4105e+005 109156 229267,229319,229293
 1.8000e+001 229368 -2.8466e+005 -2.1696e+006 -3.8636e+005 109156 229215,229319,229267
 1.8000e+001 229345  4.2604e+004 -5.8817e+005 -1.2239e+005 109156 229215,229267,229241
 1.8000e+001 229543  2.5842e+005 -1.0704e+007  5.2693e+005 108752 229416,229468,229442
 1.8000e+001 229520 -4.0496e+005 -1.1107e+007  8.2936e+005 108752 229416,229494,229468
 1.8000e+001 229744 -1.5541e+005 -8.2883e+006 -3.6123e+004 108198 229594,229646,229620
 1.8000e+001 229721 -1.2195e+006 -8.6470e+006  1.0203e+006 108198 229594,229672,229646
 1.8000e+001 229698  5.8388e+005 -1.2556e+007 -1.1179e+006 108198 229568,229672,229594
 1.8000e+001 229847 -1.0929e+005 -1.8925e+006 -2.9310e+005 107758 229769,229821,229795
 1.8000e+001 230048 -1.1254e+006 -4.9169e+006 -1.4093e+006 107468 229898,229950,229924
 1.8000e+001 230025 -5.7738e+005 -4.1816e+006 -1.3807e+005 107468 229872,229950,229898
 1.8000e+001 230002 -7.6880e+005 -4.8043e+006  4.0235e+005 107468 229872,229976,229950
 1.8000e+001 230298  2.2189e+005 -5.0061e+006  7.3080e+005 107121 230099,230203,230177
 1.8000e+001 230275 -8.0849e+005 -2.6144e+006  3.0941e+005 107121 230073,230203,230099
 1.8000e+001 230252 -1.1257e+006 -5.6130e+006 -2.0391e+005 107121 230099,230177,230151
 1.8000e+001 230229 -3.3076e+005 -6.7643e+006  7.7777e+005 107121 230099,230151,230125
 1.8000e+001 230450  5.6796e+005 -6.4203e+006 -6.9002e+005 106823 230349,230401,230375
 1.8000e+001 230427 -4.1123e+005 -1.4300e+006  3.9495e+005 106823 230323,230401,230349
 1.8000e+001 230602 -7.3468e+005 -1.0178e+007 -2.2899e+006 106533 230501,230553,230527
 1.8000e+001 230579 -1.1559e+006 -1.0292e+007 -2.3476e+006 106533 230475,230553,230501
 1.8000e+001 230803 -4.7736e+005 -2.7182e+006  6.6808e+005 106029 230679,230731,230705
 1.8000e+001 230780 -1.0341e+006 -5.3484e+006  1.3274e+006 106029 230653,230731,230679
 1.8000e+001 230757 -9.8155e+003 -6.6589e+006  1.4794e+006 106029 230627,230731,230653
 1.8000e+001 231004 -4.0979e+004 -5.2877e+006  9.6551e+003 105689 230854,230906,230880
 1.8000e+001 230981  3.7250e+005 -5.6581e+006 -4.3921e+005 105689 230828,230906,230854
 1.8000e+001 230958 -8.5719e+005 -3.9095e+006 -1.8228e+006 105689 230828,230932,230906
 1.8000e+001 231156 -1.0005e+006 -5.1389e+006  1.0795e+006 105377 231055,231107,231081
 1.8000e+001 231133  1.3535e+006 -1.4666e+007 -1.5330e+006 105377 231029,231107,231055
 1.8000e+001 231406 -1.9803e+004 -8.9528e+006 -6.4837e+005 104858 231207,231259,231233
 1.8000e+001 231383 -9.6969e+005 -8.8690e+006 -1.0133e+006 104858 231207,231311,231259
 1.8000e+001 231360 -6.0697e+005 -1.3894e+007 -1.5389e+006 104858 231259,231311,231285
 1.8000e+001 231337 -4.7533e+005 -1.1594e+007 -1.7779e+006 104858 231181,231311,231207
 1.8000e+001 231558 -1.1628e+006 -5.8456e+006  3.5487e+006 104418 231457,231509,231483
 1.8000e+001 231535 -3.2048e+005 -5.7259e+006 -9.0175e+004 104418 231431,231509,231457
 1.8000e+001 231710 -4.9003e+005 -4.5741e+006 -3.8500e+005 103978 231583,231635,231609
 1.8000e+001 231687 -5.5033e+005 -3.1504e+006 -4.8207e+005 103978 231583,231661,231635
 1.8000e+001 231862 -2.2066e+004 -7.9324e+005 -9.2635e+004 103588 231761,231813,231787
 1.8000e+001 231839 -2.7131e+004 -8.1214e+005 -9.4707e+004 103588 231735,231813,231761
 1.8000e+001 232014 -1.9663e+006 -9.7261e+006 -2.6224e+006 103248 231887,231939,231913
 1.8000e+001 231991  1.0399e+006 -1.9516e+007 -4.0223e+006 103248 231887,231965,231939
 1.8000e+001 232215 -2.0592e+005 -3.4166e+006  6.0639e+005 102844 232039,232117,232065
 1.8000e+001 232192  6.7094e+004 -4.1286e+006 -2.0940e+005 102844 232039,232143,232117
 1.8000e+001 232169 -2.6562e+005 -2.1506e+006 -2.6950e+005 102844 232065,232117,232091
 1.8000e+001 232416 -2.8046e+006 -1.1270e+007 -3.2479e+006 102554 232240,232318,232292
 1.8000e+001 232393  1.2626e+006 -1.6047e+007 -3.3295e+005 102554 232240,232344,232318
 1.8000e+001 232370 -3.0161e+006 -7.6950e+006 -2.1029e+006 102554 232240,232292,232266
 1.8000e+001 232568  3.6185e+004 -6.3282e+006  1.3642e+006 102100 232441,232493,232467
 1.8000e+001 232545 -1.5045e+005 -5.8341e+006  2.7829e+005 102100 232441,232519,232493
 1.8000e+001 232769 -2.7223e+005 -2.0977e+006 -2.7175e+005 101596 232645,232697,232671
 1.8000e+001 232746 -4.7131e+005 -2.8701e+006 -3.5889e+005 101596 232593,232697,232645
 1.8000e+001 232723  1.3784e+005 -6.8408e+006 -5.5506e+005 101596 232593,232645,232619
 1.8000e+001 232921 -2.7307e+003 -3.9179e+005 -9.0423e+002 101420 232794,232846,232820
 1.8000e+001 232898  3.6660e+002 -3.6044e+005  9.6389e+002 101420 232794,232872,232846
 1.8000e+001 233073 -1.4337e+006 -5.4419e+006 -7.4333e+005 101023 232946,232998,232972
 1.8000e+001 233050 -4.2447e+005 -8.3853e+006  1.4552e+006 101023 232946,233024,232998
 1.8000e+001 233225 -3.9107e+005 -3.3858e+006  3.7479e+003 100661 233098,233150,233124
 1.8000e+001 233202  3.4119e+005 -7.1177e+006  2.5068e+005 100661 233098,233176,233150
 1.8000e+001 233426 -1.2169e+006 -7.4854e+006 -2.1631e+006 100265 233276,233328,233302
 1.8000e+001 233403 -1.2159e+006 -6.7960e+006 -3.6625e+005 100265 233276,233354,233328
 1.8000e+001 233380 -1.1484e+006 -1.1048e+007 -1.1976e+006 100265 233250,233354,233276
 1.8000e+001 233578 -3.1581e+005 -5.9435e+005 -6.6404e+005 100032 233451,233503,233477
 1.8000e+001 233555 -3.0949e+004 -6.0334e+005  1.9965e+005 100032 233451,233529,233503
 1.8000e+001 233681 -3.5508e+004 -5.6831e+005  2.9174e+004 99742 233603,233655,233629
 1.8000e+001 233784 -3.9192e+005 -5.5279e+006  1.2209e+005 99402 233706,233758,233732
 1.8000e+001 233936 -8.4416e+005 -4.1314e+006  2.1053e+005 99062 233835,233887,233861
 1.8000e+001 233913 -4.6924e+005 -2.4728e+006 -3.8504e+005 99062 233809,233887,233835
 1.8000e+001 234088 -3.5307e+005 -4.7328e+006  6.1586e+005 98772 233987,234039,234013
 1.8000e+001 234065 -1.1952e+006 -4.9254e+006  2.8113e+006 98772 233961,234039,233987
 1.8000e+001 234240 -7.5542e+004 -1.1138e+006  2.1013e+005 98160 234139,234191,234165
 1.8000e+001 234217 -1.0625e+004 -6.9870e+005  9.1682e+004 98160 234113,234191,234139
 1.8000e+001 234441 -6.3015e+004 -3.6691e+006  4.2497e+005 97820 234317,234369,234343
 1.8000e+001 234418 -1.0377e+005 -3.8199e+006  3.5594e+005 97820 234291,234369,234317
 1.8000e+001 234395  1.2157e+005 -4.7888e+006  2.6832e+005 97820 234265,234369,234291
 1.8000e+001 234593 -8.5575e+005 -3.4602e+006  1.9487e+005 97366 234466,234518,234492
 1.8000e+001 234570 -3.0464e+005 -7.4179e+006  2.6188e+005 97366 234466,234544,234518
 1.8000e+001 234794 -9.5716e+005 -1.9176e+006 -7.9319e+005 96976 234618,234670,234644
 1.8000e+001 234771 -1.3716e+005 -6.7087e+006  2.3920e+005 96976 234618,234722,234670
 1.8000e+001 234748 -6.2285e+005 -3.9398e+006 -1.3765e+006 96976 234670,234722,234696
 1.8000e+001 234946 -5.1879e+005 -2.2067e+006  9.5113e+005 96568 234845,234897,234871
 1.8000e+001 234923 -4.6952e+005 -1.0923e+006  1.7844e+005 96568 234819,234897,234845
 1.8000e+001 235196 -1.0483e+005 -2.5056e+006  7.1980e+004 96216 234997,235075,235049
 1.8000e+001 235173 -2.6005e+005 -6.0611e+006  1.4828e+006 96216 234997,235101,235075
 1.8000e+001 235150 -9.3699e+005 -4.8035e+006  7.9382e+005 96216 234997,235049,235023
 1.8000e+001 235127 -1.7258e+005 -7.1491e+006 -1.3339e+006 96216 234971,235101,234997
 1.8000e+001 235348 -1.2540e+006 -2.5312e+006 -1.6041e+006 95863 235247,235299,235273
 1.8000e+001 235325 -7.6752e+005 -1.7157e+006 -1.0808e+006 95863 235221,235299,235247
 1.8000e+001 235500 -1.8330e+006 -5.2164e+006 -2.4335e+006 95339 235373,235425,235399
 1.8000e+001 235477 -9.7438e+005 -8.9069e+006  2.9401e+006 95339 235373,235451,235425
 1.8000e+001 235701 -2.3978e+005 -5.1754e+006  1.6911e+006 95023 235525,235577,235551
 1.8000e+001 235678 -6.5741e+004 -2.7822e+006 -1.7539e+005 95023 235525,235629,235577
 1.8000e+001 235655 -8.0829e+005 -2.8786e+006  1.5001e+005 95023 235577,235629,235603
 1.8000e+001 235853  9.7591e+005 -9.9171e+006  1.1948e+006 94671 235726,235778,235752
 1.8000e+001 235830 -3.2766e+005 -7.4519e+006 -6.5573e+005 94671 235726,235804,235778
 1.8000e+001 236005 -1.0442e+006 -7.0983e+006 -7.8950e+005 94261 235904,235956,235930
 1.8000e+001 235982 -1.6966e+006 -8.4688e+006 -2.0296e+006 94261 235878,235956,235904
 1.8000e+001 236206 -9.8909e+005 -2.1810e+006  1.4895e+006 93853 236056,236134,236082
 1.8000e+001 236183 -1.5740e+005 -2.0420e+006  2.9404e+004 93853 236030,236134,236056
 1.8000e+001 236160 -3.9716e+005 -4.5000e+006  1.1214e+006 93853 236082,236134,236108
 1.8000e+001 236407 -7.6502e+005 -6.3458e+006  8.5276e+004 93557 236257,236309,236283
 1.8000e+001 236384 -2.0879e+006 -7.0636e+006 -1.7233e+006 93557 236231,236309,236257
 1.8000e+001 236361 -7.2087e+005 -1.1387e+007 -3.3541e+005 93557 236231,236335,236309
 1.8000e+001 236559 -3.1650e+005 -1.5869e+006 -7.1812e+004 93149 236432,236484,236458
 1.8000e+001 236536 -9.2373e+004 -9.3712e+005  8.1415e+004 93149 236432,236510,236484
 1.8000e+001 236711 -1.6728e+004 -2.6688e+006  7.4274e+005 92853 236584,236636,236610
 1.8000e+001 236688 -8.1776e+003 -2.6467e+006  7.3459e+005 92853 236584,236662,236636
 1.8000e+001 236912 -1.6793e+004 -4.2609e+006  9.2886e+005 92501 236736,236788,236762
 1.8000e+001 236889 -2.2374e+004 -2.7265e+006  4.1719e+004 92501 236736,236840,236788
 1.8000e+001 236866 -3.9205e+005 -3.5541e+006  5.1942e+005 92501 236788,236840,236814
 1.8000e+001 237113 -7.0416e+004 -4.2908e+006  2.2516e+005 92291 236963,237041,237015
 1.8000e+001 237090  6.5566e+004 -2.4918e+006 -5.9594e+003 92291 236937,237041,236963
 1.8000e+001 237067 -2.0702e+005 -3.9252e+006  9.0081e+005 92291 236963,237015,236989
 1.8000e+001 237265 -5.4624e+005 -2.4898e+006  7.4307e+004 91871 237138,237190,237164
 1.8000e+001 237242 -1.2314e+006 -2.8971e+006 -6.1863e+005 91871 237138,237216,237190
 1.8000e+001 237368  2.3506e+001 -3.8577e+006  1.0091e+000 91581 237290,237342,237316
 1.8000e+001 237520 -3.0564e+005 -1.6923e+006  6.1366e+005 91184 237419,237471,237445
 1.8000e+001 237497 -4.2338e+005 -2.2755e+006  1.0343e+005 91184 237393,237471,237419
 1.8000e+001 237672 -5.4753e+005 -3.4156e+006  6.0485e+005 90894 237545,237597,237571
 1.8000e+001 237649 -3.5199e+005 -3.8619e+006  7.7596e+005 90894 237545,237623,237597
 1.8000e+001 237873 -6.4496e+005 -5.1889e+006  3.5275e+005 90490 237749,237801,237775
 1.8000e+001 237850 -2.9929e+005 -4.2017e+006  5.9835e+005 90490 237723,237801,237749
 1.8000e+001 237827 -1.2105e+005 -4.1647e+006 -1.3671e+006 90490 237697,237801,237723
 1.8000e+001 238074 -8.4695e+005 -6.4832e+006  1.4096e+005 90100 237898,237976,237950
 1.8000e+001 238051 -1.9232e+006 -6.4198e+006 -2.7129e+005 90100 237898,238002,237976
 1.8000e+001 238028 -4.9804e+005 -6.7534e+006 -1.3313e+005 90100 237898,237950,237924
 1.8000e+001 238275 -8.8903e+005 -4.3013e+006 -1.0430e+005 89696 238125,238177,238151
 1.8000e+001 238252 -7.8099e+005 -3.7841e+006 -1.0455e+006 89696 238099,238177,238125
 1.8000e+001 238229 -1.2221e+006 -5.2106e+006 -6.7162e+005 89696 238099,238203,238177
 1.8000e+001 238427 -1.5038e+005 -1.6818e+006  2.5326e+004 89206 238326,238378,238352
 1.8000e+001 238404  1.8463e+005 -2.7926e+006  1.9093e+005 89206 238300,238378,238326
 1.8000e+001 238579 -8.1400e+005 -4.9105e+006  2.4513e+005 88908 238452,238504,238478
 1.8000e+001 238556  4.6253e+004 -4.9065e+006  6.5526e+005 88908 238452,238530,238504
 1.8000e+001 238682 -6.5442e+001 -4.7909e+005 -1.6680e+002 88568 238604,238656,238630
 1.8000e+001 238883  1.9221e+005 -4.3559e+006  4.7373e+005 88278 238733,238811,238785
 1.8000e+001 238860 -1.6216e+005 -3.6478e+006  3.6122e+005 88278 238707,238811,238733
 1.8000e+001 238837 -1.4997e+005 -4.2759e+006  8.0020e+005 88278 238733,238785,238759
 1.8000e+001 239035 -6.3614e+005 -6.8946e+006 -1.8678e+005 87988 238908,238960,238934
 1.8000e+001 239012 -1.2852e+006 -5.6738e+006  9.5072e+005 87988 238908,238986,238960
 1.8000e+001 239138  2.1176e+004 -2.6997e+006  1.0520e+005 87648 239060,239112,239086
 1.8000e+001 239339 -8.6943e+005 -3.9697e+006 -1.7758e+006 87358 239163,239215,239189
 1.8000e+001 239316 -1.3084e+006 -4.5178e+006 -2.1905e+005 87358 239163,239241,239215
 1.8000e+001 239293 -1.1149e+006 -2.0880e+006 -1.2021e+006 87358 239163,239267,239241
 1.8000e+001 239589  5.4198e+003 -2.0332e+006  1.7322e+005 86961 239390,239468,239416
 1.8000e+001 239566  1.0449e+005 -2.0016e+006  1.9349e+005 86961 239390,239494,239468
 1.8000e+001 239543 -5.4212e+004 -6.0952e+005  8.9291e+004 86961 239416,239468,239442
 1.8000e+001 239520 -3.3754e+005 -9.5015e+005  3.7380e+005 86961 239364,239494,239390
 1.8000e+001 239741 -1.1978e+006 -4.9052e+006 -7.5181e+005 86621 239640,239692,239666
 1.8000e+001 239718 -4.4090e+005 -5.9736e+006 -1.4825e+006 86621 239614,239692,239640
 1.8000e+001 239893 -2.0762e+004 -5.0565e+006  5.8946e+005 86217 239792,239844,239818
 1.8000e+001 239870 -1.4781e+005 -3.7058e+006 -4.0648e+004 86217 239766,239844,239792
 1.8000e+001 240045 -7.7402e+005 -4.8767e+006  3.3935e+005 85827 239918,239970,239944
 1.8000e+001 240022 -1.8085e+005 -4.7240e+006  2.1027e+005 85827 239918,239996,239970
 1.8000e+001 240197 -2.4730e+004 -5.7765e+006  6.9406e+005 85437 240096,240148,240122
 1.8000e+001 240174 -8.6343e+005 -3.7297e+006 -3.3025e+005 85437 240070,240148,240096
 1.8000e+001 240349 -1.8429e+005 -1.8918e+006  7.0593e+005 85147 240222,240274,240248
 1.8000e+001 240326 -1.2868e+005 -9.7603e+005 -1.4116e+005 85147 240222,240300,240274
 1.8000e+001 240501 -9.1199e+005 -2.9331e+006  6.3075e+005 84807 240374,240426,240400
 1.8000e+001 240478 -1.3802e+006 -3.1580e+006  8.0709e+005 84807 240374,240452,240426
 1.8000e+001 240653 -1.1681e+004 -3.7512e+005 -6.4628e+004 84303 240552,240604,240578
 1.8000e+001 240630 -1.0610e+004 -3.7090e+005 -6.4255e+004 84303 240526,240604,240552
 1.8000e+001 240854 -8.2770e+004 -8.9433e+006 -2.4464e+006 83929 240704,240756,240730
 1.8000e+001 240831  8.3681e+005 -7.9428e+006  9.8829e+005 83929 240704,240782,240756
 1.8000e+001 240808 -1.6873e+006 -1.2257e+006  1.3996e+006 83929 240678,240782,240704
 1.8000e+001 241055 -5.4085e+003 -1.2446e+006 -9.4733e+004 83539 240879,240957,240931
 1.8000e+001 241032 -4.0287e+005 -1.4670e+006  1.3884e+005 83539 240879,240983,240957
 1.8000e+001 241009 -2.2171e+005 -6.6449e+005 -1.0713e+005 83539 240879,240931,240905
 1.8000e+001 241207  1.5263e+005 -2.5063e+006  1.3877e+005 83079 241106,241158,241132
 1.8000e+001 241184 -1.7363e+005 -9.8924e+005  2.3270e+005 83079 241080,241158,241106
 1.8000e+001 241408  1.1355e+006 -4.8473e+006  4.4146e+005 82665 241232,241284,241258
 1.8000e+001 241385 -1.6568e+006 -1.3675e+007 -3.9615e+006 82665 241232,241336,241284
 1.8000e+001 241362 -4.1928e+006  4.6543e+006  7.0024e+006 82665 241284,241336,241310
 1.8000e+001 241658 -1.4613e+005 -4.2037e+006  3.3632e+005 82375 241485,241563,241511
 1.8000e+001 241635  1.2188e+005 -2.9188e+006  3.0790e+005 82375 241433,241563,241485
 1.8000e+001 241612 -1.6472e+004 -3.3810e+006  4.0886e+005 82375 241433,241485,241459
 1.8000e+001 241589 -5.0171e+005 -4.8221e+006  6.1760e+005 82375 241511,241563,241537
 1.8000e+001 241810 -1.0018e+006 -4.1350e+006  1.5171e+005 82035 241683,241735,241709
 1.8000e+001 241787 -1.1760e+006 -4.4527e+006  5.4228e+005 82035 241683,241761,241735
 1.8000e+001 241962 -7.8680e+005 -4.3370e+006  1.7673e+005 81695 241861,241913,241887
 1.8000e+001 241939 -6.4336e+005 -4.6793e+006 -4.4172e+005 81695 241835,241913,241861
 1.8000e+001 242114 -1.2198e+006 -5.0088e+006  3.3382e+005 81355 242013,242065,242039
 1.8000e+001 242091 -8.7850e+005 -3.6498e+006  2.9207e+005 81355 241987,242065,242013
 1.8000e+001 242266 -1.7185e+005 -1.2637e+006 -2.4083e+005 80951 242139,242191,242165
 1.8000e+001 242243 -2.4745e+005 -1.6213e+006 -9.4100e+004 80951 242139,242217,242191
 1.8000e+001 242467 -1.6511e+005 -4.6016e+006  4.6110e+005 80311 242291,242369,242343
 1.8000e+001 242444  1.2423e+005 -3.5512e+006  3.2743e+005 80311 242291,242395,242369
 1.8000e+001 242421 -1.9178e+005 -3.8062e+006  2.8750e+005 80311 242291,242343,242317
 1.8000e+001 242619 -1.3557e+006 -3.4540e+006 -2.4779e+005 80021 242492,242544,242518
 1.8000e+001 242596 -1.2042e+006 -2.8934e+006  6.0062e+004 80021 242492,242570,242544
 1.8000e+001 242869 -1.8461e+005 -1.9735e+006  1.7059e+005 79631 242644,242722,242696
 1.8000e+001 242846 -5.8540e+004 -2.0320e+006  1.4476e+005 79631 242644,242774,242722
 1.8000e+001 242823 -1.1308e+005 -2.2014e+006  2.0499e+005 79631 242722,242774,242748
 1.8000e+001 242800 -2.7500e+005 -2.1032e+006 -5.0637e+004 79631 242644,242696,242670
 1.8000e+001 243070  1.6090e+005 -1.1944e+007  1.9714e+006 79341 242920,242972,242946
 1.8000e+001 243047 -6.9003e+005 -6.6577e+006 -6.0540e+005 79341 242920,242998,242972
 1.8000e+001 243024 -6.8704e+005 -4.1807e+006  1.6372e+006 79341 242894,242998,242920
 1.8000e+001 243222  1.6910e+004 -2.0763e+006  5.7429e+005 78801 243121,243173,243147
 1.8000e+001 243199 -4.4148e+005 -3.6806e+006  9.5106e+005 78801 243095,243173,243121
 1.8000e+001 243423 -3.5660e+005 -7.6896e+006 -2.8320e+005 78511 243273,243325,243299
 1.8000e+001 243400 -3.6090e+005 -9.7168e+006  8.4221e+005 78511 243273,243351,243325
 1.8000e+001 243377 -5.4713e+003 -9.6651e+006  2.3722e+005 78511 243247,243351,243273
 1.8000e+001 243624 -3.7988e+005 -3.5994e+006 -5.0392e+005 78107 243474,243552,243526
 1.8000e+001 243601 -4.2276e+005 -3.1147e+006 -6.7748e+005 78107 243448,243552,243474
 1.8000e+001 243578 -8.5104e+005 -4.6227e+006 -1.4578e+006 78107 243474,243526,243500
 1.8000e+001 243776 -9.4081e+005 -4.7444e+006 -1.3817e+006 77653 243649,243701,243675
 1.8000e+001 243753 -2.0949e+006 -7.5046e+006 -4.1929e+005 77653 243649,243727,243701
 1.8000e+001 243977 -5.2861e+005 -5.6473e+006 -1.1109e+005 77093 243801,243853,243827
 1.8000e+001 243954 -1.6644e+005 -4.4999e+006  4.3382e+005 77093 243801,243879,243853
 1.8000e+001 243931  5.6387e+004 -4.4443e+006  3.5373e+005 77093 243801,243905,243879
 1.8000e+001 244080 -1.6095e+006 -5.2936e+006  1.7770e+005 76791 244002,244054,244028
 1.8000e+001 244232 -2.2373e+005 -5.8063e+006  3.2612e+005 76311 244131,244183,244157
 1.8000e+001 244209  2.9012e+004 -8.7576e+006  8.3209e+005 76311 244105,244183,244131
 1.8000e+001 244433 -8.9539e+005 -1.1604e+007  1.2279e+006 75903 244283,244335,244309
 1.8000e+001 244410 -2.8265e+005 -1.0064e+007  1.0885e+005 75903 244283,244361,244335
 1.8000e+001 244387 -1.5178e+006 -8.1254e+006  1.5603e+006 75903 244257,244361,244283
 1.8000e+001 244585 -5.1394e+004 -1.2242e+007  6.7426e+005 75419 244458,244510,244484
 1.8000e+001 244562 -4.5221e+005 -8.6075e+006 -1.4087e+005 75419 244458,244536,244510
 1.8000e+001 244737 -3.6592e+005 -2.0139e+006 -1.4602e+005 75215 244636,244688,244662
 1.8000e+001 244714 -2.2942e+005 -5.4739e+006 -1.5584e+005 75215 244610,244688,244636
 1.8000e+001 244889 -1.1040e+006 -4.9507e+006 -4.4968e+005 74857 244788,244840,244814
 1.8000e+001 244866 -6.1034e+005 -3.1646e+006 -1.2901e+005 74857 244762,244840,244788
 1.8000e+001 245041  3.4003e+004 -3.4462e+005 -6.4153e+004 74653 244940,244992,244966
 1.8000e+001 245018 -6.8788e+003 -2.8336e+005  2.3051e+004 74653 244914,244992,244940
 1.8000e+001 245144  1.6987e+004 -6.2822e+006 -4.5008e+005 74359 245066,245118,245092
 1.8000e+001 245296 -5.5039e+005 -3.2366e+006 -9.0039e+005 74007 245169,245221,245195
 1.8000e+001 245273 -5.6637e+005 -3.7323e+006 -8.4582e+005 74007 245169,245247,245221
 1.8000e+001 245448 -1.3650e+006 -7.0329e+006  2.7258e+006 73711 245321,245373,245347
 1.8000e+001 245425 -3.1421e+005 -6.7630e+006 -2.3102e+006 73711 245321,245399,245373
 1.8000e+001 245600  7.9967e+005 -1.0510e+007 -1.3863e+006 73301 245499,245551,245525
 1.8000e+001 245577 -1.3732e+006 -7.1067e+006  1.3592e+006 73301 245473,245551,245499
 1.8000e+001 245752 -7.4464e+005 -2.9595e+006 -1.1712e+006 72995 245625,245677,245651
 1.8000e+001 245729  7.8623e+005 -8.1395e+006 -1.1478e+006 72995 245625,245703,245677
 1.8000e+001 245953 -2.2287e+006 -1.0044e+007  5.2719e+005 72585 245777,245829,245803
 1.8000e+001 245930 -1.1935e+006 -1.0199e+007  1.7716e+006 72585 245777,245855,245829
 1.8000e+001 245907 -7.9137e+005 -9.4294e+006  1.4220e+006 72585 245777,245881,245855
 1.8000e+001 246154 -2.9032e+005 -5.3450e+006  1.1113e+006 72127 246030,246082,246056
 1.8000e+001 246131 -1.0130e+006 -7.4842e+006  5.7557e+005 72127 245978,246082,246030
 1.8000e+001 246108 -1.1530e+005 -7.6204e+006  9.6082e+004 72127 245978,246030,246004
 1.8000e+001 246257 -1.1885e+006 -3.0394e+006 -7.8335e+004 71737 246179,246231,246205
 1.8000e+001 246360 -1.6861e+005 -2.9630e+006  2.8800e+005 71447 246282,246334,246308
 1.8000e+001 246512 -3.0911e+005 -2.9130e+006  8.2811e+005 71157 246385,246437,246411
 1.8000e+001 246489 -8.9276e+004 -2.6240e+006  3.6803e+005 71157 246385,246463,246437
 1.8000e+001 246664 -1.4999e+005 -3.0738e+006 -2.8647e+005 70753 246537,246589,246563
 1.8000e+001 246641 -5.7270e+005 -2.0422e+006 -9.7317e+004 70753 246537,246615,246589
 1.8000e+001 246865 -1.2113e+006 -7.5554e+006  3.6462e+006 70249 246715,246767,246741
 1.8000e+001 246842 -1.7783e+006 -6.9291e+006  1.4929e+005 70249 246715,246793,246767
 1.8000e+001 246819 -7.2682e+005 -9.5764e+006 -1.5907e+006 70249 246689,246793,246715
 1.8000e+001 247066 -1.3190e+005 -2.3355e+006  4.2114e+005 70023 246916,246994,246942
 1.8000e+001 247043  1.0530e+005 -2.9158e+006  1.8172e+005 70023 246890,246994,246916
 1.8000e+001 247020 -1.2583e+005 -2.1146e+006  2.4338e+005 70023 246942,246994,246968
 1.8000e+001 247267 -3.2765e+005 -4.5383e+006 -4.2572e+005 69633 247091,247143,247117
 1.8000e+001 247244 -1.0373e+005 -3.6079e+006 -2.8586e+005 69633 247091,247169,247143
 1.8000e+001 247221 -3.5889e+004 -2.9113e+006 -2.3836e+005 69633 247091,247195,247169
 1.8000e+001 247419 -8.2480e+005 -5.7038e+006  7.1896e+005 69457 247318,247370,247344
 1.8000e+001 247396 -1.0252e+006 -4.1382e+006  8.1710e+005 69457 247292,247370,247318
 1.8000e+001 247522 -2.4679e+001 -3.2084e+004  3.3568e+002 69209 247444,247496,247470
 1.8000e+001 247625 -1.7053e+006 -1.8448e+006 -3.9502e+005 68919 247547,247599,247573
 1.8000e+001 247777  4.2068e+005 -5.8031e+006 -5.4552e+005 68579 247650,247702,247676
 1.8000e+001 247754 -2.9199e+005 -2.6248e+006 -1.1786e+005 68579 247650,247728,247702
 1.8000e+001 247929 -5.3390e+005 -3.7732e+006  1.6779e+006 68289 247802,247854,247828
 1.8000e+001 247906 -4.2807e+005 -2.9417e+006  9.4418e+005 68289 247802,247880,247854
 1.8000e+001 248081 -3.2172e+005 -4.5786e+006  1.0643e+006 67949 247980,248032,248006
 1.8000e+001 248058 -5.4853e+005 -1.4375e+006 -2.2584e+004 67949 247954,248032,247980
 1.8000e+001 248233 -1.6955e+006 -5.8862e+006 -7.1621e+005 67616 248132,248184,248158
 1.8000e+001 248210 -6.4126e+005 -6.3742e+006 -4.5953e+005 67616 248106,248184,248132
 1.8000e+001 248434 -1.2466e+005 -3.7826e+006 -2.4215e+005 67212 248284,248336,248310
 1.8000e+001 248411 -3.1962e+004 -3.8563e+006 -5.7490e+005 67212 248258,248336,248284
 1.8000e+001 248388 -1.3683e+006 -2.9477e+006 -5.2413e+005 67212 248258,248362,248336
 1.8000e+001 248586 -1.5113e+004 -4.6665e+006  3.9880e+005 66872 248485,248537,248511
 1.8000e+001 248563 -7.9312e+005 -1.9271e+006 -3.0035e+005 66872 248459,248537,248485
 1.8000e+001 248738 -2.3023e+005 -5.2838e+006  9.9973e+004 66510 248637,248689,248663
 1.8000e+001 248715 -3.3969e+005 -8.5762e+006  1.8788e+005 66510 248611,248689,248637
 1.8000e+001 248890 -3.3274e+004 -7.9103e+005  1.6234e+005 66220 248789,248841,248815
 1.8000e+001 248867 -3.0366e+005 -1.0852e+006 -2.9557e+005 66220 248763,248841,248789
 1.8000e+001 249091 -5.9174e+005 -6.1431e+006  1.8171e+006 65759 248915,248967,248941
 1.8000e+001 249068 -3.9831e+005 -5.3814e+006  1.7727e+006 65759 248915,248993,248967
 1.8000e+001 249045 -5.8136e+004 -4.1185e+006  9.3941e+005 65759 248915,249019,248993
 1.8000e+001 249243 -2.0181e+005 -8.2358e+006  1.7795e+006 65419 249142,249194,249168
 1.8000e+001 249220 -3.9574e+005 -4.5807e+006  4.1823e+005 65419 249116,249194,249142
 1.8000e+001 249395 -4.0936e+005 -2.9062e+006 -3.6226e+005 65079 249268,249320,249294
 1.8000e+001 249372 -4.0855e+005 -3.5330e+006 -5.5453e+005 65079 249268,249346,249320
 1.8000e+001 249547 -5.7785e+004 -9.0621e+005 -1.4737e+004 64739 249420,249472,249446
 1.8000e+001 249524 -4.9281e+005 -1.0646e+006  1.3434e+005 64739 249420,249498,249472
 1.8000e+001 249650 -1.1636e+006 -5.0277e+006 -2.0048e+006 64342 249572,249624,249598
 1.8000e+001 249851 -1.5294e+006 -7.1650e+006 -1.4028e+006 63938 249701,249779,249753
 1.8000e+001 249828 -1.0302e+006 -7.7251e+006  2.6657e+006 63938 249675,249779,249701
 1.8000e+001 249805 -1.1921e+006 -2.1142e+007 -7.0064e+005 63938 249701,249753,249727
 1.8000e+001 250052 -8.0245e+005 -5.6172e+006 -3.8830e+005 63341 249876,249954,249902
 1.8000e+001 250029 -1.0260e+006 -5.7271e+006 -1.5518e+005 63341 249876,249980,249954
 1.8000e+001 250006  7.3058e+005 -6.7735e+006  5.7237e+005 63341 249902,249954,249928
 1.8000e+001 250253 -3.5602e+005 -1.2387e+007 -1.6198e+006 63058 250077,250129,250103
 1.8000e+001 250230 -1.2174e+006 -6.9555e+006 -4.3491e+005 63058 250077,250155,250129
 1.8000e+001 250207 -5.5896e+005 -6.7194e+006 -6.1236e+005 63058 250077,250181,250155
 1.8000e+001 250454 -1.0629e+006 -7.5970e+006  1.4983e+006 62832 250304,250382,250330
 1.8000e+001 250431  2.4990e+005 -9.5020e+006 -2.4190e+006 62832 250278,250382,250304
 1.8000e+001 250408 -2.4699e+006 -4.7895e+006  4.4927e+005 62832 250330,250382,250356
 1.8000e+001 250606  1.3000e+005 -1.0612e+007 -3.1521e+005 62428 250479,250531,250505
 1.8000e+001 250583  3.2294e+004 -9.5358e+006 -5.4956e+005 62428 250479,250557,250531
 1.8000e+001 250758 -2.1096e+005 -7.4209e+006  8.0467e+005 62202 250631,250683,250657
 1.8000e+001 250735 -1.1003e+005 -8.2874e+006  2.1043e+006 62202 250631,250709,250683
 1.8000e+001 250861 -1.6167e+006 -2.9448e+006  4.5095e+004 61954 250783,250835,250809
 1.8000e+001 251062 -1.7108e+006 -8.2930e+006 -5.8049e+005 61557 250912,250990,250938
 1.8000e+001 251039 -1.4820e+005 -9.6008e+006 -4.9932e+005 61557 250886,250990,250912
 1.8000e+001 251016 -1.3542e+006 -9.5541e+006 -1.4083e+006 61557 250938,250990,250964
 1.8000e+001 251263 -1.1264e+006 -7.9120e+006 -2.4501e+004 61167 251113,251165,251139
 1.8000e+001 251240 -4.5447e+005 -7.6131e+006 -3.9161e+005 61167 251113,251191,251165
 1.8000e+001 251217 -1.1380e+006 -7.3316e+006  2.2162e+006 61167 251087,251191,251113
 1.8000e+001 251415 -8.9546e+005 -3.3908e+006  7.8363e+005 60827 251288,251340,251314
 1.8000e+001 251392 -5.4674e+005 -1.6131e+006 -1.5771e+005 60827 251288,251366,251340
 1.8000e+001 251567  1.1420e+005 -5.5305e+006  6.0478e+005 60487 251466,251518,251492
 1.8000e+001 251544 -6.9082e+004 -3.7519e+006 -3.2707e+005 60487 251440,251518,251466
 1.8000e+001 251719  1.1932e+005 -1.0199e+007 -1.0430e+005 59983 251592,251644,251618
 1.8000e+001 251696 -7.6240e+005 -8.3009e+006  1.0976e+005 59983 251592,251670,251644
 1.8000e+001 251920  4.4838e+004 -2.1193e+006  3.8179e+004 59807 251770,251848,251796
 1.8000e+001 251897  3.6672e+004 -1.9530e+006 -1.6978e+004 59807 251744,251848,251770
 1.8000e+001 251874  1.6107e+004 -2.4194e+006 -7.0627e+004 59807 251796,251848,251822
 1.8000e+001 252023 -2.8969e+005 -4.7645e+006  5.6223e+004 59517 251945,251997,251971
 1.8000e+001 252175  6.7308e+005 -8.2232e+006 -6.0345e+005 59269 252074,252126,252100
 1.8000e+001 252152 -1.0918e+006  1.9003e+006  9.2077e+005 59269 252048,252126,252074
 1.8000e+001 252278 -4.0537e+005 -2.2541e+006  9.9978e+005 58979 252200,252252,252226
 1.8000e+001 252381 -2.2364e+006 -2.8276e+006  1.1308e+006 58689 252303,252355,252329
 1.8000e+001 252533 -9.5694e+005 -5.1004e+006 -7.2548e+004 58249 252432,252484,252458
 1.8000e+001 252510 -8.6424e+005 -5.6424e+006 -8.0198e+005 58249 252406,252484,252432
 1.8000e+001 252734 -3.8690e+005 -4.6085e+006  1.9754e+005 57902 252584,252662,252610
 1.8000e+001 252711  8.6274e+005 -5.5583e+006 -1.3668e+005 57902 252558,252662,252584
 1.8000e+001 252688 -3.1151e+005 -3.3713e+006 -3.8125e+005 57902 252610,252662,252636
 1.8000e+001 252886 -1.4586e+005 -4.4322e+006 -1.5987e+005 57540 252785,252837,252811
 1.8000e+001 252863  1.4281e+005 -4.6956e+006 -1.5117e+005 57540 252759,252837,252785
 1.8000e+001 253038 -5.5875e+005 -5.7756e+006  1.3127e+006 57086 252937,252989,252963
 1.8000e+001 253015 -2.8774e+005 -2.7074e+006  2.2107e+005 57086 252911,252989,252937
 1.8000e+001 253239 -4.7447e+005 -5.0038e+006 -1.2385e+006 56796 253063,253141,253115
 1.8000e+001 253216  2.7938e+005 -5.9183e+006 -1.0860e+005 56796 253063,253167,253141
 1.8000e+001 253193 -1.0920e+006 -3.0430e+006 -9.0050e+005 56796 253063,253115,253089
 1.8000e+001 253342 -5.8215e+005 -5.1903e+006  4.6985e+005 56349 253264,253316,253290
 1.8000e+001 253543 -8.6512e+005 -8.3757e+006 -6.1060e+005 56009 253367,253419,253393
 1.8000e+001 253520 -6.1438e+005 -5.4035e+006 -3.4287e+005 56009 253367,253445,253419
 1.8000e+001 253497 -3.4178e+005 -6.4602e+006  1.4106e+005 56009 253367,253471,253445
 1.8000e+001 253695 -2.3821e+004 -4.0509e+006  5.5683e+003 55733 253594,253646,253620
 1.8000e+001 253672 -1.6580e+005 -3.2104e+006  2.5646e+004 55733 253568,253646,253594
 1.8000e+001 253798 -4.8664e+005 -2.3658e+006 -1.3921e+005 55557 253720,253772,253746
 1.8000e+001 253950 -5.8888e+005 -4.3106e+006  3.7832e+005 55153 253849,253901,253875
 1.8000e+001 253927  2.7088e+005 -4.9281e+006 -4.0126e+005 55153 253823,253901,253849
 1.8000e+001 254151 -1.2393e+006 -4.8365e+006  7.7289e+005 54863 253975,254053,254001
 1.8000e+001 254128 -6.4717e+005 -4.8893e+006  4.5920e+004 54863 253975,254079,254053
 1.8000e+001 254105 -4.7660e+005 -3.8970e+006  2.1674e+005 54863 254001,254053,254027
 1.8000e+001 254303  1.2913e+005 -5.4707e+006  1.0021e+005 54373 254176,254228,254202
 1.8000e+001 254280 -7.9000e+005 -4.2748e+006  1.5171e+005 54373 254176,254254,254228
 1.8000e+001 254455 -2.4937e+005 -5.3406e+006 -3.7159e+005 53975 254354,254406,254380
 1.8000e+001 254432 -7.9622e+005 -1.7476e+006  9.8851e+004 53975 254328,254406,254354
 1.8000e+001 254607 -3.6031e+005 -4.9960e+006 -4.5530e+005 53585 254480,254532,254506
 1.8000e+001 254584 -3.6815e+005 -4.8311e+006 -4.8406e+005 53585 254480,254558,254532
 1.8000e+001 254808 -8.7599e+005 -3.7388e+006  7.2628e+003 53245 254658,254736,254684
 1.8000e+001 254785 -1.0343e+006 -2.1273e+006 -3.6282e+005 53245 254632,254736,254658
 1.8000e+001 254762 -4.6148e+005 -2.6134e+006 -3.1693e+005 53245 254684,254736,254710
 1.8000e+001 254911 -3.4457e+005 -5.6720e+006 -5.7278e+004 52955 254833,254885,254859
 1.8000e+001 255063 -7.3443e+005 -5.9196e+006 -1.1107e+005 52551 254962,255014,254988
 1.8000e+001 255040 -6.6156e+005 -6.4568e+006 -3.3030e+005 52551 254936,255014,254962
 1.8000e+001 255264 -9.8587e+005 -1.8050e+006  1.3576e+005 52261 255114,255166,255140
 1.8000e+001 255241 -1.1867e+006 -4.4012e+006  9.4434e+005 52261 255114,255192,255166
 1.8000e+001 255218  1.2919e+005 -7.5999e+006 -1.9806e+006 52261 255088,255192,255114
 1.8000e+001 255416 -3.4998e+005 -4.9428e+006  1.4761e+006 51971 255289,255341,255315
 1.8000e+001 255393 -2.6915e+005 -4.5641e+006 -1.7807e+005 51971 255289,255367,255341
 1.8000e+001 255568 -9.0745e+005 -2.3026e+006 -2.9794e+005 51681 255441,255493,255467
 1.8000e+001 255545  1.3923e+005 -8.2929e+006  7.1385e+005 51681 255441,255519,255493
 1.8000e+001 255769 -2.4532e+005 -3.7622e+006 -8.4957e+004 51291 255619,255697,255671
 1.8000e+001 255746 -2.1302e+005 -3.3776e+006 -3.6063e+005 51291 255593,255697,255619
 1.8000e+001 255723 -1.4034e+005 -5.1660e+006 -3.9416e+005 51291 255619,255671,255645
 1.8000e+001 255921 -4.3187e+005 -3.1384e+006  7.4606e+005 50951 255820,255872,255846
 1.8000e+001 255898 -2.6236e+005 -2.6571e+006  1.4983e+005 50951 255794,255872,255820
 1.8000e+001 256171 -1.2069e+006 -4.4190e+006  3.0938e+004 50547 256024,256076,256050
 1.8000e+001 256148 -9.1850e+005 -4.5861e+006  4.8927e+005 50547 255972,256076,256024
 1.8000e+001 256125 -2.4068e+005 -5.3219e+006 -5.7357e+004 50547 255946,256076,255972
 1.8000e+001 256102 -8.3930e+005 -3.9841e+006  2.7522e+005 50547 255972,256024,255998
 1.8000e+001 256323  2.4420e+005 -5.3384e+006  9.1383e+005 50093 256196,256248,256222
 1.8000e+001 256300 -8.7143e+005 -2.8974e+006 -1.0059e+006 50093 256196,256274,256248
 1.8000e+001 256426  5.3559e+002 -1.6512e+005  7.1647e+002 49845 256348,256400,256374
 1.8000e+001 256627 -1.5813e+005 -5.1528e+006  2.0662e+005 49555 256477,256555,256503
 1.8000e+001 256604 -3.4801e+005 -4.3470e+006  1.5899e+005 49555 256451,256555,256477
 1.8000e+001 256581 -4.2143e+005 -4.3529e+006  3.5597e+005 49555 256503,256555,256529
 1.8000e+001 256828 -4.4307e+005 -3.6212e+006 -1.2229e+005 49056 256652,256730,256678
 1.8000e+001 256805 -5.0114e+005 -3.3057e+006 -8.3110e+004 49056 256652,256756,256730
 1.8000e+001 256782 -5.6725e+005 -3.3477e+006 -3.0083e+005 49056 256678,256730,256704
 1.8000e+001 256931 -1.0184e+006 -1.9056e+006 -7.7581e+005 48766 256853,256905,256879
 1.8000e+001 257083 -7.6162e+005 -4.7736e+006 -5.4202e+005 48568 256982,257034,257008
 1.8000e+001 257060 -5.8729e+005 -4.0626e+006 -6.2833e+005 48568 256956,257034,256982
 1.8000e+001 257186 -4.3725e+003 -1.5438e+006  2.0655e+003 48228 257108,257160,257134
 1.8000e+001 257338 -4.0597e+005 -2.0733e+006  5.8747e+005 47888 257237,257289,257263
 1.8000e+001 257315 -4.5547e+005 -2.0449e+006  4.9146e+005 47888 257211,257289,257237
 1.8000e+001 257539 -2.9776e+005 -4.3538e+006  1.3993e+005 47548 257363,257441,257415
 1.8000e+001 257516 -5.8246e+005 -4.1840e+006 -2.0222e+005 47548 257363,257467,257441
 1.8000e+001 257493 -5.5416e+005 -3.2022e+006 -1.5224e+005 47548 257363,257415,257389
 1.8000e+001 257740 -2.5173e+005 -4.6339e+006  4.4328e+005 46994 257564,257642,257616
 1.8000e+001 257717 -4.3981e+005 -3.8910e+006  1.7085e+005 46994 257564,257668,257642
 1.8000e+001 257694 -7.2489e+005 -4.9320e+006  7.0061e+004 46994 257564,257616,257590
 1.8000e+001 257843 -1.0762e+006 -3.4424e+006  1.1907e+005 46654 257765,257817,257791
 1.8000e+001 257995 -7.6268e+005 -3.5263e+006  3.1983e+005 46364 257894,257946,257920
 1.8000e+001 257972 -6.8320e+005 -4.4021e+006 -1.7075e+005 46364 257868,257946,257894
 1.8000e+001 258147 -1.9336e+005 -3.5671e+006  2.6717e+005 46024 258046,258098,258072
 1.8000e+001 258124 -3.6205e+005 -3.3752e+006  3.0947e+005 46024 258020,258098,258046
 1.8000e+001 258250 -7.2194e+005 -2.9584e+006  9.0996e+005 45741 258172,258224,258198
 1.8000e+001 258402 -1.4875e+005 -3.1420e+006  2.6222e+005 45401 258301,258353,258327
 1.8000e+001 258379 -5.0799e+005 -2.4248e+006  1.8042e+005 45401 258275,258353,258301
 1.8000e+001 258603 -6.5506e+005 -2.1962e+006  3.6525e+004 45071 258427,258505,258479
 1.8000e+001 258580 -2.5058e+005 -4.9993e+006  3.4908e+005 45071 258427,258531,258505
 1.8000e+001 258557 -2.0943e+005 -2.8252e+006  2.5772e+005 45071 258427,258479,258453
 1.8000e+001 258755 -1.5701e+005 -4.0274e+006 -2.6992e+005 44681 258654,258706,258680
 1.8000e+001 258732 -1.9927e+005 -4.1380e+006 -3.0435e+005 44681 258628,258706,258654
 1.8000e+001 258907 -4.7169e+005 -2.5016e+006 -2.1488e+005 44157 258806,258858,258832
 1.8000e+001 258884 -5.1872e+005 -2.4535e+006 -2.1173e+005 44157 258780,258858,258806
 1.8000e+001 259010 -6.2760e+005 -1.7233e+006 -3.9629e+003 43705 258932,258984,258958
 1.8000e+001 259113 -2.6330e+005 -4.4156e+006  3.8128e+005 43284 259035,259087,259061
 1.8000e+001 259216 -5.2938e+005 -3.7071e+006 -2.1320e+005 42954 259138,259190,259164
 1.8000e+001 259319 -9.3008e+005 -2.0822e+006  7.4678e+003 42116 259241,259293,259267
 1.8000e+001 259422 -3.7666e+005 -3.5251e+006 -2.3076e+005 41804 259344,259396,259370
 1.8000e+001 259525 -6.1740e+005 -5.7939e+006  7.6943e+005 41219 259447,259499,259473
 1.8000e+001 259628 -8.3363e+005 -3.1149e+006 -3.4202e+005 385 259550,259602,259576
