time S11 S22 S12 LE11 LE22 LE12
0.0 0.0 -7230298.38694 0.0 0.0 0.0 0.0
